TITLE="results for TO code"
VARIABLES = "x", "y", "z", "density", "sigmaxx", "sigmayy", "sigmazz", "sigmaxy", "sigmaxz", "sigmayz"
ZONE T="load step 1", NODES= 12221, ELEMENTS= 10000, DATAPACKING=POINT, ZONETYPE=FEBRICK
               0.00000000                0.00000000                0.00000000                1.00000000               -0.00000000               -0.00000000                2.50331633               -0.00000000                0.66891028                1.49059168
               1.00000000                0.00000000                0.00000000                1.00000000                0.00000000                0.00000000                1.64668479                0.00000000               -0.01090118                0.92283683
               2.00000000                0.00000000                0.00000000                1.00000000                0.00000000                0.00000000                0.67272205               -0.00000000               -0.22362208                0.35715152
               3.00000000                0.00000000                0.00000000                1.00000000               -0.00000000               -0.00000000                0.01444449                0.00000000               -0.08690723                0.01427143
               4.00000000                0.00000000                0.00000000                1.00000000               -0.00000000                0.00000000               -0.02956425               -0.00000000                0.02097065               -0.03549083
               5.00000000                0.00000000                0.00000000                1.00000000               -0.00000000               -0.00000000               -0.00959850               -0.00000000                0.04686180               -0.00751278
               6.00000000                0.00000000                0.00000000                1.00000000               -0.00000000                0.00000000               -0.00415752               -0.00000000                0.03121982                0.00724162
               7.00000000                0.00000000                0.00000000                1.00000000                0.00000000               -0.00000000               -0.09730291                0.00000000               -0.03193355               -0.07373715
               8.00000000                0.00000000                0.00000000                1.00000000                0.00000000                0.00000000               -0.81242015               -0.00000000               -0.06784688               -0.53679900
               9.00000000                0.00000000                0.00000000                1.00000000                0.00000000                0.00000000               -2.05838973               -0.00000000                0.33122354               -1.20967059
              10.00000000                0.00000000                0.00000000                1.00000000                0.00000000               -0.00000000               -3.32434393                0.00000000                1.25645377               -1.77774465
               0.00000000                1.00000000                0.00000000                1.00000000               -0.00000000                0.00000000                2.05243631               -0.00000000                1.01415944                0.77648454
               1.00000000                1.00000000                0.00000000                1.00000000               -0.00000000               -0.00000000                1.16092808                0.00000000                0.36804396                0.42317349
               2.00000000                1.00000000                0.00000000                1.00000000                0.00000000               -0.00000000                0.34560044                0.00000000                0.09630289                0.07083540
               3.00000000                1.00000000                0.00000000                1.00000000                0.00000000                0.00000000                0.00247030               -0.00000000                0.04609151               -0.03088813
               4.00000000                1.00000000                0.00000000                1.00000000                0.00000000               -0.00000000               -0.00174420                0.00000000                0.02758039               -0.02408817
               5.00000000                1.00000000                0.00000000                1.00000000                0.00000000               -0.00000000               -0.00292095                0.00000000                0.02661019               -0.00382553
               6.00000000                1.00000000                0.00000000                1.00000000                0.00000000               -0.00000000               -0.00657482                0.00000000                0.04250689                0.01062528
               7.00000000                1.00000000                0.00000000                1.00000000               -0.00000000                0.00000000               -0.04107977               -0.00000000                0.09620472               -0.01329740
               8.00000000                1.00000000                0.00000000                1.00000000               -0.00000000               -0.00000000               -0.27383466                0.00000000                0.23113375               -0.12275657
               9.00000000                1.00000000                0.00000000                1.00000000                0.00000000               -0.00000000               -1.35598743                0.00000000                0.63391085               -0.52816617
              10.00000000                1.00000000                0.00000000                1.00000000               -0.00000000                0.00000000               -2.94969055               -0.00000000                1.54215498               -0.85681678
               0.00000000                2.00000000                0.00000000                1.00000000                0.00000000               -0.00000000                2.02114401               -0.00000000                1.14654991                0.37421786
               1.00000000                2.00000000                0.00000000                1.00000000                0.00000000                0.00000000                0.82562947               -0.00000000                0.46527245                0.16592900
               2.00000000                2.00000000                0.00000000                1.00000000               -0.00000000                0.00000000                0.05662023                0.00000000                0.18011550               -0.02093915
               3.00000000                2.00000000                0.00000000                1.00000000               -0.00000000               -0.00000000                0.00010671                0.00000000                0.07016056               -0.01449273
               4.00000000                2.00000000                0.00000000                1.00000000                0.00000000               -0.00000000                0.00179404               -0.00000000                0.02577875               -0.01159542
               5.00000000                2.00000000                0.00000000                1.00000000                0.00000000                0.00000000               -0.00008083                0.00000000                0.01527594               -0.00391203
               6.00000000                2.00000000                0.00000000                1.00000000               -0.00000000                0.00000000               -0.00040654                0.00000000                0.02823921               -0.00270319
               7.00000000                2.00000000                0.00000000                1.00000000               -0.00000000                0.00000000               -0.00973913                0.00000000                0.07183672               -0.01943579
               8.00000000                2.00000000                0.00000000                1.00000000               -0.00000000                0.00000000                0.05068515                0.00000000                0.17117748               -0.07841461
               9.00000000                2.00000000                0.00000000                1.00000000                0.00000000               -0.00000000               -0.68903585               -0.00000000                0.45733433               -0.20072288
              10.00000000                2.00000000                0.00000000                1.00000000               -0.00000000                0.00000000               -2.35430619                0.00000000                1.46270106               -0.18264039
               0.00000000                3.00000000                0.00000000                1.00000000                0.00000000                0.00000000                1.92528038                0.00000000                1.11002752                0.11424631
               1.00000000                3.00000000                0.00000000                1.00000000               -0.00000000               -0.00000000                0.53300976                0.00000000                0.44012591                0.04200595
               2.00000000                3.00000000                0.00000000                1.00000000                0.00000000               -0.00000000               -0.05189768               -0.00000000                0.18561706               -0.03045468
               3.00000000                3.00000000                0.00000000                1.00000000               -0.00000000               -0.00000000                0.01167951                0.00000000                0.07440937               -0.00701401
               4.00000000                3.00000000                0.00000000                1.00000000               -0.00000000               -0.00000000                0.00084912               -0.00000000                0.02921470               -0.00434850
               5.00000000                3.00000000                0.00000000                1.00000000               -0.00000000                0.00000000                0.00027831               -0.00000000                0.01613764               -0.00336241
               6.00000000                3.00000000                0.00000000                1.00000000                0.00000000                0.00000000               -0.00121795               -0.00000000                0.02152896               -0.00603079
               7.00000000                3.00000000                0.00000000                1.00000000               -0.00000000               -0.00000000               -0.00313205                0.00000000                0.04611033               -0.01903699
               8.00000000                3.00000000                0.00000000                1.00000000               -0.00000000               -0.00000000                0.00301030               -0.00000000                0.09757994               -0.05215485
               9.00000000                3.00000000                0.00000000                1.00000000               -0.00000000                0.00000000               -0.26323880                0.00000000                0.22291336               -0.09367230
              10.00000000                3.00000000                0.00000000                1.00000000                0.00000000               -0.00000000               -1.20697885               -0.00000000                0.94471494                0.04138323
               0.00000000                4.00000000                0.00000000                1.00000000                0.00000000                0.00000000                1.75962159               -0.00000000                0.99419982               -0.03855623
               1.00000000                4.00000000                0.00000000                1.00000000                0.00000000               -0.00000000                0.33425407               -0.00000000                0.39522116               -0.03407786
               2.00000000                4.00000000                0.00000000                1.00000000                0.00000000                0.00000000               -0.08065220               -0.00000000                0.18538820               -0.03032269
               3.00000000                4.00000000                0.00000000                1.00000000                0.00000000               -0.00000000                0.01278314                0.00000000                0.07488793               -0.00397597
               4.00000000                4.00000000                0.00000000                1.00000000               -0.00000000                0.00000000                0.00121085                0.00000000                0.02947678               -0.00157151
               5.00000000                4.00000000                0.00000000                1.00000000                0.00000000                0.00000000                0.00037564               -0.00000000                0.01538483               -0.00207433
               6.00000000                4.00000000                0.00000000                1.00000000               -0.00000000               -0.00000000               -0.00040548                0.00000000                0.01624321               -0.00475532
               7.00000000                4.00000000                0.00000000                1.00000000                0.00000000                0.00000000               -0.00370451               -0.00000000                0.02968674               -0.01180233
               8.00000000                4.00000000                0.00000000                1.00000000               -0.00000000               -0.00000000                0.01209169                0.00000000                0.05786811               -0.02274231
               9.00000000                4.00000000                0.00000000                1.00000000               -0.00000000                0.00000000               -0.20989739                0.00000000                0.13143666               -0.00065779
              10.00000000                4.00000000                0.00000000                1.00000000                0.00000000               -0.00000000               -1.03747925                0.00000000                0.72017100                0.09112633
               0.00000000                5.00000000                0.00000000                1.00000000                0.00000000               -0.00000000                1.57348041               -0.00000000                0.86270851               -0.12270282
               1.00000000                5.00000000                0.00000000                1.00000000               -0.00000000                0.00000000                0.14870207                0.00000000                0.34623537               -0.07808159
               2.00000000                5.00000000                0.00000000                1.00000000               -0.00000000               -0.00000000               -0.09700769                0.00000000                0.17902490               -0.02836793
               3.00000000                5.00000000                0.00000000                1.00000000                0.00000000               -0.00000000                0.01405925                0.00000000                0.07324100               -0.00192665
               4.00000000                5.00000000                0.00000000                1.00000000                0.00000000               -0.00000000                0.00107172                0.00000000                0.02861117               -0.00011564
               5.00000000                5.00000000                0.00000000                1.00000000               -0.00000000               -0.00000000                0.00054688                0.00000000                0.01409450               -0.00088405
               6.00000000                5.00000000                0.00000000                1.00000000                0.00000000                0.00000000               -0.00024226               -0.00000000                0.01284635               -0.00255119
               7.00000000                5.00000000                0.00000000                1.00000000               -0.00000000               -0.00000000               -0.00220209                0.00000000                0.02161703               -0.00499861
               8.00000000                5.00000000                0.00000000                1.00000000                0.00000000                0.00000000                0.00861019                0.00000000                0.04310177               -0.00244621
               9.00000000                5.00000000                0.00000000                1.00000000                0.00000000                0.00000000               -0.14845272               -0.00000000                0.10752373                0.05532535
              10.00000000                5.00000000                0.00000000                1.00000000               -0.00000000               -0.00000000               -0.90268241                0.00000000                0.61069460                0.13374906
               0.00000000                6.00000000                0.00000000                1.00000000               -0.00000000                0.00000000                1.37780125                0.00000000                0.73314781               -0.16161083
               1.00000000                6.00000000                0.00000000                1.00000000                0.00000000               -0.00000000               -0.01929003                0.00000000                0.30392240               -0.09887123
               2.00000000                6.00000000                0.00000000                1.00000000                0.00000000                0.00000000               -0.10439457               -0.00000000                0.17265799               -0.02448563
               3.00000000                6.00000000                0.00000000                1.00000000               -0.00000000               -0.00000000                0.01425889                0.00000000                0.07064614                0.00013492
               4.00000000                6.00000000                0.00000000                1.00000000               -0.00000000                0.00000000                0.00099255               -0.00000000                0.02711947                0.00130295
               5.00000000                6.00000000                0.00000000                1.00000000                0.00000000                0.00000000                0.00058235                0.00000000                0.01276346                0.00013259
               6.00000000                6.00000000                0.00000000                1.00000000               -0.00000000               -0.00000000               -0.00004387                0.00000000                0.01105796               -0.00095891
               7.00000000                6.00000000                0.00000000                1.00000000                0.00000000                0.00000000               -0.00154390               -0.00000000                0.01880279               -0.00071885
               8.00000000                6.00000000                0.00000000                1.00000000                0.00000000                0.00000000                0.00521764               -0.00000000                0.04039618                0.00864732
               9.00000000                6.00000000                0.00000000                1.00000000               -0.00000000                0.00000000               -0.07890803                0.00000000                0.09880192                0.08796612
              10.00000000                6.00000000                0.00000000                1.00000000                0.00000000                0.00000000               -0.77940713                0.00000000                0.50900966                0.17175828
               0.00000000                7.00000000                0.00000000                1.00000000                0.00000000                0.00000000                1.17747412                0.00000000                0.61496678               -0.17179121
               1.00000000                7.00000000                0.00000000                1.00000000               -0.00000000               -0.00000000               -0.17406166                0.00000000                0.27289517               -0.09856571
               2.00000000                7.00000000                0.00000000                1.00000000               -0.00000000                0.00000000               -0.10858330                0.00000000                0.16859760               -0.01481380
               3.00000000                7.00000000                0.00000000                1.00000000                0.00000000                0.00000000                0.01405591                0.00000000                0.06708222                0.00495310
               4.00000000                7.00000000                0.00000000                1.00000000               -0.00000000                0.00000000                0.00078614                0.00000000                0.02443202                0.00357194
               5.00000000                7.00000000                0.00000000                1.00000000               -0.00000000                0.00000000                0.00058920                0.00000000                0.01102387                0.00097153
               6.00000000                7.00000000                0.00000000                1.00000000                0.00000000                0.00000000                0.00001623               -0.00000000                0.00977596               -0.00062461
               7.00000000                7.00000000                0.00000000                1.00000000                0.00000000               -0.00000000               -0.00079679               -0.00000000                0.01870507                0.00045393
               8.00000000                7.00000000                0.00000000                1.00000000               -0.00000000                0.00000000                0.00051176                0.00000000                0.04348310                0.01435378
               9.00000000                7.00000000                0.00000000                1.00000000                0.00000000               -0.00000000                0.00461112               -0.00000000                0.09701945                0.11012642
              10.00000000                7.00000000                0.00000000                1.00000000               -0.00000000                0.00000000               -0.65005924                0.00000000                0.40792331                0.19359529
               0.00000000                8.00000000                0.00000000                1.00000000               -0.00000000               -0.00000000                0.96913272                0.00000000                0.51091056               -0.17057671
               1.00000000                8.00000000                0.00000000                1.00000000                0.00000000                0.00000000               -0.31694541               -0.00000000                0.25373402               -0.06790842
               2.00000000                8.00000000                0.00000000                1.00000000               -0.00000000               -0.00000000               -0.11844242                0.00000000                0.16433575                0.01427642
               3.00000000                8.00000000                0.00000000                1.00000000               -0.00000000                0.00000000                0.01313361               -0.00000000                0.05803773                0.01786250
               4.00000000                8.00000000                0.00000000                1.00000000               -0.00000000                0.00000000                0.00059878               -0.00000000                0.01855923                0.00638472
               5.00000000                8.00000000                0.00000000                1.00000000               -0.00000000                0.00000000                0.00048910               -0.00000000                0.00925761                0.00095860
               6.00000000                8.00000000                0.00000000                1.00000000               -0.00000000                0.00000000                0.00015689                0.00000000                0.00830138               -0.00074642
               7.00000000                8.00000000                0.00000000                1.00000000               -0.00000000                0.00000000               -0.00036502               -0.00000000                0.01651945               -0.00318537
               8.00000000                8.00000000                0.00000000                1.00000000                0.00000000               -0.00000000               -0.00244426               -0.00000000                0.05219873                0.01025132
               9.00000000                8.00000000                0.00000000                1.00000000               -0.00000000                0.00000000                0.10346285                0.00000000                0.11164561                0.12376072
              10.00000000                8.00000000                0.00000000                1.00000000               -0.00000000                0.00000000               -0.53034053               -0.00000000                0.32462042                0.19757717
               0.00000000                9.00000000                0.00000000                1.00000000                0.00000000               -0.00000000                0.72025203               -0.00000000                0.39545205               -0.19987497
               1.00000000                9.00000000                0.00000000                1.00000000                0.00000000               -0.00000000               -0.43935806                0.00000000                0.21954935                0.04211895
               2.00000000                9.00000000                0.00000000                1.00000000               -0.00000000                0.00000000               -0.16462032               -0.00000000                0.13647769                0.10456977
               3.00000000                9.00000000                0.00000000                1.00000000                0.00000000               -0.00000000                0.01700537                0.00000000                0.03388427                0.03791666
               4.00000000                9.00000000                0.00000000                1.00000000                0.00000000               -0.00000000               -0.00018296                0.00000000                0.01538015                0.00444198
               5.00000000                9.00000000                0.00000000                1.00000000                0.00000000                0.00000000                0.00057111                0.00000000                0.00887860                0.00079039
               6.00000000                9.00000000                0.00000000                1.00000000                0.00000000               -0.00000000                0.00013076               -0.00000000                0.00769176               -0.00077062
               7.00000000                9.00000000                0.00000000                1.00000000                0.00000000               -0.00000000                0.00072381               -0.00000000                0.01158611               -0.00569884
               8.00000000                9.00000000                0.00000000                1.00000000               -0.00000000                0.00000000               -0.00778549                0.00000000                0.04132825               -0.02397117
               9.00000000                9.00000000                0.00000000                1.00000000               -0.00000000                0.00000000                0.28183232               -0.00000000                0.15208557                0.08094201
              10.00000000                9.00000000                0.00000000                1.00000000               -0.00000000                0.00000000               -0.43758385                0.00000000                0.28790009                0.22138103
               0.00000000               10.00000000                0.00000000                1.00000000                0.00000000                0.00000000                0.54916048                0.00000000                0.00868962               -0.36053280
               1.00000000               10.00000000                0.00000000                1.00000000               -0.00000000               -0.00000000               -0.59447866               -0.00000000               -0.01157381                0.32019059
               2.00000000               10.00000000                0.00000000                1.00000000                0.00000000               -0.00000000               -0.34970951                0.00000000                0.14501441                0.33898114
               3.00000000               10.00000000                0.00000000                1.00000000               -0.00000000                0.00000000               -0.00401955                0.00000000                0.08049977                0.05519185
               4.00000000               10.00000000                0.00000000                1.00000000               -0.00000000                0.00000000               -0.00407618                0.00000000                0.03014761                0.01057318
               5.00000000               10.00000000                0.00000000                1.00000000               -0.00000000               -0.00000000               -0.00014948                0.00000000                0.01255158                0.00220507
               6.00000000               10.00000000                0.00000000                1.00000000               -0.00000000                0.00000000                0.00095591                0.00000000                0.01122409               -0.00200801
               7.00000000               10.00000000                0.00000000                1.00000000                0.00000000                0.00000000                0.00479269                0.00000000                0.02238099               -0.01087157
               8.00000000               10.00000000                0.00000000                1.00000000               -0.00000000               -0.00000000                0.02478473               -0.00000000                0.04680961               -0.06357081
               9.00000000               10.00000000                0.00000000                1.00000000                0.00000000                0.00000000                0.42780648                0.00000000                0.04680718               -0.17355335
              10.00000000               10.00000000                0.00000000                1.00000000                0.00000000               -0.00000000               -0.45977115               -0.00000000                0.03201498                0.39433897
               0.00668910                0.01490592                1.02503316                1.00000000               -0.67981146               -0.71410714                2.47213271               -0.22250569               -0.12852060                0.72430236
               0.99989099                0.00922837                1.01646685                1.00000000               -0.44626618               -0.49966333                1.64308871               -0.18777494               -0.47775787                0.23879222
               1.99776378                0.00357152                1.00672722                0.70061026               -0.03800302               -0.28631612                0.80934787               -0.13435773               -0.55172139               -0.06049068
               2.99913093                0.00014271                1.00014444                0.51371952                0.12229637               -0.04515956                0.09070780               -0.06332244               -0.04302245               -0.10278175
               4.00020971               -0.00035491                0.99970436                0.44592853                0.06688452                0.01140266               -0.20680707               -0.00428237                0.59227222               -0.14756581
               5.00046862               -0.00007513                0.99990402                0.44638904                0.00512458                0.00368725               -0.10131937                0.00111462                0.82526216               -0.02568877
               6.00031220                0.00007242                0.99995842                0.50242959               -0.03939767                0.00338366               -0.04991729               -0.02182511                0.67826513                0.08684827
               6.99968066               -0.00073737                0.99902697                0.62818032               -0.04953335                0.06043976               -0.44701667               -0.14388205                0.13906182                0.02067866
               7.99932153               -0.00536799                0.99187580                0.87225825                0.18157855                0.41404243               -1.32306938               -0.26898609               -0.40835065                0.10938110
               9.00331224               -0.01209671                0.97941610                1.00000000                0.66215033                0.68150442               -2.27524222               -0.31778552               -0.39196458               -0.21126258
              10.01256454               -0.01777745                0.96675656                1.00000000                0.92523023                0.92092787               -3.14269540               -0.28237286               -0.00693963               -0.95400451
               0.01014159                1.00776485                1.02052436                1.00000000               -0.64611549               -0.55818691                2.17421813               -0.11449123                0.20430767                0.59099531
               1.00368044                1.00423173                1.01160928                0.92372647               -0.45892828               -0.37845391                1.37365033               -0.11473775               -0.04727590                0.08234368
               2.00096303                1.00070835                1.00345600                0.22050731               -0.16097622               -0.18904534                0.58356959               -0.02516202                0.06065725               -0.19766763
               3.00046092                0.99969112                1.00002470                0.00010000               -0.03436125               -0.01438208                0.07631808                0.03107211                0.43229771               -0.16504829
               4.00027580                0.99975912                0.99998256                0.00010000               -0.00974066                0.01194771               -0.13828630                0.01593534                0.62577377               -0.15918819
               5.00026610                0.99996174                0.99997079                0.00010000                0.00746325                0.00180038               -0.08553893                0.00156379                0.69714247               -0.00082421
               6.00042507                1.00010625                0.99993425                0.00010000                0.03479726               -0.00497241               -0.09284054               -0.00622623                0.73370856                0.16464796
               7.00096205                0.99986703                0.99958920                0.10497157                0.09431343                0.02715068               -0.40221847               -0.01480579                0.70787671                0.18189846
               8.00231134                0.99877243                0.99726165                0.44025473                0.26885307                0.22919220               -1.21111635               -0.13792220                0.36415903                0.26472590
               9.00633911                0.99471834                0.98644013                1.00000000                0.65551062                0.50447385               -1.94358128               -0.30397471               -0.08056424                0.06664913
              10.01542155                0.99143183                0.97050309                1.00000000                0.90824413                0.79755213               -2.81613267               -0.22552697                0.03887607               -0.43882348
               0.01146550                2.00374218                1.02021144                1.00000000               -0.68127746               -0.33111911                2.01729660               -0.16035483                0.12567636                0.48343783
               1.00465272                2.00165929                1.00825629                0.67963436               -0.48321721               -0.19058377                1.15605874               -0.16153753                0.06491890               -0.01475624
               2.00180116                1.99979061                1.00056620                0.07217574               -0.19755595               -0.05064504                0.24421335               -0.04555378                0.53192569               -0.24095420
               3.00070161                1.99985507                1.00000107                0.00010000               -0.07716838                0.01193706               -0.46191622                0.01883080                1.09829875               -0.38579282
               4.00025779                1.99988405                1.00001794                0.00010000               -0.02744231                0.00986984               -0.03134673                0.00610750                1.27855247               -0.05444967
               5.00015276                1.99996088                0.99999919                0.00010000                0.00123023                0.00023156                0.01120391               -0.00079017                1.30642877                0.09811828
               6.00028239                1.99997297                0.99999593                0.00010000                0.02828039               -0.00832803                0.03509068               -0.01825084                1.35750512                0.24519718
               7.00071837                1.99980564                0.99990261                0.00010000                0.07146914               -0.00286980               -0.16235720               -0.06290290                1.55444053                0.39186167
               8.00171177                1.99921585                1.00050685                0.20296548                0.19274880                0.03530086               -1.19273374               -0.15742045                1.12053642                0.14317723
               9.00457334                1.99799277                0.99310964                0.71678700                0.64576179                0.21724694               -1.74157670               -0.25761164                0.20363366                0.17237724
              10.01462701                1.99817360                0.97645694                1.00000000                1.00536673                0.44910001               -2.94498333               -0.28063752                0.15182550                0.34175761
               0.01110028                3.00114246                1.01925280                1.00000000               -0.66990161               -0.20638704                1.89153983               -0.14841540                0.05559339                0.21425632
               1.00440126                3.00042006                1.00533010                0.60368371               -0.46220523               -0.10000343                0.87535413               -0.10737614                0.21593701               -0.08178153
               2.00185617                2.99969545                0.99948102                0.03872555               -0.18285827               -0.00469177               -0.18544262               -0.02187363                0.91918333               -0.21631792
               3.00074409                2.99992986                1.00011680                0.00010000               -0.07820118                0.00525838               -0.96407563                0.01541678                1.45170402               -0.41319047
               4.00029215                2.99995651                1.00000849                0.00010000               -0.02913587                0.00501195               -0.06956107                0.00367482                1.68634503               -0.01267527
               5.00016138                2.99996638                1.00000278                0.00010000               -0.00384287                0.00091885                0.08367098               -0.00078670                1.76622674                0.17479390
               6.00021529                2.99993969                0.99998782                0.00010000                0.01498635               -0.00102606                0.20632488               -0.01383529                1.77366612                0.33490295
               7.00046110                2.99980963                0.99996868                0.00010000                0.03802549                0.00381673                0.51520197               -0.04413703                1.63777444                0.55803356
               8.00097580                2.99947845                1.00003010                0.17538776                0.08840151                0.02783615               -0.31591276               -0.09397235                1.31995399                0.26094951
               9.00222913                2.99906328                0.99736761                0.64773561                0.42356750                0.10003255               -1.75556597               -0.11617979                0.78058964                0.02648637
              10.00944715                3.00041383                0.98793021                1.00000000                0.72180158                0.13688336               -3.46405882               -0.23620950                0.73585549                0.37737216
               0.00994200                3.99961444                1.01759622                1.00000000               -0.59897867               -0.11847456                1.75705463               -0.11918114                0.07545836                0.03103905
               1.00395221                3.99965922                1.00334254                0.56182355               -0.40440581               -0.06004377                0.54500982               -0.04282850                0.37057672               -0.11832253
               2.00185388                3.99969677                0.99919348                0.02240322               -0.16016661                0.00104338               -0.73779273                0.01175487                1.14949177               -0.23199703
               3.00074888                3.99996024                1.00012783                0.00010000               -0.07795571                0.00254368               -1.12504777                0.01379141                1.79468089               -0.28842732
               4.00029477                3.99998428                1.00001211                0.00010000               -0.02975155                0.00211643               -0.10211596                0.00064906                2.04531819                0.02857339
               5.00015385                3.99997926                1.00000376                0.00010000               -0.00661678                0.00123918                0.16702508               -0.00261348                2.14465510                0.22815212
               6.00016243                3.99995245                0.99999595                0.00010000                0.00715095                0.00173980                0.43560865               -0.00920531                2.12915698                0.42373232
               7.00029687                3.99988198                0.99996295                0.00010000                0.02081245                0.00701919                1.09007302               -0.02124014                1.86543826                0.68564457
               8.00057868                3.99977258                1.00012092                0.17165840                0.05087496                0.02485432                0.51482790               -0.02166681                1.31655106                0.46314429
               9.00131437                3.99999342                0.99790103                0.63786052                0.33115145                0.07449882               -1.35161127               -0.00076049                0.84445396                0.06576369
              10.00720171                4.00091126                0.98962521                1.00000000                0.58873434                0.04618292               -3.31297328               -0.07522606                0.77054147                0.08185755
               0.00862709                4.99877297                1.01573480                1.00000000               -0.51647314               -0.06152730                1.60492010               -0.08590478                0.08960403               -0.07128532
               1.00346235                4.99921918                1.00148702                0.53383205               -0.34184181               -0.03239668                0.23832468                0.00151806                0.50564158               -0.15438972
               2.00179025                4.99971632                0.99902992                0.01324989               -0.13649718                0.00291853               -1.28064692                0.03171237                1.33702654               -0.24110550
               3.00073241                4.99998073                1.00014059                0.00010000               -0.07520687                0.00205545               -1.14377814                0.01200525                2.09544137               -0.16415802
               4.00028611                4.99999884                1.00001072                0.00010000               -0.02957325                0.00143723               -0.09931867               -0.00065735                2.36552410                0.07611844
               5.00014094                4.99999116                1.00000547                0.00010000               -0.00788241                0.00110346                0.26554451               -0.00252846                2.48039926                0.25639990
               6.00012846                4.99997449                0.99999758                0.00010000                0.00376127                0.00189821                0.66460793               -0.00464991                2.46641519                0.46068446
               7.00021617                4.99995001                0.99997798                0.00010000                0.01512771                0.00554174                1.75152842               -0.00538948                2.07439801                0.78654687
               8.00043102                4.99997554                1.00008610                0.17653650                0.04295335                0.01569481                1.37984347                0.02142601                1.34939919                0.58650842
               9.00107524                5.00055325                0.99851547                0.64230254                0.28379641                0.04431195               -0.81113579                0.05178027                0.93116912                0.24628150
              10.00610695                5.00133749                0.99097318                1.00000000                0.50317087                0.04031598               -2.96209035               -0.02715696                0.83445059                0.20975103
               0.00733148                5.99838389                1.01377801                1.00000000               -0.42922542               -0.02454420                1.44465509               -0.06113127                0.11195371               -0.12886965
               1.00303922                5.99901129                0.99980710                0.51491533               -0.28024491               -0.01024206               -0.04987770                0.03189249                0.63499207               -0.16179502
               2.00172658                5.99975514                0.99895605                0.00870342               -0.11663813                0.00677706               -1.79288571                0.04428942                1.49585251               -0.21550639
               3.00070646                6.00000135                1.00014259                0.00010000               -0.07276926                0.00343987               -1.10057998                0.00981490                2.34237731               -0.06570018
               4.00027119                6.00001303                1.00000993                0.00010000               -0.02894134                0.00184379               -0.07694510               -0.00209074                2.63518277                0.10471626
               5.00012763                6.00000133                1.00000582                0.00010000               -0.00803076                0.00092779                0.37074230               -0.00266624                2.77620680                0.24716633
               6.00011058                5.99999041                0.99999956                0.00010000                0.00301966                0.00096329                0.89459360               -0.00196092                2.77119190                0.44312949
               7.00018803                5.99999281                0.99998456                0.00010000                0.01466911                0.00272627                2.53205428                0.00334713                2.26391327                0.83042912
               8.00040396                6.00008647                1.00005218                0.18611860                0.03999957                0.00839999                2.23899308                0.04453315                1.41969398                0.64400881
               9.00098802                6.00087966                0.99921092                0.65419310                0.23430674                0.02740054               -0.22504173                0.07630334                1.04776519                0.35656460
              10.00509010                6.00171758                0.99220593                1.00000000                0.41020774                0.02992311               -2.51726099               -0.01759347                0.90399821                0.29785822
               0.00614967                6.99828209                1.01177474                1.00000000               -0.34207161               -0.00448294                1.27582874               -0.03789312                0.14155798               -0.16293134
               1.00272895                6.99901434                0.99825938                0.50584810               -0.22318459                0.01548140               -0.31727043                0.05339452                0.75966213               -0.14495081
               2.00168598                6.99985186                0.99891417                0.00845282               -0.10290648                0.01938103               -2.25795019                0.04759828                1.63140590               -0.14591321
               3.00067082                7.00004953                1.00014056                0.00010000               -0.07208279                0.00886379               -1.05972789                0.00288867                2.53236672                0.01088501
               4.00024432                7.00003572                1.00000786                0.00010000               -0.02802917                0.00254089               -0.04818047               -0.00627090                2.84928875                0.10241740
               5.00011024                7.00000972                1.00000589                0.00010000               -0.00732803                0.00041300                0.47279599               -0.00385120                3.02037531                0.18880852
               6.00009776                6.99999375                1.00000016                0.00010000                0.00384060                0.00010625                1.11480193               -0.00163709                3.02932705                0.35251721
               7.00018705                7.00000454                0.99999203                0.00228922                0.01685357               -0.00123326                3.44674388                0.00634752                2.40351123                0.77819740
               8.00043483                7.00014354                1.00000512                0.20123997                0.03915719                0.00080200                3.04861142                0.06073753                1.52119111                0.60685409
               9.00097019                7.00110126                1.00004611                0.67557262                0.18222011                0.01789730                0.34970561                0.09604260                1.18590541                0.40237846
              10.00407923                7.00193595                0.99349941                1.00000000                0.31090386                0.01290944               -2.04618423               -0.00872575                0.97571378                0.33252499
               0.00510911                7.99829423                1.00969133                1.00000000               -0.25717654               -0.01404188                1.09383564               -0.00708908                0.17425751               -0.20876958
               1.00253734                7.99932092                0.99683055                0.51613565               -0.17328741                0.07034233               -0.56055034                0.06575365                0.86984605               -0.09188971
               2.00164336                8.00014276                0.99881558                0.01476330               -0.09784815                0.05969179               -2.64343269                0.02682551                1.73632408               -0.02151752
               3.00058038                8.00017863                1.00013134                0.00010000               -0.07288826                0.01648178               -1.07075117               -0.02054482                2.66435163                0.08828310
               4.00018559                8.00006385                1.00000599                0.00010000               -0.02439006                0.00043502               -0.02727709               -0.01297789                2.99423908                0.06518154
               5.00009258                8.00000959                1.00000489                0.00010000               -0.00512893               -0.00009057                0.56308385               -0.00463821                3.20354939                0.06435164
               6.00008301                7.99999254                1.00000157                0.00010000                0.00363092               -0.00007301                1.30470691               -0.00311409                3.21828012                0.17086784
               7.00016519                7.99996815                0.99999635                0.01504650                0.02194868               -0.00307638                4.51644077                0.00193939                2.43989446                0.57794308
               8.00052199                8.00010251                0.99997556                0.22884953                0.04756308               -0.01916247                3.74689348                0.06239562                1.64594310                0.46006741
               9.00111646                8.00123761                1.00103463                0.71986316                0.13621084               -0.01459221                0.86728847                0.12119599                1.32522116                0.41515766
              10.00324620                8.00197577                0.99469659                1.00000000                0.21297481                0.01389287               -1.58168608                0.01380484                1.02272041                0.30655243
               0.00395452                8.99800125                1.00720252                1.00000000               -0.17590271               -0.09497804                0.89282294               -0.00911656                0.21210180               -0.23734997
               1.00219549                9.00042119                0.99560642                0.57180641               -0.12948718                0.19404951               -0.77428076                0.01956845                0.92509329               -0.01044483
               2.00136478                9.00104570                0.99835380                0.03698397               -0.09283254                0.16235236               -2.85033162               -0.01176181                1.79462931                0.12037360
               3.00033884                9.00037917                1.00017005                0.00010000               -0.06054877                0.01866468               -1.21357632               -0.03883287                2.74174117                0.19328680
               4.00015380                9.00004442                0.99999817                0.00010000               -0.01250284                0.00209423               -0.01038888               -0.01276895                3.08596277               -0.00457060
               5.00008879                9.00000790                1.00000571                0.00010000               -0.00384420                0.00062323                0.62861239               -0.00095931                3.30136838               -0.15671541
               6.00007692                8.99999229                1.00000131                0.00010000                0.00135376               -0.00063079                1.41318006               -0.00178326                3.34014015               -0.15939158
               7.00011586                8.99994301                1.00000724                0.04381499                0.01681825               -0.00384310                5.66205744               -0.00866951                2.36723072                0.23616559
               8.00041328                8.99976029                0.99992215                0.29037185                0.07024973               -0.03691107                4.24676335                0.04062586                1.79097280                0.24675804
               9.00152086                9.00080942                1.00281832                0.82734892                0.12328592               -0.14865704                1.24997319                0.09025689                1.43380852                0.32382100
              10.00287900                9.00221381                0.99562416                1.00000000                0.13581452                0.09838090               -1.13755089               -0.00586370                0.93030794                0.22796290
               0.00008690                9.99639467                1.00549160                1.00000000               -0.02026343               -0.16065783                0.69211685                0.29396096               -0.03901862               -0.29110423
               0.99988426               10.00320191                0.99405521                0.83519956                0.06816240                0.27807165               -0.95804161                0.11863381                0.69561675                0.13126529
               2.00145014               10.00338981                0.99650290                0.53777002                0.04603679                0.23441138               -2.97277570               -0.12396264                1.71040234                0.41533829
               3.00080500               10.00055192                0.99995980                0.44132109               -0.05743340                0.01727519               -1.31629634               -0.11758848                2.97818757                0.27300135
               4.00030148               10.00010573                0.99995924                0.42669784               -0.03397410                0.00613120                0.04142281               -0.01172593                3.30139046               -0.07230099
               5.00012552               10.00002205                0.99999851                0.44071547               -0.00946176                0.00141468                0.73680832               -0.00261761                3.47297837               -0.46847626
               6.00011224                9.99997992                1.00000956                0.47579371                0.00491470               -0.00123739                1.54974858               -0.00300599                3.34793415               -0.84794046
               7.00022381                9.99989128                1.00004793                0.54541101                0.01779276               -0.00517273                6.23713187               -0.01998652                2.26835996               -0.17763398
               8.00046810                9.99936429                1.00024785                0.69109091                0.01221310               -0.03959964                4.54544824               -0.07585954                1.91212325                0.01849533
               9.00046807                9.99826447                1.00427806                0.99324703               -0.00739732               -0.25449536                1.48404296                0.12367650                1.29498737                0.06199273
              10.00032015               10.00394339                0.99540229                1.00000000               -0.01479221                0.17295794               -0.82635944                0.31200720                0.56306362                0.24754441
               0.01456222                0.02350365                2.04944265                1.00000000               -0.58114335               -0.68620183                2.44533725               -0.16585698               -0.43082105                0.34988431
               1.00875079                0.01449098                2.03286177                1.00000000               -0.46371218               -0.46335518                1.66202691               -0.17134593               -0.39922860                0.05098318
               2.00528798                0.00533262                2.01618696                0.75932666               -0.12941857               -0.31249529                0.92204672               -0.06438173               -0.33542991               -0.22611398
               3.00616241               -0.00181615                2.00181416                0.54047125                0.33989496               -0.13414368                0.15472114                0.15368186                0.19712682               -0.14239891
               4.01208587               -0.00350772                1.99586386                0.45114800                0.50443809                0.00103706               -0.32903873                0.10679258                1.30023386               -0.10191462
               5.01625118               -0.00064733                1.99797361                0.45081418                0.11782361                0.05356658               -0.22282901                0.03864942                1.95410181                0.00038229
               6.01444235                0.00178531                1.99900165                0.52900916               -0.26936565                0.14701379               -0.18344868                0.05816313                1.42229544                0.08220044
               7.01086386               -0.00071089                1.99105967                0.70083103               -0.14992457                0.34732212               -0.76388119                0.07815701                0.38306897                0.12724836
               8.01144386               -0.00858409                1.97353861                1.00000000                0.32080418                0.52475528               -1.55949992                0.02071980               -0.13368601               -0.00073131
               9.01727995               -0.01827330                1.95449516                1.00000000                0.68682181                0.59127414               -2.26026031               -0.11272072               -0.10374075                0.11860211
              10.02518029               -0.02657316                1.93714609                1.00000000                0.79003451                0.80963108               -2.96345130               -0.08285679               -0.10947419               -0.24224532
               0.02191632                1.01664163                2.04348436                1.00000000               -0.57934775               -0.62816659                2.29652837               -0.08534031               -0.01211012                0.49488275
               1.01612284                1.00985743                2.02747301                1.00000000               -0.45592977               -0.42534601                1.52129694               -0.11205667                0.03984517                0.11371484
               2.01279772                1.00220767                2.01167139                0.38639228               -0.20017201               -0.30883607                0.73360850                0.02953757                0.32051702               -0.33199501
               3.01211940                0.99684241                2.00152636                0.01619710               -0.01141675               -0.29958987                0.07748731                0.53234052                0.85147625               -0.68729062
               4.01256939                0.99650265                1.99723427                0.00010000                0.09358776                0.11963954               -0.31648964                0.82664888                1.40170384               -0.10038290
               5.01399116                0.99988834                1.99828922                0.00010000                0.12431858                0.12888498               -0.20989209                0.83261008                1.69480907                0.07559051
               6.01505576                1.00325545                1.99814319                0.01167680                0.14194885                0.15325316               -0.17761527                0.78391655                1.51002825                0.30171699
               7.01683013                1.00276233                1.99195563                0.27625872                0.26882488                0.40843229               -0.71573271                0.65610232                0.89953916                0.40852904
               8.02043226                0.99666347                1.97577767                0.78472295                0.41585708                0.43395914               -1.55415732                0.13184764                0.56987423               -0.12514748
               9.02514727                0.98763944                1.96112837                1.00000000                0.61096633                0.53966781               -2.25137961               -0.21488358                0.51546362               -0.04383421
              10.03265158                0.98152315                1.94367735                1.00000000                0.75043096                0.79905966               -2.80139386               -0.05354782                0.26989930               -0.69386808
               0.02642382                2.01094032                2.04034593                1.00000000               -0.54802021               -0.48706394                2.07786043               -0.14357763                0.19744251                0.57487095
               1.02094362                2.00598406                2.02312117                1.00000000               -0.37650383               -0.32896517                1.29593930               -0.19083693                0.23378704                0.04458738
               2.01889374                1.99915590                2.00488427                0.19901075                0.07853105               -0.25806499                0.31369060               -0.14963803                0.43926067               -0.57715557
               3.02251424                1.99219205                1.99076168                0.00010000                0.33395918               -0.26164929               -0.54713939                0.80581942                1.81236704               -1.17122452
               4.02557292                1.99888507                1.99937307                0.00010000                0.18181722                0.16248366               -0.20279197                1.55049231                2.92234929                0.03097885
               5.02615058                2.00193037                2.00022408                0.00010000                0.08368803                0.18014870               -0.05418089                1.36596756                2.69473975                0.27936171
               6.02724669                2.00485037                2.00070181                0.00010000                0.22136562                0.17212995               -0.03204864                1.29895249                2.56909792                0.55968485
               7.03057789                2.00745776                1.99675286                0.12109873                0.09785051                0.41689967               -0.18601945                0.55638970                1.52820600                1.22970983
               8.02920370                2.00009510                1.97614533                0.46459129               -0.12276535                0.44707300               -1.22456752               -0.31849038                1.04247253                0.74994553
               9.02812259                1.99252006                1.96516847                1.00000000                0.35691105                0.40494495               -2.20090466               -0.40613248                0.90154619               -0.28576177
              10.03634192                1.98940804                1.94110033                1.00000000                0.82193300                0.64280104               -2.97301099               -0.26418598                0.01703581               -1.46303830
               0.02895728                3.00690035                2.03783080                1.00000000               -0.48667595               -0.34007676                1.89373819               -0.18258774                0.21780523                0.49923988
               1.02409052                3.00327812                2.01750708                0.93749227               -0.26801556               -0.22537162                1.01674876               -0.24916642                0.28626234               -0.14543848
               2.02359697                2.99704637                1.99629115                0.15534567                0.22080458               -0.16723688               -0.22261615               -0.21789469                0.60396012               -0.82701476
               3.02850661                2.99160943                1.98071849                0.00010000                0.51219717                0.10078023               -1.21560831                0.76333555                2.70449249               -0.80965047
               4.03384091                2.99975233                1.99860878                0.00010000                0.34192965                0.08420841               -0.32992594                1.36697005                4.12763745               -0.02344120
               5.03534521                3.00349131                2.00167342                0.00010000                0.08332568                0.13149918                0.09485828                1.18522030                3.63401265                0.38029412
               6.03550743                3.00669805                2.00412650                0.00010000               -0.13159996                0.18072574                0.39393232                1.14931337                3.83332069                0.77117108
               7.03271321                3.01110032                2.01030404                0.11398684               -0.32536395                0.31229178                0.81975518                0.27563882                2.74020774                1.73928490
               8.02900015                3.00560492                1.99368174                0.43461834               -0.25007610                0.45558959               -0.35486095               -0.80863639                0.83406897                1.64074589
               9.02771168                2.99573834                1.96488868                1.00000000                0.22958817                0.38236772               -2.03563550               -0.59817747                0.00075915                0.03565205
              10.03359191                2.99437917                1.93071882                1.00000000                0.58802263                0.45930757               -3.50007079               -0.35488940               -0.48171527               -1.03691254
               0.03001652                4.00413878                2.03514109                1.00000000               -0.42022453               -0.22539268                1.72992050               -0.19969710                0.13457965                0.37988336
               1.02581427                4.00147663                2.01090020                0.88378448               -0.19059865               -0.14152384                0.67403640               -0.28002147                0.17200244               -0.23464722
               2.02620454                3.99581116                1.98524415                0.13275920                0.46303575               -0.08155261               -0.85099597               -0.13894902                1.09384649               -0.97489656
               3.03507499                3.99420766                1.97749904                0.00010000                0.74129471                0.25463279               -1.61653213                0.85897515                3.63552621               -0.31176689
               4.04103044                4.00056924                1.99795768                0.00010000                0.39171391                0.08861126               -0.39972613                1.19786968                4.92418881                0.07986429
               5.04290927                4.00456036                2.00334050                0.00010000                0.07967511                0.08173088                0.27097328                1.10857837                4.48841495                0.47315168
               6.04262394                4.00846489                2.00871217                0.00010000               -0.28627359                0.12560123                0.87434900                1.14958013                4.85985365                0.91075750
               7.03718379                4.01370359                2.02180146                0.11590831               -0.71154955                0.23045031                1.85401623                0.47141134                3.72655012                1.83645643
               8.02839295                4.00920689                2.01029656                0.43503462               -0.48995025                0.30969919                0.53554655               -0.70429181                0.99797236                1.71689741
               9.02738479                4.00016741                1.97296777                1.00000000                0.17847582                0.39386968               -1.55183173               -0.52940381               -0.38247820                0.63047063
              10.03196247                3.99859419                1.93374053                1.00000000                0.45776781                0.36175629               -3.34561575               -0.24823787               -0.65935835               -0.07865684
               0.03028765                5.00239250                2.03209840                1.00000000               -0.34699348               -0.13780554                1.56854121               -0.18626593                0.08748239                0.27426629
               1.02681771                5.00044765                2.00476649                0.84588134               -0.11003442               -0.07424446                0.32486354               -0.26348280                0.03865174               -0.24224760
               2.02808696                4.99541531                1.97438706                0.11787419                0.70551603               -0.00027657               -1.47937676               -0.01842742                1.66019532               -0.95890171
               3.04092803                4.99670208                1.97712444                0.00010000                0.96793234                0.22391869               -1.83815527                0.84139629                4.56055366               -0.04096533
               4.04744561                5.00152455                1.99801363                0.00010000                0.43465459                0.07639696               -0.38895798                1.01169154                5.53355633                0.17986473
               5.04962113                5.00512593                2.00531089                0.00010000                0.09550940                0.01912734                0.47658550                1.01553780                5.23056967                0.52007968
               6.04935579                5.00921007                2.01329216                0.00010000               -0.41108447                0.01975577                1.37539940                1.17022799                5.87553630                0.93578178
               7.04139944                5.01570933                2.03503057                0.12206014               -1.04526518                0.14454688                2.92594946                0.53153463                4.67458122                2.08266062
               8.02845049                5.01179891                2.02759687                0.44482165               -0.68315636                0.18771367                1.44990633               -0.56595120                1.14863540                1.81005655
               9.02773631                5.00361574                1.98377728                1.00000000                0.16615579                0.27166204               -0.94167998               -0.43839231               -0.65853641                0.86929572
              10.03177361                5.00161430                1.94075819                1.00000000                0.40372973                0.24183730               -2.99413740               -0.19376970               -0.78621137                0.28764386
               0.03018090                6.00138267                2.02889310                1.00000000               -0.26591000               -0.07822193                1.40546667               -0.16038190                0.05061033                0.19051195
               1.02752180                5.99999174                1.99900245                0.81999081               -0.02996694               -0.01850545               -0.01776490               -0.21704687               -0.09812571               -0.23176705
               2.02958156                5.99580563                1.96414229                0.10839164                0.91359376                0.09034503               -2.07886506                0.06771382                2.23154165               -0.87443319
               3.04579367                5.99868603                1.97798840                0.00010000                1.16294299                0.17634355               -1.93978275                0.74585797                5.44160208                0.10613781
               4.05284042                6.00209718                1.99846110                0.00010000                0.48704126                0.02638670               -0.33335350                0.79658551                6.02862507                0.22744585
               5.05553450                6.00494290                2.00741485                0.00010000                0.13023399               -0.06744140                0.69689456                0.87784521                5.88484625                0.49753768
               6.05544510                6.00886000                2.01789187                0.00010000               -0.51544249               -0.10808682                1.89255932                1.14481166                6.92948188                0.88105954
               7.04522565                6.01659453                2.05064109                0.13117888               -1.31387898               -0.00785860                4.04327285                0.53834946                5.56667114                2.29652685
               8.02916752                6.01296116                2.04477986                0.46139078               -0.82120494                0.02073960                2.37014313               -0.45373112                1.20067941                1.78357469
               9.02880155                6.00560065                1.99549917                1.00000000                0.14612126                0.13040620               -0.28514275               -0.35213590               -0.85739305                0.95314199
              10.03208995                6.00343093                1.94965478                1.00000000                0.32883947                0.12727672               -2.54716311               -0.17526826               -0.82540269                0.46737106
               0.02986188                7.00082806                2.02551657                1.00000000               -0.18080583               -0.04929203                1.23712305               -0.12376143                0.02417501                0.11003353
               1.02805382                7.00007754                1.99365459                0.80646266                0.04425335                0.04117165               -0.34569191               -0.14274858               -0.22513369               -0.19307953
               2.03074694                6.99722221                1.95484100                0.10367470                1.07499115                0.21621958               -2.63085384                0.09977729                2.73606512               -0.69788623
               3.04955364                7.00022895                1.97880544                0.00010000                1.31867499                0.15250688               -1.98911099                0.55665085                6.22165202                0.14162510
               4.05712044                7.00205229                1.99903639                0.00010000                0.54307827               -0.03919296               -0.26740608                0.53594779                6.44653732                0.21392974
               5.06041521                7.00377710                2.00945592                0.00010000                0.17399793               -0.18278449                0.91233167                0.67684788                6.44673823                0.39437251
               6.06060040                7.00704834                2.02229604                0.00010000               -0.61749680               -0.27218967                2.41412046                1.03520497                8.03960228                0.71284844
               7.04806527                7.01555216                2.06893488                0.14385481               -1.51153288               -0.25254369                5.16929491                0.43818072                6.37499111                2.44212145
               8.03036974                7.01221370                2.06097223                0.48567444               -0.89207256               -0.18384199                3.24919448               -0.33076183                1.08610133                1.59840831
               9.03022382                7.00622386                2.00699411                1.00000000                0.11189697               -0.00348563                0.36439137               -0.25360162               -1.00205171                0.90556414
              10.03260768                7.00415983                1.95907632                1.00000000                0.23838644                0.02876810               -2.06991017               -0.15437617               -0.80975292                0.53574101
               0.02920671                8.00039683                2.02187671                1.00000000               -0.09340404               -0.06876677                1.06204665               -0.07954781                0.00347857                0.01965447
               1.02827267                8.00081517                1.98878899                0.81173629                0.11094893                0.12444492               -0.65062599               -0.04850186               -0.32487442               -0.12517919
               2.03142569                8.00013002                1.94713135                0.10585689                1.19119740                0.37489644               -3.09524708                0.07515035                3.10073886               -0.34020827
               3.05209662                8.00173617                1.97858498                0.00010000                1.42927676                0.19041573               -2.05341245                0.24100560                6.81148074                0.04607577
               4.06001123                8.00131332                1.99945446                0.00010000                0.59893932               -0.10484740               -0.22326530                0.21571010                6.80514096                0.14600331
               5.06407541                8.00128721                2.01126168                0.00010000                0.21814584               -0.34525126                1.10287307                0.38559573                6.90267208                0.19183840
               6.06437414                8.00341621                2.02609414                0.00010000               -0.76257530               -0.51220793                2.90819303                0.82286586                9.22650706                0.38400968
               7.04882390                8.01154366                2.09032882                0.16394415               -1.62467802               -0.54402123                6.22021792                0.26133084                7.05540068                2.42377674
               8.03188058                8.00928432                2.07493787                0.52512724               -0.85202573               -0.37754150                4.02364973               -0.16870435                0.72510623                1.20355641
               9.03178339                8.00553094                2.01734577                1.00000000                0.06249464               -0.14954383                0.96050854               -0.12638451               -1.08755853                0.69887356
              10.03313048                8.00400629                1.96836628                1.00000000                0.13470899               -0.01531349               -1.59557784               -0.13312466               -0.74451435                0.55396449
               0.02743424                8.99945272                2.01785646                1.00000000               -0.00836488               -0.13985415                0.89643990               -0.04434383               -0.02153193               -0.05015249
               1.02735059                9.00256644                1.98451438                0.82352151                0.19473569                0.24562739               -0.93654726               -0.00521088               -0.33012725               -0.04937252
               2.03132895                9.00472014                1.94299337                0.11742629                1.29199304                0.59392648               -3.39547810               -0.08257020                3.19520064                0.06824996
               3.05319045                9.00403727                1.97572847                0.00010000                1.52773230                0.20721790               -2.17802240               -0.03770038                7.03338443                0.00757295
               4.06188360                8.99995534                1.99979222                0.00010000                0.64168903               -0.13407386               -0.21499893               -0.05936541                7.19310763                0.03987943
               5.06602423                8.99687208                2.01257225                0.00010000                0.24588391               -0.53211635                1.25473464                0.10913401                7.21852447               -0.04122291
               6.06680128                8.99680418                2.02826360                0.00010000               -0.93002267               -1.01957619                3.36089953                0.51673873               10.42698398                0.02034872
               7.04742378                9.00467173                2.11324115                0.19332698               -1.68964527               -0.75888565                6.95464936                0.20818515                7.56212458                1.65831860
               8.03300837                9.00466287                2.08493527                0.58275864               -0.72248115               -0.47829093                4.58528739                0.03464965                0.09639162                0.67928404
               9.03297415                9.00323298                2.02499946                1.00000000               -0.00069443               -0.36052848                1.44275394               -0.09236933               -1.08967453                0.38075993
              10.03299448                9.00385356                1.97724898                1.00000000                0.00203281                0.06941697               -1.16247807               -0.14382452               -0.56291695                0.43996642
               0.02209241                9.99759975                2.01384234                1.00000000                0.08086248               -0.18529766                0.65505352                0.27861437               -0.02584611               -0.04043545
               1.02290103               10.00572772                1.98083917                0.89641933                0.31055228                0.31612818               -1.18492465                0.27548474               -0.31106106               -0.03869850
               2.02830346               10.01200855                1.94054449                0.56226982                1.66031916                0.72884066               -3.51757612               -0.29490922                3.14841602                0.23119971
               3.05610742               10.00588053                1.97367407                0.44965484                1.88428264                0.18432579               -2.23800257               -0.37713842                7.29688204               -0.06569285
               4.06598911                9.99863184                2.00082846                0.42874041                0.66509141               -0.13234930               -0.19552405               -0.35123088                7.63293793               -0.15707090
               5.06940925                9.99064489                2.01473617                0.44859906                0.04600764               -0.62271910                1.32793187               -0.44185624                7.48310665               -0.25099872
               6.06690926                9.98302469                2.03099497                0.50238967               -1.21401677               -1.37794904                3.54694032                0.29685131               10.92746698               -0.26101824
               7.04512891                9.99636594                2.12474264                0.60643109               -1.64484671               -0.83057919                7.31896558                0.60520413                7.74036646                0.81990031
               8.03401233                9.99971850                2.09090896                0.80696254               -0.71918024               -0.49443687                4.94915291                0.19811706               -0.17343803                0.39156769
               9.03074531                9.99832037                2.02968086                1.00000000               -0.24997511               -0.49126123                1.84691593                0.06092183               -1.06197661                0.25453707
              10.02901282               10.00539463                1.98347281                1.00000000               -0.17324814                0.15410701               -0.70998486                0.30926055               -0.38104870                0.25643887
               0.03123444                0.03382019                3.07393991                1.00000000               -0.60723287               -0.70609639                2.46084161               -0.21069575               -0.35626419                0.39833338
               1.02516211                0.02102557                3.04970739                1.00000000               -0.45658213               -0.47789360                1.67832806               -0.17417091               -0.37828151                0.00141188
               2.02210280                0.00808037                3.02516815                0.73981841               -0.08827751               -0.27092228                0.89471044               -0.03604061               -0.24351757               -0.31143989
               3.02339656               -0.00212968                3.00323887                0.53476460                0.39760640               -0.08725382                0.16845669                0.19237957                0.51704621               -0.09405707
               4.03005493               -0.00513403                2.99312358                0.44955778                0.65081478               -0.06237151               -0.23957001                0.22075815                1.81928741               -0.04084746
               5.03641286               -0.00069870                2.99544743                0.45041212                0.28085629               -0.00782112               -0.27395369                0.11242030                2.54823386                0.02326635
               6.03567205                0.00343336                2.99628945                0.52958808               -0.18038863                0.10070781               -0.34475521                0.16443552                1.89776302                0.08406585
               7.03280509                0.00001567                2.98374935                0.69929713               -0.12298656                0.23287499               -0.76728787                0.18662145                0.73332118                0.09746107
               8.03321232               -0.00986074                2.96068580                0.99189853                0.24124275                0.35235094               -1.34464950               -0.01796280                0.03133343                0.23024148
               9.03762994               -0.02299110                2.93421090                1.00000000                0.59304296                0.61594452               -2.10578456               -0.17932956               -0.20154012                0.08570476
              10.04507318               -0.03568486                2.90748753                1.00000000                0.74432403                0.92850911               -2.97229002               -0.20453498               -0.23546641               -0.30488458
               0.04192210                1.02675922                3.06645493                1.00000000               -0.56317899               -0.64635114                2.27684698               -0.11978806               -0.00770283                0.53205045
               1.03629031                1.01624663                3.04203522                1.00000000               -0.43010447               -0.42543027                1.44051463               -0.08800306                0.03141995               -0.00815019
               2.03332001                1.00537114                3.01812817                0.35656469               -0.21813779               -0.22263128                0.63216349                0.07971120                0.43594900               -0.50023017
               3.03192756                0.99699779                3.00157445                0.01094402               -0.08864967               -0.03159342                0.02335806                0.39673471                1.18399050               -0.62997872
               4.03154702                0.99424225                2.99365277                0.00010000                0.06629051                0.21315750               -0.33941259                1.07063729                2.04022682                0.00105688
               5.03325337                0.99922309                2.99577295                0.00010000                0.27061019                0.14313077               -0.26461658                1.32520637                2.49002886                0.11263483
               6.03695922                1.00444043                2.99638195                0.02287543                0.40324892                0.08750008               -0.22385647                1.12924240                2.05575236                0.20433174
               7.04131835                1.00234442                2.98527455                0.29054816                0.37884268                0.30178813               -0.62298060                0.61281143                1.26086423                0.51798645
               8.04453608                0.99366277                2.96617851                0.77233144                0.37151804                0.30857152               -1.01310000                0.08786100                0.61429142                0.39344075
               9.04874871                0.98316834                2.94141253                1.00000000                0.55927567                0.57541656               -1.91544239               -0.00216123                0.21719493                0.12554394
              10.05572159                0.97360023                2.91447522                1.00000000                0.69728843                0.87781074               -2.80868793               -0.05527091                0.06494510               -0.51463903
               0.04986386                2.02089316                3.06176865                1.00000000               -0.50737334               -0.52135612                2.09483356               -0.12853499                0.06072071                0.66549997
               1.04479013                2.01251696                3.03417508                0.97629538               -0.34589980               -0.32571814                1.13371260               -0.09447906                0.09855600               -0.04391833
               2.04294587                2.00362774                3.00684001                0.17606237               -0.11649912               -0.12879322                0.24361228                0.10627244                0.58037020               -0.67831043
               3.04246015                1.99723846                2.98905828                0.00010000                0.31482515                0.00008474               -0.22793202                0.80450659                2.06123280               -0.96032687
               4.04924237                1.99912912                2.99596210                0.00010000                0.51293292                0.33304112               -0.34823024                1.76342010                3.26493501                0.04983820
               5.05271881                2.00216392                2.99891557                0.00010000                0.29466011                0.26163729               -0.18679396                2.00623902                3.09531332                0.29165920
               6.05513557                2.00518336                2.99935496                0.00010000                0.15600847                0.14561607               -0.12572952                1.75896868                2.89549068                0.51595654
               7.05583898                2.00605143                2.99618222                0.13410871               -0.04949786                0.36011532               -0.01631995                0.77595003                1.76065576                1.32666166
               8.05414562                1.99631069                2.97601550                0.45663332                0.09051416                0.22396823               -0.29894554                0.05011294                0.73400053                0.93927311
               9.05764926                1.98851723                2.94909155                1.00000000                0.44791882                0.44043329               -1.51815331                0.10095952                0.35696666                0.15106904
              10.06310399                1.98187135                2.91699672                1.00000000                0.54547331                0.67175757               -2.30825505               -0.04303938               -0.03513004               -0.87206329
               0.05610381                3.01633210                3.05712757                1.00000000               -0.44376527               -0.39743320                1.88056596               -0.09740721                0.06461805                0.61881879
               1.05166615                3.00973227                3.02566507                0.90100209               -0.26899196               -0.24050479                0.86005289               -0.05188716                0.12965540               -0.10670299
               2.05072397                3.00279528                2.99502870                0.13827446                0.04250789               -0.07624068               -0.07870199                0.07266547                0.70296911               -0.71485288
               3.05251631                2.99699948                2.97580463                0.00010000                0.55829977                0.00402481               -0.45965399                0.81967580                2.96006125               -0.64546126
               4.06188996                3.00090308                2.99340997                0.00010000                0.74037988                0.15238021               -0.47042927                1.55755348                4.49541358               -0.05907174
               5.06732391                3.00445583                3.00189995                0.00010000                0.31805601                0.18204520               -0.04085172                1.64492639                4.11989324                0.35458611
               6.06825108                3.00735275                3.00786647                0.00010000               -0.08069496                0.19092895                0.29976392                1.44269313                4.23243502                0.82716877
               7.06571001                3.00954672                3.01636378                0.13430547               -0.25892731                0.29165731                0.52152924                0.40969453                2.88278358                1.75306023
               8.06307254                2.99814214                2.99293288                0.43599230               -0.02513867                0.19423538               -0.13462761               -0.11717579                0.79356873                1.18657932
               9.06520724                2.99197701                2.95665490                0.99610734                0.25400101                0.25985007               -0.85535372                0.07324059                0.17614237                0.28772455
              10.06815256                2.98703538                2.91792880                1.00000000                0.29453201                0.37137022               -1.39448424               -0.02591131               -0.02798636               -0.76971163
               0.06111538                4.01294450                3.05219463                1.00000000               -0.38261758               -0.29129058                1.65949431               -0.07692627                0.06785343                0.54818262
               1.05728921                4.00770687                3.01682327                0.85453590               -0.19917099               -0.17301429                0.62937448               -0.02804989                0.12669788               -0.14702675
               2.05713196                4.00210293                2.98217356                0.11942139                0.17283302               -0.05775669               -0.29359294                0.07621651                1.13785425               -0.74050789
               3.06074587                3.99731895                2.96779719                0.00010000                0.79025616                0.08362948               -0.78568993                0.79372002                3.85676985               -0.27100653
               4.07293709                4.00217672                2.99201759                0.00010000                0.92108935                0.10948226               -0.53814171                1.46833443                5.44373973                0.10363622
               5.07916766                4.00580482                3.00542322                0.00010000                0.29807298                0.09312870                0.14793488                1.44875546                5.06368318                0.42076634
               6.07889855                4.00900194                3.01748293                0.00010000               -0.29620852                0.10788350                0.77081362                1.28740921                5.46197571                0.86889051
               7.07324348                4.01188458                3.03704328                0.14066269               -0.47633662                0.16084386                1.19207188                0.24432689                3.70379492                1.74563226
               8.06937181                4.00019540                3.01083185                0.44400491               -0.15113291                0.17756146                0.03150352               -0.32929365                0.87056439                1.11685629
               9.07022083                3.99371423                2.96686439                0.99997797                0.15486046                0.17153837               -0.57660260               -0.06803476                0.06042190                0.41815050
              10.07246902                3.98929876                2.92271289                1.00000000                0.22481969                0.20703708               -1.11140771               -0.02813021               -0.01792197               -0.46321553
               0.06504055                5.01050629                3.04710563                1.00000000               -0.30938206               -0.20842709                1.44801922               -0.07294997                0.06682069                0.47474632
               1.06194673                5.00627198                3.00798429                0.81864249               -0.12021688               -0.11095085                0.37322398               -0.01639123                0.11673198               -0.16284984
               2.06263621                5.00164015                2.96944239                0.10418879                0.31850946               -0.01451912               -0.51030465                0.13197919                1.72883820               -0.69860052
               3.06831692                4.99867207                2.96337749                0.00010000                1.00672866                0.15620739               -1.07197705                0.79631989                4.79784181               -0.02618281
               4.08277079                5.00309272                2.99223156                0.00010000                1.05784440                0.06812300               -0.54151652                1.30632507                6.19996508                0.21673524
               5.08947381                5.00631841                3.00953718                0.00010000                0.25743632                0.00011151                0.36991325                1.28219171                5.89159574                0.45049352
               6.08791951                5.00951042                3.02750557                0.00010000               -0.50353611               -0.01971070                1.27027724                1.15103116                6.61160299                0.86952407
               7.07940308                5.01276360                3.05849697                0.14858134               -0.66312509                0.00672315                1.78687471                0.17864587                4.44879982                1.72631375
               8.07465701                5.00169337                3.02908423                0.45605429               -0.23299492                0.10936037                0.16811431               -0.35840840                0.93803664                1.02779900
               9.07474319                4.99540778                2.97968187                1.00000000                0.08819457                0.15057210               -0.37908901               -0.08864150                0.01186716                0.47742255
              10.07642090                4.99117612                2.93109043                1.00000000                0.16777156                0.17240622               -0.95764910               -0.03307595               -0.02931303               -0.25062474
               0.06812500                6.00877596                3.04188735                1.00000000               -0.22974706               -0.15035705                1.23894819               -0.06298161                0.06871898                0.39476698
               1.06582753                6.00548785                2.99945180                0.79124295               -0.03767688               -0.04528887                0.10813037               -0.00041425                0.10447319               -0.15442290
               2.06737146                6.00181255                2.95737875                0.09166664                0.46960826                0.06324655               -0.73304379                0.17877335                2.38566841               -0.61935608
               3.07521969                6.00044310                2.96134693                0.00010000                1.20228959                0.18066927               -1.26567634                0.71590936                5.75159414                0.12650203
               4.09141725                6.00353918                2.99334286                0.00010000                1.15870474                0.01141165               -0.50098398                1.05588767                6.83541762                0.25030144
               5.09839379                6.00580705                3.01394371                0.00010000                0.20283635               -0.11340371                0.60990418                1.06900440                6.65020513                0.43136895
               6.09547398                6.00860772                3.03785075                0.00010000               -0.68801622               -0.17309841                1.77681499                0.98516626                7.74456985                0.84424264
               7.08463346                6.01201904                3.08085002                0.15836772               -0.79572537               -0.18021813                2.26629132                0.16912425                5.13933041                1.66907697
               8.07955947                6.00238261                3.04745504                0.47268719               -0.28341108                0.01301652                0.31791126               -0.29263765                0.92606732                0.92496527
               9.07896524                5.99672567                2.99350806                0.99935461                0.03556717                0.09790832               -0.18153336               -0.07769192               -0.03467802                0.46472557
              10.08027081                5.99274688                2.94126267                1.00000000                0.13055739                0.13815764               -0.82458889               -0.03293580               -0.02856586               -0.13804418
               0.07035714                7.00749915                3.03651720                1.00000000               -0.14552785               -0.12142597                1.03366438               -0.05183826                0.06959420                0.30817154
               1.06890186                7.00536620                2.99134555                0.77108818                0.04496463                0.02348448               -0.15997481                0.01818111                0.09027169               -0.12489394
               2.07125643                7.00290508                2.94629709                0.08113660                0.60033058                0.16868410               -0.95882676                0.17049721                3.02257158               -0.49293083
               3.08090847                7.00228546                2.96035834                0.00010000                1.36340807                0.18670043               -1.37759689                0.48415331                6.65533658                0.16021556
               4.09852459                7.00332095                2.99465974                0.00010000                1.24384436               -0.06555506               -0.44782760                0.69796693                7.39694420                0.21297587
               5.10578536                7.00405033                3.01825253                0.00010000                0.14431293               -0.25385120                0.84732414                0.79200273                7.37671892                0.36405399
               6.10141085                7.00604846                3.04828257                0.00010000               -0.83873362               -0.34512774                2.27071516                0.75904714                8.86636370                0.78081838
               7.08901068                7.00915924                3.10337793                0.17018283               -0.86566122               -0.39408147                2.56907374                0.18506275                5.77637101                1.52185686
               8.08409762                7.00195370                3.06498901                0.49387265               -0.30928048               -0.10860024                0.48469319               -0.16728037                0.82958747                0.77338316
               9.08282507                6.99736594                3.00733394                0.99852224               -0.01889275                0.02420268                0.03577880               -0.05213920               -0.07488201                0.40386689
              10.08371977                6.99393927                2.95210120                1.00000000                0.08946948                0.10677566               -0.68264961               -0.04046254               -0.02046192               -0.07537973
               0.07135412                8.00634744                3.03093226                1.00000000               -0.05688978               -0.12332857                0.83575205               -0.04644524                0.07318421                0.22413419
               1.07078522                8.00595754                2.98381803                0.75489918                0.12540176                0.10086797               -0.42989607                0.01964861                0.09521117               -0.08183594
               2.07386215                8.00518623                2.93691063                0.07254911                0.68508309                0.30462401               -1.19549648                0.05089218                3.54944273               -0.28379561
               3.08448688                8.00417711                2.95906309                0.00010000                1.48747800                0.15780363               -1.43145982                0.01705311                7.42319236                0.06306176
               4.10361171                8.00222808                2.99554068                0.00010000                1.35097288               -0.19264718               -0.41284995                0.26002539                7.93491749                0.10970488
               5.11150634                8.00073003                3.02206235                0.00010000                0.09671527               -0.41706891                1.05914586                0.48398134                8.08451247                0.26596830
               6.10554602                8.00170517                3.05816543                0.00140893               -0.95384305               -0.52750108                2.72500904                0.49721163                9.93856740                0.70133269
               7.09242948                8.00413741                3.12440071                0.18394066               -0.87694293               -0.52318384                2.55857749                0.20907200                6.37582718                1.14646783
               8.08800716                8.00021060                3.08044855                0.51929201               -0.32463000               -0.22894111                0.67445227               -0.02212532                0.68262200                0.51648257
               9.08593688                7.99720973                3.02024480                0.99842094               -0.08461294               -0.06382072                0.28125468               -0.03698158               -0.09399492                0.30602984
              10.08631490                7.99488239                2.96278504                0.99988890                0.03780225                0.09836654               -0.54111487               -0.06264032               -0.00691992               -0.06214848
               0.07020803                9.00503258                3.02513132                1.00000000                0.02480097               -0.13666158                0.64857656               -0.05379136                0.08453883                0.14797281
               1.07045604                9.00738356                2.97687547                0.71023422                0.19233354                0.19104157               -0.71945556                0.00703273                0.18656392               -0.04976213
               2.07405470                9.00899756                2.93044423                0.05926824                0.68758183                0.38626707               -1.50949471               -0.21103136                3.90501652               -0.05559398
               3.08420768                9.00544153                2.95660961                0.00010000                1.65587395               -0.04151233               -1.37339901               -0.37788792                8.00598455               -0.07053612
               4.10717218                8.99946801                2.99569819                0.00010000                1.58901102               -0.36681177               -0.42592720               -0.07230712                8.48858653               -0.01360901
               5.11598790                8.99570896                3.02510040                0.00010000                0.03877582               -0.50278932                1.21736817                0.20726101                8.79735493                0.15861903
               6.10794770                8.99549843                3.06721930                0.00051398               -1.06506050               -0.62041763                3.11995554                0.30478491               10.74002134                0.50419192
               7.09468669                8.99869556                3.13910023                0.18694703               -0.86824481               -0.54255483                2.15432091                0.22820539                6.83373351                0.58051000
               8.09058280                8.99737487                3.09162789                0.52445856               -0.36365184               -0.24811765                0.89915912                0.07239615                0.70519815                0.21276695
               9.08741365                8.99608953                3.03167340                0.99979788               -0.17305873               -0.16086547                0.61813916               -0.03702256               -0.02808616                0.19970428
              10.08712163                8.99590661                2.97237460                0.99967752               -0.02920246                0.08710570               -0.41520805               -0.07827369               -0.01798594               -0.09235044
               0.06557631               10.00361421                3.01859268                1.00000000                0.13845794               -0.14183694                0.38976652                0.15324457                0.22145261                0.14279030
               1.06696089               10.00977837                2.97035672                0.81842932                0.30036234                0.23948055               -1.04081300                0.11535332                0.43777974               -0.05581247
               2.07158356               10.01291157                2.92615138                0.51971469                0.97488883                0.39140117               -1.82213464               -0.56868954                4.28442599                0.00031906
               3.08645867               10.00334686                2.95519975                0.43798035                2.01572912               -0.20946667               -1.36771790               -0.67588694                8.49739297               -0.31125782
               4.11189814                9.99489185                2.99604876                0.42726392                1.65812326               -0.45761644               -0.51981377               -0.16103496                8.76779025               -0.10780664
               5.11962113                9.99067424                3.02655714                0.44731825               -0.16215161               -0.50347168                1.19616158                0.08357209                9.05554342                0.15836787
               6.10865511                9.98929681                3.07094837                0.49472187               -1.22519939               -0.62016207                3.22666898                0.20134501               11.22483212                0.68412775
               7.09511715                9.99328631                3.14642724                0.58242521               -0.82969978               -0.54092483                2.01937025                0.34061767                7.33807694                0.36191438
               8.09206111                9.99524825                3.09923091                0.74160057               -0.42262262               -0.21266238                1.16924566                0.18313658                0.91314511                0.06267730
               9.08666469                9.99399242                3.04121638                1.00000000               -0.34729212               -0.20971115                1.04433569               -0.00608272                0.23401749                0.24030614
              10.08511527                9.99662451                2.98120259                0.99999962               -0.15494219                0.07179031               -0.13910452                0.06257377                0.15141212               -0.17739778
               0.05590198                0.04644027                4.09865949                1.00000000               -0.59450710               -0.69863728                2.44908662               -0.18770183               -0.36920105                0.42937955
               1.04995691                0.02986355                4.06642834                1.00000000               -0.45079188               -0.46368209                1.66423142               -0.15071574               -0.36487640               -0.01702862
               2.04688614                0.01318378                4.03408117                0.72917819               -0.07044992               -0.26525789                0.89707469               -0.00246712               -0.19991941               -0.37156503
               3.04854791               -0.00036846                4.00518329                0.53050984                0.46884568               -0.12081182                0.21408013                0.24433027                0.73880787               -0.07082589
               4.05626306               -0.00538303                3.99107246                0.44982183                0.77510371               -0.09316960               -0.18820978                0.26800831                2.34218279               -0.03768576
               5.06404998               -0.00083303                3.99249454                0.45300514                0.39163196               -0.04940759               -0.30676257                0.13449020                3.14254296                0.02099429
               6.06409569                0.00328164                3.99210655                0.53317829               -0.14580235                0.09949355               -0.45372925                0.20839913                2.31634254                0.06016086
               7.06113394               -0.00181207                3.97571391                0.70076344               -0.12433601                0.25012582               -0.84781507                0.19937639                0.89803677                0.07278818
               8.06160897               -0.01496467                3.94664562                0.98634528                0.26567359                0.41672508               -1.45609844                0.03959227                0.02840828                0.24354894
               9.06644741               -0.03096248                3.91237946                1.00000000                0.61543561                0.62321470               -2.19634159               -0.10937187               -0.22423733                0.06920460
              10.07391769               -0.04664621                3.87770029                1.00000000                0.74702772                0.83674038               -2.93325390               -0.17763076               -0.24754670               -0.33535771
               0.07060168                1.03945390                4.08902130                1.00000000               -0.55236874               -0.64312964                2.22872900               -0.07654757               -0.00431792                0.58275943
               1.06507800                1.02522673                4.05628330                1.00000000               -0.43121051               -0.41938552                1.42548628               -0.05181169                0.04352541               -0.02750827
               2.06197747                1.01053120                4.02431466                0.32727575               -0.24016882               -0.22473097                0.64165126                0.09642515                0.55220659               -0.61428386
               3.06027462                0.99842343                4.00199352                0.00010000               -0.14010242               -0.04381050                0.07039527                0.46114829                1.53202227               -0.72439138
               4.05917542                0.99368527                3.99044602                0.00010000                0.03939661                0.27538308               -0.28484986                1.25003726                2.70502423                0.06127429
               5.06106255                0.99867290                3.99299689                0.00048657                0.37468914                0.12347922               -0.27873715                1.56026517                3.32881938                0.13537416
               6.06666921                1.00427657                3.99366606                0.02337525                0.55941524                0.02016734               -0.30016688                1.29052250                2.64989762                0.20099260
               7.07225086                1.00068919                3.97949602                0.28091078                0.49554465                0.23569123               -0.61399866                0.64612684                1.55153803                0.73921294
               8.07658010                0.98920258                3.95551567                0.74116173                0.44718029                0.35454262               -1.13930699                0.19729428                0.73299723                0.57318444
               9.08119446                0.97526967                3.92281953                1.00000000                0.56225088                0.56307736               -1.85377886                0.01759516                0.20422747                0.14469686
              10.08782512                0.96172119                3.88750359                1.00000000                0.66306555                0.75797031               -2.60619444               -0.05928373                0.05349884               -0.52417787
               0.08282537                2.03357768                4.08224260                1.00000000               -0.49819978               -0.53015744                2.01807185               -0.08153658                0.06264514                0.72396288
               1.07784337                2.02147584                4.04579543                0.95390847               -0.36037106               -0.33654263                1.17529156               -0.05920077                0.09295747               -0.07989723
               2.07561795                2.00868916                4.00975651                0.16113928               -0.16132820               -0.15577195                0.34150269                0.14094090                0.71267780               -0.89191060
               3.07461681                1.99875533                3.98620304                0.00010000                0.26981917                0.07689326               -0.26753653                1.02437069                2.78112147               -1.30960538
               4.08101433                2.00012463                3.99240846                0.00010000                0.50235904                0.44150671               -0.30533188                2.06798311                4.10427200                0.04358277
               5.08466399                2.00163656                3.99648820                0.00010000                0.34377615                0.27012453               -0.24034732                2.28921893                3.87137511                0.32072546
               6.08788985                2.00368499                3.99818722                0.00010000                0.22332411                0.04184432               -0.14586519                2.01441411                3.66324464                0.60423355
               7.08913047                2.00290175                3.99642646                0.13267616                0.15422621                0.23056408               -0.08276855                1.07463999                2.39960691                1.69424784
               8.09097438                1.99212618                3.97016641                0.44376490                0.25751168                0.26587929               -0.68380813                0.26988094                0.94941604                1.21040520
               9.09428070                1.98029907                3.93480540                1.00000000                0.44272992                0.42251598               -1.42099039                0.07155842                0.27247197                0.24718820
              10.09982898                1.96851319                3.89493523                1.00000000                0.55482732                0.57737891               -2.15061040               -0.04562405                0.04603496               -0.72018007
               0.09317463                3.02885075                4.07544212                1.00000000               -0.43921346               -0.42266529                1.80504054               -0.07094072                0.06092113                0.69011011
               1.08878250                3.01849588                4.03470814                0.88917902               -0.28289178               -0.26294831                0.91790528               -0.04545290                0.10828646               -0.13414518
               2.08751680                3.00741576                3.99471711                0.12892169                0.02720346               -0.10509242                0.02156209                0.19175892                0.96163985               -0.96241718
               3.08932657                2.99996129                3.97152541                0.00010000                0.50685346                0.12296663               -0.36100356                1.14245968                3.81283862               -0.89432311
               4.09765386                3.00251541                3.98920019                0.00010000                0.69800051                0.18478752               -0.34516404                1.76894829                5.45593916               -0.10893587
               5.10328658                3.00407539                4.00085639                0.00010000                0.40192139                0.18509481               -0.11253953                1.83258280                5.03782363                0.42109821
               6.10569229                3.00511346                4.01012178                0.00010000                0.10079427                0.12593081                0.14806690                1.67893134                5.10680424                1.01876666
               7.10530246                3.00530047                4.02073462                0.13835395               -0.05559447                0.17906486                0.30457713                0.90935023                3.36764836                1.98159384
               8.10458040                2.99452016                3.99098919                0.42998908                0.04680795                0.16332439               -0.22454571                0.17141345                0.83180859                1.50272247
               9.10623862                2.98371999                3.94778161                0.97933562                0.29519966                0.26021905               -0.93416936                0.05900407                0.06712514                0.32926924
              10.11048440                2.97326877                3.90282914                1.00000000                0.42457760                0.38275264               -1.58037076               -0.04121985                0.04714973               -0.68473084
               0.10211630                4.02512437                4.06833098                1.00000000               -0.37470033               -0.33280229                1.59057697               -0.05614482                0.06107281                0.63540227
               1.09836930                4.01621687                4.02348769                0.84718026               -0.20642956               -0.19668794                0.67530054               -0.02519811                0.11061283               -0.16360531
               2.09798771                4.00658731                3.97937229                0.11243680                0.19985298               -0.05888275               -0.24426714                0.23757634                1.45519180               -0.98026557
               3.10236636                4.00121467                3.96178525                0.00010000                0.71457454                0.13336947               -0.47068536                1.10011006                4.93318351               -0.39340703
               4.11227920                4.00382038                3.98719485                0.00010000                0.81756164                0.10092901               -0.36522436                1.58775686                6.60019099                0.06030062
               5.11871759                4.00533845                4.00629920                0.00010000                0.39820988                0.07699606                0.06477742                1.56378385                6.21993662                0.51165493
               6.12024340                4.00620360                4.02412845                0.00010000               -0.04034102                0.05596358                0.51785517                1.40401852                6.50448256                1.10268376
               7.11791077                4.00648305                4.04564290                0.14796944               -0.21301360                0.05641990                0.69160380                0.63416875                4.16267372                1.93953392
               8.11598313                3.99539267                4.01092663                0.44239763               -0.05992937                0.06057664                0.02498957                0.02331575                0.76075150                1.40415301
               9.11671218                3.98550345                3.96143572                0.98688304                0.19619499                0.14002619               -0.58852330                0.02522040                0.00898301                0.43151323
              10.11990703                3.97616824                3.91151238                1.00000000                0.31948437                0.23916318               -1.20536121               -0.03922879                0.04326591               -0.53288541
               0.10986673                5.02219470                4.06105879                1.00000000               -0.30511420               -0.26289685                1.37597216               -0.04775533                0.05836071                0.57936992
               1.10681559                5.01456212                4.01223097                0.81161643               -0.12981037               -0.13374236                0.43270792               -0.01030179                0.10890748               -0.17372235
               2.10727053                5.00623811                3.96418097                0.09763039                0.36400537               -0.00117548               -0.50341904                0.27393258                2.10737882               -0.93845222
               3.11409570                5.00262868                3.95568490                0.00010000                0.90073442                0.15102756               -0.58893798                1.03954883                6.10317835               -0.04528125
               4.12528522                5.00453399                3.98718330                0.00010000                0.90416661                0.04273234               -0.36222835                1.38297100                7.58479477                0.21098996
               5.13217903                5.00561531                4.01270916                0.00010000                0.36714242               -0.02417587                0.27310786                1.35059328                7.30583183                0.56454082
               6.13262806                5.00623273                4.03869770                0.00010000               -0.16911316               -0.06178748                0.90048902                1.20001778                7.83158742                1.10207435
               7.12879677                5.00642887                4.07076806                0.15713566               -0.33008731               -0.06939725                1.01548906                0.49980818                4.91002685                1.88695705
               8.12602632                4.99573170                4.03095916                0.45589678               -0.14146584                0.00815094                0.22040631               -0.04303293                0.71493430                1.33982962
               9.12596745                4.98652051                3.97619550                1.00000000                0.11719590                0.08698240               -0.36288821               -0.00457425               -0.01838860                0.50207713
              10.12837024                4.97805203                3.92160521                1.00000000                0.24027837                0.17455144               -0.98760193               -0.04172838                0.03071516               -0.36965520
               0.11642637                6.01986644                4.05367207                1.00000000               -0.23065113               -0.21240644                1.16248624               -0.04592406                0.05478772                0.51898199
               1.11411986                6.01354203                4.00116505                0.78181983               -0.05132853               -0.06743411                0.18044815               -0.00194303                0.10461937               -0.16329137
               2.11539980                6.00656380                3.94948141                0.08401617                0.53707996                0.07968038               -0.77832805                0.28041229                2.87091582               -0.85379766
               3.12486146                6.00423522                3.95267487                0.00010000                1.07760977                0.15442151               -0.66553432                0.91566225                7.29431728                0.17669253
               4.13695199                6.00467503                3.98844142                0.00010000                0.95846275               -0.02100051               -0.33601834                1.12498209                8.42982961                0.26980521
               5.14403071                6.00485494                4.01961293                0.00010000                0.32391009               -0.13378818                0.49344348                1.12202720                8.32398471                0.56591353
               6.14343019                6.00496785                4.05342817                0.00010000               -0.28113716               -0.19413546                1.26310474                1.02071886                9.12800696                1.06681822
               7.13840797                6.00509511                4.09596691                0.16668097               -0.41996867               -0.19951306                1.27286538                0.43386602                5.62795591                1.80884977
               8.13503082                5.99555569                4.05113809                0.47155375               -0.20538017               -0.05219232                0.41260491               -0.04364203                0.66273743                1.24695991
               9.13430036                5.98724310                3.99186850                0.99938182                0.04893023                0.05219747               -0.16514034               -0.01249428               -0.03002515                0.51730506
              10.13600943                5.97965927                3.93316300                1.00000000                0.17090616                0.15389186               -0.82147179               -0.04369885                0.01910727               -0.24749301
               0.12159707                7.01794657                4.04618986                1.00000000               -0.15177108               -0.18005191                0.95293864               -0.04968913                0.05243278                0.45764740
               1.12007936                7.01321343                3.99045510                0.75523451                0.02942531                0.00532484               -0.08251747               -0.00180963                0.10482569               -0.13683664
               2.12218558                7.00783172                3.93566446                0.07084328                0.71091795                0.18715792               -1.07133596                0.21366821                3.65525415               -0.72216069
               3.13429772                7.00571711                3.95125350                0.00010000                1.24897801                0.12554589               -0.72002800                0.66756125                8.45481002                0.23211747
               4.14716514                7.00411398                3.99007984                0.00010000                1.00145151               -0.11030300               -0.29971575                0.79903764                9.19915549                0.23668119
               5.15432675                7.00293955                4.02640240                0.00010000                0.28185650               -0.25481173                0.70578547                0.86731220                9.30438940                0.51774798
               6.15280227                7.00235002                4.06771034                0.00297033               -0.37202492               -0.32308565                1.58010639                0.84380016               10.39468831                0.98301299
               7.14688625                7.00243861                4.12031635                0.17613365               -0.48983929               -0.31721947                1.45566385                0.39935915                6.30399653                1.62729322
               8.14300548                6.99468785                4.07066609                0.48830478               -0.26361364               -0.12903004                0.62362982               -0.01080159                0.60799348                1.08291091
               9.14161398                6.98756446                4.00770969                0.99857856               -0.01707857                0.00344874                0.04242803               -0.01456727               -0.02751793                0.46966571
              10.14266391                6.98112987                3.94542332                1.00000000                0.10499318                0.14153283               -0.66756329               -0.04835082                0.01148859               -0.19895075
               0.12489887                8.01626540                4.03859175                1.00000000               -0.07003435               -0.15974054                0.74880214               -0.05970608                0.06044236                0.40563125
               1.12419852                8.01364852                3.98019107                0.72463719                0.11353098                0.09095321               -0.36497037               -0.01344232                0.13331085               -0.11220436
               2.12716948                8.01030696                3.92322142                0.05670249                0.88659491                0.32678992               -1.40700599                0.03035926                4.38443276               -0.53007920
               3.14193042                8.00674614                3.94995578                0.00010000                1.42704132                0.03863841               -0.77364538                0.29602333                9.54121069                0.15871702
               4.15571031                8.00246897                3.99119746                0.00010000                1.06052443               -0.24694473               -0.27103546                0.45059776                9.94884548                0.12889459
               5.16314091                7.99975870                4.03244459                0.00010000                0.25484124               -0.36949385                0.88547560                0.60803208               10.25518696                0.42419232
               6.16080714                7.99850614                4.08059432                0.00465567               -0.45417934               -0.41224710                1.82642001                0.68958140               11.55934180                0.82579708
               7.15405732                7.99875072                4.14150037                0.18229647               -0.55591020               -0.40916012                1.55715695                0.36362732                6.92717426                1.23291252
               8.14968893                7.99297509                4.08842692                0.50045372               -0.32451600               -0.22759975                0.87698034                0.00475150                0.63166212                0.81302441
               9.14756700                7.98731207                4.02297086                0.99847550               -0.08886656               -0.06544890                0.28149460               -0.02167072                0.01049101                0.38231443
              10.14791160                7.98248993                3.95754398                0.99971793                0.03445989                0.12295670               -0.50591398               -0.05379181                0.00638539               -0.22084237
               0.12563670                9.01475176                4.03082799                1.00000000                0.01322484               -0.13662795                0.54361540               -0.06720121                0.07918047                0.31520245
               1.12576895                9.01503250                3.97012527                0.66673351                0.20292241                0.20002267               -0.68857252               -0.02424242                0.25055353               -0.10227120
               2.12969515                9.01436751                3.91280347                0.03573751                1.11436166                0.51468362               -1.84436198               -0.32815807                5.07563467               -0.31217473
               3.14805618                9.00648988                3.94826049                0.00010000                1.67346897               -0.21355310               -0.83045983               -0.04824749               10.54733228                0.04799841
               4.16316453                8.99917508                3.99127368                0.00010000                1.11970193               -0.33471930               -0.26650815                0.16685009               10.65298619                0.01357717
               5.17045022                8.99554967                4.03691961                0.00010000                0.22186758               -0.44299672                0.99470534                0.37047982               11.09727340                0.27511808
               6.16760188                8.99410508                4.09066271                0.00010000               -0.53801851               -0.46285152                1.94154906                0.47172039               12.49101855                0.54052092
               7.15968985                8.99425540                4.15632757                0.17508640               -0.65313624               -0.49002569                1.72726622                0.27906819                7.50084502                0.65697563
               8.15453916                8.99013586                4.10291845                0.48807651               -0.40120644               -0.36045317                1.25541230               -0.01013829                0.89953587                0.46545353
               9.15166572                8.98625549                4.03736225                0.99958636               -0.16533950               -0.16357715                0.57665902               -0.03299429                0.15766078                0.27242486
              10.15123237                8.98358900                3.96894482                0.99943861               -0.04333565                0.08503834               -0.30799360               -0.05879583                0.00380484               -0.24148868
               0.12299337               10.01353284                4.02163767                1.00000000                0.11045508               -0.12189258                0.27866303                0.14728064                0.24589284                0.25925800
               1.12409792               10.01764898                3.96002291                0.80390928                0.30777857                0.26164767               -1.03368988                0.18628701                0.52279718               -0.09294580
               2.12914894               10.02060064                3.90410179                0.50914180                1.60299903                0.62331203               -2.26310095               -0.81331583                5.72817681               -0.11922427
               3.15615790               10.00247507                3.94631972                0.43472431                2.04192905               -0.40148049               -0.98534355               -0.43113079               11.35659181               -0.03962150
               4.16998752                9.99577458                3.99043218                0.42781852                0.97313017               -0.34005008               -0.34980626                0.10348401               11.08492713                0.02818062
               5.17562051                9.99089877                4.03865940                0.44915783                0.07741419               -0.46509012                1.02479076                0.19075474               11.59987457                0.18999897
               6.17153581                9.98924911                4.09552835                0.49609470               -0.60062984               -0.48559723                2.05802079                0.29596442               13.17164989                0.37146948
               7.16360791                9.98895020                4.16513004                0.58002561               -0.70248616               -0.53052006                1.96214500                0.21765148                8.17336527                0.34260126
               8.15748608                9.98576602                4.11429388                0.73031939               -0.50769698               -0.43698333                1.62193099                0.04920916                1.34846450                0.17973973
               9.15345397                9.98404053                4.05056757                1.00000000               -0.27087166               -0.22149539                0.91106139                0.10005833                0.46995515                0.20565961
              10.15206865                9.98419070                3.98069072                0.99986932               -0.13853189                0.06016943               -0.03096197                0.09864488                0.17181042               -0.23789450
               0.08831272                0.06168415                5.12292164                1.00000000               -0.58698173               -0.68528518                2.39928815               -0.17100508               -0.39748260                0.46330440
               1.08244291                0.04097507                5.08299201                1.00000000               -0.44816329               -0.46456928                1.65378739               -0.13264781               -0.38731376               -0.02581814
               2.07934946                0.02018208                5.04310965                0.72246031               -0.06307387               -0.27719552                0.91991460                0.02336028               -0.17420530               -0.42768004
               3.08118143                0.00283334                5.00752047                0.52611856                0.51189386               -0.13431274                0.25925834                0.28467395                0.92330383               -0.06848220
               4.08958733               -0.00463487                4.98935939                0.44961449                0.85240990               -0.12333887               -0.15184305                0.29983759                2.75724054               -0.03839755
               5.09822963               -0.00128352                4.98931218                0.45503259                0.45960997               -0.07795721               -0.32447633                0.14563056                3.62623708                0.01570223
               6.09877953                0.00151755                4.98721487                0.53479068               -0.10014385                0.08620591               -0.52347156                0.22738786                2.65381395                0.05612448
               7.09622675               -0.00609279                4.96679305                0.69967908               -0.08323006                0.25089166               -0.93864964                0.21490384                1.03786686                0.07150230
               8.09711493               -0.02272986                4.93156383                0.98409927                0.29318879                0.43355287               -1.53880339                0.05604100                0.02639615                0.26395286
               9.10209052               -0.04248713                4.89028406                1.00000000                0.61828302                0.61234792               -2.20063266               -0.08795573               -0.27556696                0.08627112
              10.10948059               -0.06199861                4.84882246                1.00000000                0.73900679                0.78803397               -2.84233866               -0.15686218               -0.29548518               -0.37487540
               0.10731175                1.05483129                5.11102951                1.00000000               -0.54442883               -0.63662693                2.17595410               -0.06527217               -0.00576687                0.62560808
               1.10186746                1.03632937                5.07054495                1.00000000               -0.43289140               -0.42404456                1.42746752               -0.03643546                0.04728520               -0.04722354
               2.09865392                1.01741012                5.03096120                0.30711175               -0.27154100               -0.23974963                0.68972451                0.13015988                0.66192999               -0.69697519
               3.09643664                1.00149021                5.00298235                0.00010000               -0.20048921               -0.06594385                0.12936340                0.54854089                1.84116178               -0.82008204
               4.09464414                0.99413174                4.98795577                0.00084193                0.00865378                0.29407387               -0.21866148                1.39510055                3.28364021                0.10204629
               5.09660972                0.99793691                4.99019821                0.00175677                0.44069548                0.10012226               -0.27908844                1.71928972                4.04473545                0.14478862
               6.10345805                1.00237961                4.99037861                0.02017846                0.69448879               -0.03526206               -0.36492973                1.40809453                3.17182792                0.19168206
               7.11049949                0.99641613                4.97299457                0.26794519                0.62072334                0.23952848               -0.70234041                0.74256151                1.81462088                0.84393893
               8.11587252                0.98160567                4.94339237                0.71828831                0.51729239                0.38875688               -1.25076399                0.24301390                0.82010156                0.63424500
               9.12084534                0.96363635                4.90433696                1.00000000                0.57754654                0.54930241               -1.84924755                0.02577089                0.22847641                0.19305995
              10.12742345                0.94588173                4.86235133                1.00000000                0.65781039                0.70704048               -2.47668310               -0.06123979                0.07699186               -0.50337372
               0.12401112                2.04895161                5.10213009                1.00000000               -0.48757490               -0.53926838                1.96752077               -0.07182168                0.06088177                0.77525267
               1.11913537                2.03249418                5.05768091                0.93530186               -0.36096519               -0.34861345                1.19344203               -0.04375476                0.09329911               -0.11447414
               2.11679182                2.01538708                5.01367007                0.14489113               -0.18523704               -0.17394791                0.42524405                0.17529319                0.80715586               -1.01541462
               3.11543063                2.00151446                4.98370755                0.00010000                0.21254158                0.10202974               -0.19710529                1.18564386                3.29176387               -1.38695151
               4.12104265                2.00124660                4.98985546                0.00010000                0.44684581                0.49031177               -0.21454086                2.31190479                4.91383053                0.05790658
               5.12436755                2.00071893                4.99410863                0.00010000                0.37097804                0.25649433               -0.23426724                2.50573952                4.69179776                0.35927014
               6.12846221                2.00081231                4.99643766                0.00010000                0.37421886               -0.02963730               -0.22762387                2.25148669                4.46484470                0.67575544
               7.13185192                1.99869778                4.99452685                0.12188330                0.31463928                0.17730156               -0.28559072                1.29645167                2.92715452                1.95371877
               8.13475499                1.98504528                4.96233934                0.42499059                0.32389787                0.29153517               -0.84979063                0.32951726                1.01794659                1.38659317
               9.13832988                1.96849891                4.92067174                1.00000000                0.45050163                0.41478631               -1.42091983                0.04806879                0.31186421                0.34832466
              10.14376503                1.95214220                4.87398451                1.00000000                0.54351458                0.54409426               -2.06967038               -0.05681930                0.05297244               -0.59342047
               0.13879018                3.04404593                5.09322838                1.00000000               -0.42332886               -0.44578667                1.75859987               -0.06826683                0.04646536                0.74400356
               1.13455689                3.02935711                5.04402318                0.87798613               -0.28253412               -0.27911245                0.93698295               -0.03949891                0.09264826               -0.16873679
               2.13313950                3.01393116                4.99545994                0.11667992               -0.01334461               -0.11766637                0.10977749                0.26600637                1.19598010               -1.07325823
               3.13429000                3.00353081                4.96858456                0.00010000                0.42691355                0.18884297               -0.19079584                1.30815794                4.48723298               -0.85445390
               4.14167777                3.00393797                4.98650669                0.00010000                0.64344001                0.20765144               -0.22222485                1.94601483                6.37075520               -0.10610738
               5.14715880                3.00306680                4.99964916                0.00010000                0.44155804                0.17331095               -0.12385601                2.00570682                6.01421209                0.50951768
               6.15050893                3.00178687                5.01082780                0.00010000                0.25183808                0.08336859                0.00347703                1.90388262                6.01497413                1.19269377
               7.15219556                2.99996216                5.02245533                0.13102204                0.10763987                0.09720175                0.04969391                1.17481796                3.93058469                2.21956932
               8.15266173                2.98743637                4.98844197                0.41780973                0.12571163                0.16316101               -0.31232009                0.30044690                0.92807989                1.59902117
               9.15470979                2.97193207                4.93797151                0.97614935                0.31693799                0.27158417               -0.99811183                0.04060495                0.07287934                0.39333782
              10.15900049                2.95676362                4.88632138                1.00000000                0.42906929                0.38613881               -1.65074935               -0.04604553                0.01640121               -0.56491750
               0.15202343                4.04003587                5.08400617                1.00000000               -0.35632686               -0.36466633                1.54787267               -0.05873425                0.04773899                0.69551355
               1.14846016                4.02691193                5.03032928                0.84019621               -0.20425927               -0.21184688                0.68721488               -0.02781571                0.09551732               -0.18363212
               2.14793824                4.01303376                4.97728822                0.10208385                0.15634108               -0.05845922               -0.17889518                0.32848818                1.82175466               -1.06147857
               3.15158698                4.00529132                4.95838348                0.00010000                0.62443568                0.16730050               -0.21636276                1.27270169                5.75520594               -0.38724862
               4.16042695                4.00539963                4.98471310                0.00010000                0.75229052                0.10639880               -0.19152511                1.73292386                7.67290636                0.08810377
               5.16663279                4.00418515                5.00671877                0.00010000                0.46087729                0.06143482                0.02526826                1.69986437                7.38757246                0.63790706
               6.16964450                4.00247968                5.02784003                0.00010000                0.15329937                0.02326598                0.27406451                1.62200454                7.55147636                1.33364008
               7.16969878                4.00064182                5.05087536                0.14277991               -0.04252398                0.01082842                0.41573456                0.94877108                4.71146373                2.19799685
               8.16879402                3.98830850                5.01133164                0.43349515                0.00579794                0.04210639                0.01041736                0.20776541                0.83101510                1.41125200
               9.16981473                3.97393060                4.95509393                0.98893283                0.21935034                0.15422360               -0.65505820                0.02880217                0.00488807                0.41558219
              10.17318103                3.95986498                4.89860567                1.00000000                0.33662914                0.26843899               -1.30658831               -0.04579689                0.00291467               -0.52478744
               0.16386339                5.03675260                5.07462507                1.00000000               -0.28606938               -0.30056764                1.33830383               -0.05267573                0.04634522                0.65281428
               1.16100270                5.02512017                5.01663845                0.80476185               -0.12667624               -0.14570136                0.44107707               -0.01701052                0.09897494               -0.18807391
               2.16132987                5.01276198                4.95937401                0.08769906                0.31877306                0.01096720               -0.45817897                0.35491828                2.59849015               -1.02257829
               3.16737816                5.00687682                4.95159873                0.00010000                0.80562780                0.15585097               -0.27972305                1.19315102                7.10092111               -0.03886026
               4.17744242                5.00606595                4.98498699                0.00010000                0.83489391                0.03195564               -0.15986814                1.50337550                8.85927254                0.26036035
               5.18407604                5.00429550                5.01499934                0.00010000                0.45249657               -0.03765376                0.19333374                1.47200874                8.69206444                0.71708316
               6.18649235                5.00225219                5.04551535                0.00010000                0.06330666               -0.07741178                0.55433812                1.39594340                9.00014834                1.34975696
               7.18534217                5.00017873                5.07880675                0.15265880               -0.14820493               -0.09970358                0.71302461                0.79051014                5.41507432                2.13618337
               8.18352825                4.98827850                5.03349235                0.44786247               -0.08064052               -0.03468142                0.25220957                0.14782143                0.76785254                1.36021698
               9.18372936                4.97501654                4.97242411                1.00000000                0.13437683                0.08134962               -0.39198372                0.01894913               -0.00342557                0.46148490
              10.18621579                4.96213240                4.91133839                1.00000000                0.24864325                0.20569660               -1.04732514               -0.04426855                0.00263190               -0.43104602
               0.17423477                6.03402452                5.06513707                1.00000000               -0.21242065               -0.25100964                1.12951957               -0.05206542                0.04312875                0.61291901
               1.17211057                6.02399790                5.00306076                0.77289848               -0.04774100               -0.07583571                0.18734794               -0.01251732                0.10036541               -0.17857103
               2.17327995                6.01325310                4.94181219                0.07365481                0.50177299                0.09799394               -0.75147433                0.33218396                3.50611386               -0.95842199
               3.18214603                6.00840834                4.94803625                0.00010000                0.98979160                0.13850404               -0.34909594                1.04983893                8.48661306                0.19300360
               4.19307579                6.00603874                4.98662249                0.00010000                0.88703491               -0.03837057               -0.12939763                1.24700548                9.90683314                0.34226798
               5.19988673                6.00343207                5.02381258                0.00010000                0.43021738               -0.13609329                0.36129368                1.25296537                9.92262339                0.72959088
               6.20168013                6.00093145                5.06311284                0.00010000               -0.02020309               -0.18548081                0.81451533                1.20569913               10.39365185                1.30653312
               7.19948266                5.99864774                5.10630733                0.16152155               -0.23837510               -0.20035391                0.96118191                0.67380578                6.10707685                2.04069943
               8.19691263                5.98761487                5.05570714                0.46221478               -0.15714217               -0.09777069                0.47728389                0.11228741                0.72666153                1.30778691
               9.19633982                5.97555759                4.99020526                0.99942808                0.05756591                0.03201745               -0.16812779                0.00760827               -0.00223125                0.48775999
              10.19806395                5.96397891                4.92483323                1.00000000                0.17241296                0.17234427               -0.84527056               -0.04254417                0.00689909               -0.34797462
               0.18287533                7.03173241                5.05557598                1.00000000               -0.13515536               -0.21012928                0.92072942               -0.05641775                0.04248199                0.57776447
               1.18152377                7.02360345                4.98969520                0.74218511                0.03438880                0.00226866               -0.08146203               -0.01496734                0.10974743               -0.16152568
               2.18356310                7.01472186                4.92487037                0.05936305                0.70327597                0.20962657               -1.07197609                0.22747944                4.45178578               -0.86645634
               3.19558929                7.00964690                4.94595778                0.00010000                1.18978496                0.09680587               -0.45597699                0.78828517                9.84946344                0.23819590
               4.20735880                7.00529854                4.98866542                0.00010000                0.93266744               -0.12133056               -0.10551023                0.94753751               10.86779511                0.32926594
               5.21424264                7.00157363                5.03236823                0.00010000                0.40159317               -0.23677048                0.51399272                1.02852616               11.09370074                0.67156232
               6.21539066                6.99854257                5.07988470                0.00010000               -0.10538885               -0.28313547                1.04656342                1.02974837               11.72741658                1.18847267
               7.21213486                6.99617165                5.13249121                0.16862307               -0.32632534               -0.29316495                1.18124663                0.57191090                6.79062533                1.82604177
               8.20886416                6.98632309                5.07746160                0.47519234               -0.23086895               -0.16980675                0.71937513                0.08712567                0.73158164                1.18857942
               9.20751748                6.97565689                5.00818250                0.99857278               -0.01709437               -0.01770670                0.05530718               -0.00269974                0.01332622                0.46835734
              10.20852227                6.96557928                4.93874994                1.00000000                0.10047859                0.14825703               -0.66530251               -0.04614013                0.00338117               -0.31450772
               0.18936433                8.02982194                5.04590830                1.00000000               -0.05425548               -0.17208481                0.70907762               -0.06177896                0.05282890                0.54711498
               1.18882177                8.02404327                4.97651862                0.70614267                0.12108856                0.09514253               -0.37481436               -0.02042248                0.14804731               -0.16184967
               2.19178610                8.01744563                4.90877051                0.04339251                0.92566396                0.35759147               -1.44373729                0.00851303                5.35457285               -0.75840823
               3.20733505                8.01034446                4.94359018                0.00010000                1.41568544                0.01953316               -0.62665000                0.36306640               11.12577680                0.14874581
               4.22009981                8.00361213                4.99011997                0.00010000                0.99390830               -0.23968522               -0.09751616                0.62830944               11.78048502                0.24836163
               5.22721322                7.99869666                5.03977186                0.00010000                0.37886374               -0.32885576                0.63293914                0.79791480               12.19342534                0.53488488
               6.22767708                7.99526874                5.09469383                0.00044800               -0.20364257               -0.35838739                1.24323526                0.85286146               12.95118577                0.95676023
               7.22314037                7.99278445                5.15554385                0.17123968               -0.42535894               -0.39831264                1.43343798                0.46314915                7.48842139                1.42613716
               8.21916990                7.98421873                5.09798816                0.48167475               -0.30553674               -0.27530524                1.01808024                0.05468455                0.85340162                0.99988179
               9.21702963                7.97520346                5.02587469                0.99856038               -0.09367660               -0.08577883                0.30404579               -0.01258374                0.06741688                0.41852843
              10.21729637                7.96694405                4.95266676                0.99966626                0.02667398                0.11754056               -0.47394182               -0.05042544                0.00696408               -0.33345050
               0.19319707                9.02829071                5.03600363                1.00000000                0.02945549               -0.13209619                0.48947467               -0.06047259                0.05996219                0.44101196
               1.19349163                9.02550630                4.96310402                0.65094167                0.21175511                0.20404564               -0.70121740               -0.01430438                0.23934595               -0.16941157
               2.19743217                9.02187369                4.89355700                0.02254005                1.15962448                0.52424064               -1.89308495               -0.37022760                6.19972031               -0.56905870
               3.21668412                9.01003756                4.94000041                0.00010000                1.70703057               -0.19542356               -0.86711517               -0.07218941               12.22917208                0.04929303
               4.23157279                9.00050483                4.99036803                0.00010000                1.09301072               -0.32368399               -0.11263895                0.30580731               12.61162774                0.13424004
               5.23854433                8.99499651                5.04499451                0.00010000                0.33936627               -0.38510090                0.70357763                0.50896132               13.15551963                0.30963704
               6.23836011                8.99137482                5.10605028                0.00010000               -0.30482406               -0.41369062                1.39430861                0.55746318               13.99810190                0.55140060
               7.23244785                8.98820540                5.17364555                0.16569591               -0.54106369               -0.51255290                1.80197236                0.30603590                8.25028644                0.85076823
               8.22753884                8.98081698                5.11673614                0.47211220               -0.39536780               -0.40632738                1.42300054                0.00794450                1.19247442                0.67857672
               9.22454049                8.97394132                5.04320658                0.99970213               -0.17531316               -0.17542492                0.59300900               -0.01247830                0.18010372                0.32862261
              10.22403257                8.96793009                4.96621473                0.99942938               -0.05079196                0.07153849               -0.25437586               -0.05068169                0.00073585               -0.32083618
               0.19372369               10.02718001                5.02416594                1.00000000                0.12290210               -0.11106992                0.22729258                0.14707899                0.26915225                0.35630129
               1.19495271               10.02812419                4.94968292                0.80198374                0.30632997                0.26178812               -1.01836156                0.18362984                0.56065425               -0.17318685
               2.19985029               10.02793044                4.88088936                0.50373301                1.61537036                0.60567577               -2.25177195               -0.84259848                6.99729428               -0.46364143
               3.22726012               10.00643599                4.93549288                0.43267472                2.07033567               -0.36015734               -1.11085703               -0.48199951               13.07891731                0.03851405
               4.24125700                9.99713845                4.98905263                0.42803122                0.96311690               -0.33663788               -0.17613793                0.19635439               13.24362569                0.07574840
               5.24652245                9.99099465                5.04705296                0.45037181                0.21802305               -0.40018684                0.73407494                0.29063597               13.83991606                0.19663202
               6.24561746                9.98699493                5.11210878                0.49690587               -0.33517654               -0.43798956                1.51548742                0.30267222               14.84714790                0.31153182
               7.23981892                9.98253339                5.18567014                0.57900996               -0.60122945               -0.56720092                2.09891917                0.19197046                9.05505513                0.51114241
               8.23359287                9.97609219                5.13166953                0.72822918               -0.50759852               -0.47247943                1.74267621                0.06348211                1.75553426                0.46648112
               9.22966695                9.97169496                5.05943761                1.00000000               -0.26438448               -0.22463581                0.88562079                0.12677761                0.51927784                0.26881280
              10.22830518                9.96837482                4.98058335                0.99987921               -0.13617696                0.04447270                0.00273694                0.09524713                0.18716143               -0.29200045
               0.12781158                0.07949062                6.14664525                1.00000000               -0.57889548               -0.67330044                2.34885314               -0.16053980               -0.43638760                0.49914243
               1.12202263                0.05424132                6.09950408                1.00000000               -0.44690002               -0.46479649                1.65022497               -0.12123847               -0.42333331               -0.03192532
               2.11887358                0.02892708                6.05247946                0.71891426               -0.06291886               -0.28957996                0.95576801                0.04534870               -0.17736589               -0.47508261
               3.12076425                0.00733813                6.01036846                0.52299029                0.53712865               -0.15034247                0.31353545                0.32036264                1.05881734               -0.06727480
               4.12961615               -0.00334374                5.98803560                0.44949895                0.89774993               -0.14261334               -0.11193935                0.32016453                3.09651602               -0.04657106
               5.13871925               -0.00229103                5.98600501                0.45648202                0.50374792               -0.09367478               -0.33589173                0.15253667                4.02915086                0.00911514
               6.13969111               -0.00192336                5.98163712                0.53534804               -0.05884686                0.08107806               -0.58746995                0.23712574                2.92934743                0.05123004
               7.13754231               -0.01278508                5.95694092                0.69843128               -0.05226164                0.26192462               -1.01819763                0.22775413                1.12494778                0.07138454
               8.13864588               -0.03334269                5.91586955                0.98365329                0.30675676                0.44546582               -1.58398127                0.07149941               -0.00067124                0.26816316
               9.14367744               -0.05734284                5.86836681                1.00000000                0.61426601                0.60860309               -2.18236291               -0.08018058               -0.32017750                0.10726320
              10.15093120               -0.08120147                5.82085352                1.00000000                0.72537539                0.76931276               -2.76737289               -0.14536180               -0.33191874               -0.38180870
               0.15145548                1.07275761                6.13254038                1.00000000               -0.53634660               -0.63033778                2.12876052               -0.05993697               -0.00938579                0.66854379
               1.14609201                1.04959336                6.08483265                1.00000000               -0.43384068               -0.42666011                1.42878349               -0.02897954                0.04737066               -0.05678990
               2.14277866                1.02603128                6.03810915                0.29523348               -0.29943622               -0.25224759                0.73628554                0.15510975                0.74729625               -0.76028062
               3.14010329                1.00583471                6.00458079                0.00010000               -0.25731428               -0.09620154                0.18858523                0.63506414                2.11631336               -0.90879203
               4.13763238                0.99523012                5.98607279                0.00179571               -0.02844332                0.30377914               -0.16473432                1.51056135                3.79499688                0.13843941
               5.13953442                0.99677223                5.98741512                0.00299700                0.48385094                0.08310172               -0.28311506                1.84279009                4.65542807                0.14762943
               6.14730940                0.99888742                5.98636747                0.01738624                0.79975478               -0.06628725               -0.43519910                1.50696767                3.61667771                0.17592325
               7.15552952                0.98983416                5.96544921                0.25894581                0.71651767                0.26502308               -0.79446363                0.82270587                2.01882006                0.91892249
               8.16163975                0.97111197                5.93050039                0.70434687                0.56377567                0.40755639               -1.30961398                0.27257843                0.88977594                0.67883645
               9.16680503                0.94874319                5.88583458                1.00000000                0.58482301                0.54869212               -1.85242550                0.02875298                0.25894196                0.25859409
              10.17333621                0.92649166                5.83796993                1.00000000                0.65311811                0.69380984               -2.42385965               -0.05856895                0.09573848               -0.47241260
               0.17294135                2.06688386                6.12159302                1.00000000               -0.47719809               -0.54514370                1.92672700               -0.06463104                0.06530908                0.82683255
               1.16816937                2.04570812                6.06966427                0.91840167               -0.36034617               -0.35602937                1.20073029               -0.03449246                0.10105701               -0.13762530
               2.16573443                2.02388213                6.01826139                0.13277301               -0.19513408               -0.18494139                0.48454801                0.19011667                0.88930167               -1.11994983
               3.16426669                2.00541410                5.98226093                0.00010000                0.15777173                0.11807865               -0.09925045                1.33854501                3.74507342               -1.38929000
               4.16888986                2.00273184                5.98811764                0.00010000                0.38255297                0.51527508               -0.14401391                2.51644481                5.63426860                0.10093130
               5.17191775                1.99937101                5.99180285                0.00010000                0.39393321                0.24416864               -0.23375666                2.68671715                5.40078872                0.39204195
               6.17676853                1.99675090                5.99363475                0.00010000                0.49270656               -0.06612294               -0.32154609                2.45102913                5.12772492                0.72258923
               7.18177188                1.99251538                5.99071464                0.11244810                0.42099456                0.17545927               -0.44708563                1.44140089                3.28751688                2.08185869
               8.18518842                1.97480844                5.95317060                0.40982523                0.35504681                0.31981579               -0.95345211                0.35508437                1.12674204                1.54700944
               9.18887282                1.95363101                5.90638700                1.00000000                0.45372340                0.42106840               -1.44090339                0.04390278                0.37244076                0.46188998
              10.19426289                1.93267473                5.85354182                1.00000000                0.53900701                0.54287991               -2.03508640               -0.05680360                0.06947881               -0.51431721
               0.19251434                3.06185474                6.11061411                1.00000000               -0.41104402               -0.46229566                1.72043004               -0.06402176                0.03976109                0.79854553
               1.18840390                3.04247277                6.05344780                0.86420410               -0.28196600               -0.28895820                0.94613326               -0.03470327                0.08248767               -0.19750823
               2.18687502                3.02233245                5.99691266                0.10617302               -0.01897111               -0.12192249                0.17208392                0.31788404                1.47031782               -1.19050765
               3.18802448                3.00819628                5.96770949                0.00010000                0.35646749                0.25207118               -0.01504661                1.44910383                5.15307664               -0.71194962
               4.19400437                3.00553562                5.98475570                0.00010000                0.56126142                0.21851593               -0.14008247                2.09857473                7.16614624               -0.06128605
               5.19924970                3.00165560                5.99837927                0.00010000                0.45906198                0.16877046               -0.13380833                2.17268509                6.87202126                0.59070911
               6.20318561                2.99756496                6.01019132                0.00010000                0.35251429                0.07189821               -0.11310487                2.10177824                6.80435899                1.32276028
               7.20629999                2.99334335                6.02172850                0.12268432                0.22201020                0.07880929               -0.17570328                1.34099386                4.46971782                2.39521298
               8.20762581                2.97750829                5.98474279                0.40628485                0.17584031                0.18794410               -0.41632367                0.35088263                1.11258632                1.76483682
               9.20981680                2.95716456                5.92781937                0.96400737                0.32434388                0.28657481               -1.03417072                0.02520353                0.07481933                0.47648949
              10.21411269                2.93734926                5.86981415                1.00000000                0.42958928                0.39903782               -1.65729169               -0.04758286                0.02538211               -0.50142650
               0.21042485                4.05763795                6.09928843                1.00000000               -0.34272589               -0.38673284                1.51031694               -0.05827198                0.03908621                0.75762617
               1.20699759                4.03992896                6.03723198                0.83044352               -0.20281261               -0.22018095                0.69218821               -0.02760076                0.08217714               -0.20290146
               2.20636860                4.02144368                5.97579438                0.09318447                0.15239995               -0.05349425               -0.12737389                0.39658004                2.25801543               -1.16002668
               3.21004559                4.01045552                5.95745799                0.00010000                0.55167192                0.20012148               -0.02312928                1.40675713                6.63475883               -0.30539238
               4.21740204                4.00710216                5.98336434                0.00010000                0.66482580                0.11480900               -0.09883803                1.86782909                8.59136691                0.15058537
               5.22334211                4.00274642                6.00680456                0.00010000                0.48571506                0.06037798               -0.00587125                1.86644833                8.39562714                0.75303838
               6.22711634                3.99818886                6.02960974                0.00010000                0.26531624                0.01950463                0.11762009                1.84915793                8.48588214                1.50627020
               7.22864843                3.99409157                6.05395759                0.13566163                0.06342588                0.01886078                0.21609050                1.15998589                5.30980342                2.41586795
               8.22838486                3.97856732                6.01113498                0.42478979                0.04437404                0.05261257               -0.04781457                0.27055670                1.00105664                1.45420710
               9.22953591                3.95936250                5.94833456                0.98321953                0.22784880                0.17371591               -0.69945601                0.01621367                0.00589266                0.43121811
              10.23294183                3.94065549                5.88538061                1.00000000                0.34059194                0.29271444               -1.34458846               -0.04662029                0.00453114               -0.52681922
               0.22676688                5.05412008                6.08782486                1.00000000               -0.27207265               -0.32320193                1.30163796               -0.05425797                0.04074001                0.72739700
               1.22404616                5.03806915                6.02105251                0.79595190               -0.12434148               -0.15075498                0.44071906               -0.02015339                0.09009405               -0.20351819
               2.22428005                5.02126257                5.95501739                0.07942870                0.32274915                0.02276616               -0.41838029                0.41537737                3.17332848               -1.12322345
               3.23050114                5.01219871                5.95009044                0.00010000                0.73950027                0.16403569               -0.09930712                1.31535321                8.18898927                0.00256392
               4.23907006                5.00783180                5.98398593                0.00010000                0.74954136                0.03698979               -0.06981840                1.62873638                9.93806708                0.32523692
               5.24549197                5.00286316                6.01657583                0.00010000                0.48767797               -0.03342811                0.13249199                1.63869846                9.86482607                0.85244907
               6.24882362                4.99795506                6.04978447                0.00010000                0.18146404               -0.07298508                0.36133259                1.62747784               10.04927177                1.54011378
               7.24912125                4.99372056                6.08502855                0.14598383               -0.05288042               -0.09334638                0.55630052                0.99561288                6.03370995                2.33314605
               8.24776601                4.97856054                6.03600335                0.44004020               -0.05341700               -0.04125734                0.23926207                0.20997884                0.92366838                1.37722802
               9.24805291                4.96063888                5.96835583                1.00000000                0.14141522                0.09387039               -0.42066960                0.01183699               -0.00199151                0.43310932
              10.25059431                4.94320355                5.90065871                1.00000000                0.25414070                0.23163724               -1.08376360               -0.04605182                0.00075629               -0.49762901
               0.24144155                6.05117391                6.07626246                1.00000000               -0.19895114               -0.26947261                1.09317688               -0.05393577                0.04020320                0.70194802
               1.23945204                6.03691386                6.00491201                0.76302818               -0.04474816               -0.07720432                0.18235365               -0.01705757                0.09677014               -0.19998577
               2.24054659                6.02189900                5.93445192                0.06547949                0.51656884                0.11408504               -0.72240427                0.37505195                4.21855556               -1.08233227
               3.24978342                6.01373624                5.94569295                0.00010000                0.93828635                0.13641936               -0.21254783                1.14668752                9.77880680                0.19646543
               4.25931232                6.00784195                5.98585347                0.00010000                0.81047023               -0.03149961               -0.05900834                1.36910721               11.15246133                0.41109163
               5.26599282                6.00207785                6.02683880                0.00010000                0.47480857               -0.12258232                0.26518528                1.41883672               11.25602953                0.87010595
               6.26880849                5.99672916                6.06971848                0.00010000                0.09811925               -0.17082842                0.59244616                1.42753975               11.53728131                1.49192941
               7.26795521                5.99222464                6.11519055                0.15447064               -0.15711853               -0.19988222                0.85263305                0.85068129                6.75080180                2.22731835
               8.26566612                5.97774218                6.06068376                0.45374780               -0.14127821               -0.11910605                0.50299124                0.15975439                0.88817941                1.34448518
               9.26512965                5.96123991                5.98850594                0.99947065                0.06126711                0.03116485               -0.17463841                0.00426595                0.00459945                0.45554673
              10.26689146                5.94528823                5.91625759                1.00000000                0.17618162                0.19013190               -0.86712368               -0.04505056                0.00423607               -0.44739732
               0.25420827                7.04873063                6.06460445                1.00000000               -0.12283570               -0.21969330                0.88135596               -0.05589362                0.04183750                0.67934182
               1.25297992                7.03652507                5.98882585                0.73028582                0.03752196                0.00444209               -0.09054085               -0.01705752                0.11166040               -0.19761964
               2.25495871                7.02354427                5.91422494                0.05108038                0.72560107                0.22765867               -1.05233900                0.25224099                5.28870112               -1.03310538
               3.26749194                7.01492710                5.94213396                0.00010000                1.15759374                0.09710919               -0.39211672                0.84853110               11.33804317                0.18285249
               4.27811059                7.00720181                5.98796963                0.00010000                0.87447778               -0.10541784               -0.07008414                1.06552114               12.28842307                0.39831350
               5.28498149                7.00041151                6.03668226                0.00010000                0.45585214               -0.21238657                0.38214749                1.18897055               12.57453168                0.80033722
               6.28722763                6.99453849                6.08864161                0.00010000                0.00701819               -0.26266986                0.81015606                1.22808940               12.96590358                1.35501006
               7.28512186                6.98972292                6.14394128                0.16068718               -0.26409021               -0.30527596                1.14612815                0.71080701                7.48945402                2.02845361
               8.28194583                6.97617842                6.08505359                0.46515035               -0.22648428               -0.20219949                0.77809589                0.11496285                0.91679877                1.27680952
               9.28059217                6.96126218                6.00881583                0.99856054               -0.01745835               -0.02906746                0.06653875               -0.00325689                0.02634891                0.45631439
              10.28159666                6.94700619                5.93211727                1.00000000                0.10044876                0.15339492               -0.66483038               -0.04683476                0.00343943               -0.41929531
               0.26473481                8.04678005                6.05277331                1.00000000               -0.04375551               -0.17081307                0.66241084               -0.05639058                0.05142647                0.65426235
               1.26429726                8.03700270                5.97269478                0.69263534                0.12272846                0.09774481               -0.38281718               -0.01526433                0.14700593               -0.21952842
               2.26718938                8.02645217                5.89434667                0.03502927                0.93996204                0.36616121               -1.42167794                0.02550908                6.29524866               -0.98003875
               3.28309650                8.01567842                5.93742278                0.00010000                1.39744728                0.03229701               -0.64450075                0.38090386               12.80487232                0.04499941
               4.29513833                8.00573360                5.98924714                0.00010000                0.96695303               -0.21372940               -0.10837815                0.72220486               13.38555721                0.30604282
               5.30243556                7.99783012                6.04510338                0.00010000                0.44602710               -0.29750980                0.47533141                0.93195198               13.81103797                0.63168331
               6.30405887                7.99147576                6.10545902                0.00010000               -0.09520689               -0.34101740                1.01835086                0.99871235               14.32196869                1.08133567
               7.30053142                7.98611912                6.17016912                0.16320829               -0.38163744               -0.42892216                1.49472320                0.55551444                8.29021055                1.68203652
               8.29642612                7.97369819                6.10878852                0.47077629               -0.31473404               -0.30761970                1.09895088                0.07106146                1.05527372                1.16010913
               9.29423674                7.96065856                6.02905178                0.99861928               -0.09796856               -0.09985794                0.32476040               -0.00725094                0.07259908                0.43892131
              10.29446675                7.94835613                5.94806514                0.99967282                0.02300088                0.11247495               -0.45294070               -0.04853631                0.00736079               -0.42266519
               0.27263515                9.04531437                6.04061748                1.00000000                0.03673495               -0.12229005                0.43609580               -0.05305921                0.05169526                0.53182755
               1.27300250                9.03847996                5.95610093                0.64184070                0.20790101                0.20123696               -0.69151291               -0.00782779                0.22557700               -0.23483843
               2.27679317                9.03086749                5.87494177                0.01534751                1.14130457                0.51054480               -1.81862704               -0.34057188                7.23441966               -0.78514668
               3.29582859                9.01557304                5.93091819                0.00010000                1.68049059               -0.17090066               -0.92409811               -0.07318924               14.14557253               -0.04312522
               4.31040298                9.00292722                5.98902090                0.00010000                1.10248863               -0.29066264               -0.17179455                0.35249568               14.40535969                0.16827471
               5.31787836                8.99446132                6.05099116                0.00010000                0.42549489               -0.35578049                0.53765883                0.58590187               14.90219093                0.35850124
               6.31891288                8.98771814                6.11854888                0.00010000               -0.19343215               -0.40565113                1.20051244                0.62429391               15.57110432                0.61707503
               7.31400972                8.98114448                6.19236701                0.16089280               -0.50426342               -0.54976222                1.90466033                0.34623655                9.20148689                1.08130636
               8.30882761                8.97002602                6.13137846                0.46545058               -0.41102564               -0.42346572                1.46201502                0.02618591                1.38144003                0.84418908
               9.30578921                8.95926502                6.04922243                0.99978643               -0.17984099               -0.18519150                0.60621580               -0.00406892                0.16089257                0.37022598
              10.30523079                8.94925568                5.96385730                0.99946598               -0.05584161                0.06286548               -0.22456604               -0.04825085               -0.00356310               -0.38163335
               0.27734244               10.04433424                6.02618352                1.00000000                0.12451374               -0.09801255                0.18087410                0.14004860                0.30686036                0.43027476
               1.27858758               10.04102744                5.93965568                0.80185681                0.29712135                0.25474767               -0.98433307                0.17494914                0.60500232               -0.23473687
               2.28328487               10.03666307                5.85906635                0.50114600                1.54927007                0.57955783               -2.12155717               -0.78918175                8.16268206               -0.63526806
               3.30957298               10.01226041                5.92410257                0.43177155                2.00075463               -0.33126280               -1.13294070               -0.46269746               15.18906193               -0.02659326
               4.32329996                9.99992034                5.98690942                0.42828660                0.98948487               -0.30068805               -0.25031619                0.21240306               15.21962231                0.10610203
               5.32936268                9.99071451                6.05334090                0.45106260                0.32808115               -0.37468024                0.56352011                0.32055125               15.75093892                0.20686274
               6.32986159                9.98336274                6.12583810                0.49726305               -0.21072050               -0.43554002                1.32285905                0.31533845               16.58583548                0.33091276
               7.32514827                9.97512387                6.20710843                0.57893319               -0.55161440               -0.60206034                2.16559298                0.20716126               10.13472019                0.68791481
               8.31882930                9.96522887                6.14914740                0.72862322               -0.51112839               -0.47971517                1.73566437                0.09171127                2.02066326                0.60198009
               9.31492570                9.95695473                6.06827999                1.00000000               -0.26544494               -0.23102881                0.88686399                0.13287751                0.54288010                0.30989027
              10.31352040                9.94961344                5.98074546                0.99991387               -0.14053021                0.03577546                0.02913493                0.09483149                0.20525100               -0.33419292
               0.17386730                0.09987673                7.16989870                1.00000000               -0.57252723               -0.66223243                2.30538652               -0.15250965               -0.47962606                0.54026314
               1.16814203                0.06967943                7.11599651                1.00000000               -0.44647685               -0.46460360                1.64839481               -0.11237674               -0.46722959               -0.03423263
               2.16493777                0.03942104                7.06222501                0.71747893               -0.06701976               -0.29984637                0.99099377                0.06058150               -0.19921061               -0.51673813
               3.16680164                0.01306318                7.01379118                0.52133473                0.54716664               -0.16412767                0.36932318                0.34667725                1.15007430               -0.06975497
               4.17588110               -0.00164069                6.98712060                0.44969667                0.92047432               -0.15408350               -0.07214872                0.33363436                3.35768672               -0.05465919
               5.18521112               -0.00392143                6.98259435                0.45763063                0.52747397               -0.09869110               -0.34397134                0.15735581                4.34673580                0.00295668
               6.18643058               -0.00691854                6.97546547                0.53574829               -0.03589264                0.08189890               -0.63653958                0.24468067                3.13665233                0.04977118
               7.18449327               -0.02168169                6.94642909                0.69777705               -0.03774828                0.27025379               -1.06967575                0.23948307                1.17957473                0.07464104
               8.18567561               -0.04662827                6.89988421                0.98383086                0.31048709                0.45096245               -1.60414770                0.08092000               -0.02654149                0.27670066
               9.19070301               -0.07527740                6.84663681                1.00000000                0.60965955                0.60654336               -2.16723750               -0.07680243               -0.35803705                0.12662128
              10.19786880               -0.10386760                6.79347500                1.00000000                0.71657925                0.76127701               -2.72289601               -0.13914878               -0.36015137               -0.38932243
               0.20253950                1.09325440                7.15360472                1.00000000               -0.52933958               -0.62310981                2.08669145               -0.05672591               -0.01420942                0.71851298
               1.19724611                1.06503339                7.09912061                1.00000000               -0.43438986               -0.42764542                1.42813623               -0.02428621                0.04484925               -0.06121374
               2.19385171                1.03642257                7.04568691                0.28899818               -0.32234195               -0.26182278                0.77553633                0.17159643                0.81510322               -0.81521402
               3.19079927                1.01142190                7.00675406                0.00057254               -0.30709803               -0.12316064                0.24312736                0.70350596                2.34799664               -0.98173453
               4.18770975                0.99681848                6.98466108                0.00267963               -0.06878311                0.31115057               -0.12291238                1.59873768                4.22960124                0.17632894
               5.18942361                0.99509166                6.98453590                0.00412555                0.50238833                0.07585272               -0.29405382                1.93685331                5.16518192                0.14991824
               6.19775751                0.99390045                6.98167463                0.01584397                0.86596803               -0.08206079               -0.49427629                1.58017664                3.98074800                0.15875484
               7.20674297                0.98102085                6.95710530                0.25358545                0.77625781                0.28686748               -0.85959069                0.87770178                2.18651766                0.97232786
               8.21328267                0.95788135                6.91720009                0.69552783                0.59058405                0.41856714               -1.34235528                0.28545221                0.95222359                0.71908769
               9.21855465                0.93078803                6.86728845                1.00000000                0.58924231                0.55146593               -1.85771888                0.02841418                0.28553663                0.32124037
              10.22506751                0.90374517                6.81387414                1.00000000                0.65128665                0.69396142               -2.40438673               -0.05547850                0.10992337               -0.44437447
               0.22917480                2.08741453                7.14066463                1.00000000               -0.46866676               -0.54664887                1.88924189               -0.05987466                0.07194855                0.88597897
               1.22448814                2.06112652                7.08169552                0.90397594               -0.35968081               -0.35970838                1.20349357               -0.02839781                0.11158228               -0.15616545
               2.22198119                2.03418458                7.02336103                0.12484874               -0.20061436               -0.19172763                0.52927406                0.19529504                0.97166205               -1.21882559
               3.22047585                2.01059996                6.98172254                0.00010000                0.11024537                0.13364274               -0.01954483                1.45534850                4.14704841               -1.33723919
               4.22418609                2.00458233                6.98697519                0.00010000                0.31951847                0.53235357               -0.09558502                2.68084168                6.26427129                0.15669986
               5.22686622                1.99759562                6.98943349                0.00010000                0.39594119                0.23938060               -0.24005742                2.82989585                5.99184787                0.42364175
               6.23210492                1.99144024                6.99000674                0.00010000                0.56000934               -0.08166840               -0.38968393                2.59746997                5.66882452                0.75134456
               7.23806640                1.98405566                6.98558514                0.10554337                0.47562778                0.18013104               -0.54892448                1.52991500                3.58864699                2.13552746
               8.24161747                1.96174307                6.94327030                0.39759777                0.36705340                0.34436922               -1.00919118                0.36180871                1.24682889                1.70892898
               9.24540747                1.93575192                6.89185367                0.99761723                0.46137427                0.43631355               -1.48064006                0.04243668                0.44399897                0.57030875
              10.25084496                1.91001163                6.83328278                1.00000000                0.54374864                0.55755624               -2.04906084               -0.05147643                0.09467972               -0.45892972
               0.25391803                3.08232142                7.12763698                1.00000000               -0.40099287               -0.47184408                1.68547304               -0.06105774                0.03685645                0.85763129
               1.24990810                3.05783922                7.06294584                0.85008314               -0.28169331               -0.29386687                0.95109637               -0.03118954                0.07839667               -0.22699773
               2.24828416                3.03258802                6.99890162                0.09839069               -0.01998034               -0.12280450                0.21957021                0.35734424                1.77351043               -1.31363435
               3.24950849                3.01409475                6.96828363                0.00010000                0.30233781                0.31012836                0.08677427                1.55569380                5.75095676               -0.54083558
               4.25433092                3.00746555                6.98370504                0.00010000                0.48275553                0.22993881               -0.08509447                2.22530696                7.83974215                0.00073642
               5.25916360                2.99987927                6.99697299                0.00010000                0.44579765                0.17268635               -0.14533281                2.31176270                7.60044959                0.66198712
               6.26324687                2.99226708                7.00856571                0.00010000                0.39374197                0.07858467               -0.19510783                2.24242009                7.45357456                1.41987700
               7.26703844                2.98462347                7.01894126                0.11557827                0.27878569                0.08017297               -0.33778426                1.44024263                4.97200279                2.50286713
               8.26882259                2.96476873                6.98011550                0.39509058                0.20481880                0.21945074               -0.49719145                0.38557715                1.34330561                1.95376641
               9.27113482                2.93951431                6.91728810                0.94762547                0.33479893                0.31332899               -1.08678979                0.02035199                0.08993281                0.55949139
              10.27551856                2.91489630                6.85317555                1.00000000                0.43837451                0.42362028               -1.69879305               -0.04507193                0.03768971               -0.47768690
               0.27691805                4.07797765                7.11421250                1.00000000               -0.33202978               -0.39974542                1.47551938               -0.05760367                0.03264866                0.82180100
               1.27359775                4.05524918                7.04417304                0.81923353               -0.20227526               -0.22347246                0.69456398               -0.02726035                0.07267913               -0.22828985
               2.27287254                4.03172849                6.97474074                0.08643045                0.15572224               -0.04740257               -0.08722266                0.45138498                2.72471322               -1.27383116
               3.27671219                4.01680253                6.95792090                0.00010000                0.50175882                0.22991890                0.06566843                1.50667578                7.44828428               -0.24171040
               4.28290772                4.00918110                6.98273634                0.00010000                0.57938735                0.13080074               -0.04645092                1.98171340                9.37647997                0.22355834
               5.28829994                4.00104935                7.00660135                0.00010000                0.46506999                0.07154838               -0.02867465                2.01206284                9.25311917                0.84820434
               6.29220912                3.99301194                7.03019243                0.00010000                0.30348320                0.03393182                0.02218324                2.01939815                9.30147576                1.63373718
               7.29436960                3.98565912                7.05519717                0.12901337                0.11145327                0.04926077                0.05910392                1.29395939                5.91266444                2.59920437
               8.29443818                3.96613208                7.01037535                0.41546351                0.06586727                0.07527683               -0.10287640                0.31055687                1.22190243                1.53887313
               9.29568695                3.94201850                6.94110481                0.97196222                0.23706777                0.19965201               -0.74723273                0.01256501                0.00328200                0.46439043
              10.29917954                3.91848404                6.87171390                1.00000000                0.34925886                0.32032707               -1.39058094               -0.04811660                0.00599025               -0.54388378
               0.29822289                5.07432652                7.10065783                1.00000000               -0.26108357               -0.33468770                1.26534517               -0.05458990                0.03618121                0.80046473
               1.29561205                5.05336978                7.02545283                0.78631416               -0.12321862               -0.15121691                0.43863289               -0.02138954                0.08396477               -0.22736358
               2.29575851                5.03163997                6.95100640                0.07345409                0.32886736                0.03352068               -0.38602213                0.46604699                3.76615289               -1.23915701
               3.30218940                5.01869313                6.94961259                0.00010000                0.69799268                0.17457955               -0.04534542                1.40250126                9.19848116                0.00050030
               4.30971837                5.01008157                6.98359062                0.00010000                0.66923132                0.05478876               -0.03128116                1.73442763               10.87516582                0.38483092
               5.31557402                5.00131024                7.01764918                0.00010000                0.46533478               -0.01607927                0.09393772                1.78532585               10.86554217                0.95809124
               6.31902506                4.99294572                7.05274200                0.00010000                0.21117309               -0.05495233                0.26066761                1.80816731               11.00787267                1.68343352
               7.31979749                4.98560869                7.08993276                0.13968684               -0.01753584               -0.06888706                0.44161714                1.12461815                6.68768313                2.49182558
               8.31867435                4.96627427                7.03827760                0.43177542               -0.03816598               -0.03388791                0.21392140                0.24106519                1.13001458                1.41731252
               9.31903417                4.94350735                6.96401072                0.99423802                0.14754065                0.10950116               -0.45073132                0.00998005                0.00217689                0.43067207
              10.32162516                4.92130284                6.88966312                1.00000000                0.25909928                0.25441808               -1.11825236               -0.04715897                0.00441776               -0.55244329
               0.31773973                6.07128389                7.08700061                1.00000000               -0.18832235               -0.27590603                1.05419397               -0.05358589                0.03801153                0.78222507
               1.31585650                6.05222484                7.00670784                0.75329871               -0.04348024               -0.07507435                0.17716461               -0.01802747                0.09495773               -0.23050331
               2.31687012                6.03239890                6.92736411                0.05990737                0.52320584                0.12625166               -0.69434739                0.41698887                4.92257649               -1.21851201
               3.32632062                6.02029412                6.94378529                0.00010000                0.90545207                0.14404954               -0.20837917                1.21470172               10.97617507                0.14027520
               4.33497916                6.01027688                6.98544232                0.00010000                0.74108413               -0.01052144               -0.04374726                1.46471223               12.25675225                0.45491114
               5.34114230                6.00072777                7.02911629                0.00010000                0.45474244               -0.09972190                0.20885201                1.55616437               12.40447316                0.97376260
               6.34407401                5.99191289                7.07496177                0.00010000                0.11955550               -0.15217468                0.49380695                1.59891300               12.62348658                1.63429765
               7.34353341                5.98428138                7.12335999                0.14823125               -0.13565927               -0.19232704                0.79176281                0.96279527                7.45425475                2.37751458
               8.34136083                5.96545433                7.06576696                0.44553204               -0.13377155               -0.12598750                0.50617487                0.17891902                1.08810393                1.38774950
               9.34085798                5.94420852                6.98671249                0.99954673                0.06422731                0.03649989               -0.18593190                0.00323449                0.01035029                0.43692557
              10.34264537                5.92357240                6.90749076                1.00000000                0.17873911                0.20414916               -0.88790322               -0.04546170                0.00492894               -0.53408719
               0.33526927                7.06880839                7.07320309                1.00000000               -0.11327768               -0.21948718                0.83856540               -0.05350210                0.04058704                0.76222609
               1.33413649                7.05186829                6.98788438                0.71968609                0.03798728                0.00763945               -0.09560413               -0.01556859                0.11194793               -0.24086248
               2.33602901                7.03416500                6.90382359                0.04576876                0.72344843                0.23645583               -1.02258552                0.28993936                6.08353573               -1.20117199
               3.34860546                7.02157412                6.93811544                0.00010000                1.12749778                0.10830503               -0.42895991                0.89587728               12.72581025                0.07102092
               4.35857897                7.00987114                6.98726374                0.00010000                0.82279187               -0.07975763               -0.08423592                1.14464328               13.58167798                0.42196050
               5.36506130                6.99931580                7.04001118                0.00010000                0.44353691               -0.18531712                0.30889927                1.30554361               13.87618663                0.89091173
               6.36744971                6.98990222                7.09608782                0.00010000                0.02253306               -0.24623570                0.72001455                1.37115206               14.18862149                1.49190045
               7.36551196                6.98176215                7.15541377                0.15456224               -0.25620609               -0.31409675                1.14437046                0.79669817                8.25612440                2.20989954
               8.36232559                6.96375452                7.09302352                0.45656947               -0.22655872               -0.21791368                0.80189438                0.12535459                1.11112890                1.35168794
               9.36098078                6.94423734                7.00951327                0.99856769               -0.01687050               -0.03166180                0.06872712               -0.00108474                0.02939892                0.44684214
              10.36198818                6.92538582                6.92545333                1.00000000                0.10073918                0.15891584               -0.66908772               -0.04657821                0.00246248               -0.50831554
               0.35054990                8.06689415                7.05915652                1.00000000               -0.03613728               -0.16456728                0.61621418               -0.05191047                0.04878072                0.73544507
               1.35018853                8.05237763                6.96886228                0.68199718                0.12065885                0.09901777               -0.38069656               -0.01118724                0.14387432               -0.27627436
               2.35296308                8.03712802                6.88033696                0.03015588                0.91717532                0.36430336               -1.37453638                0.06784395                7.16495935               -1.17895215
               3.36853203                8.02246022                6.93070016                0.00010000                1.35836394                0.04605701               -0.69133396                0.42323429               14.39915377               -0.09171403
               4.38013035                8.00868172                6.98795241                0.00010000                0.93450281               -0.18315480               -0.15007491                0.77946183               14.89042536                0.30820922
               5.38722209                7.99702142                7.04927849                0.00010000                0.44601767               -0.26933904                0.38994256                1.01526604               15.27683019                0.69938563
               6.38905071                7.98698818                7.11506085                0.00010000               -0.08035038               -0.32824889                0.94057670                1.09673316               15.71684359                1.20278865
               7.38561508                7.97799945                7.18543831                0.15805667               -0.38289922               -0.44349621                1.53392044                0.61219635                9.13985014                1.91389903
               8.38139272                7.96109605                7.11996718                0.46267408               -0.32050466               -0.32063204                1.12061448                0.07812398                1.23000153                1.27719037
               9.37920499                7.94357529                7.03236990                0.99864231               -0.09879341               -0.10598592                0.33341583               -0.00233097                0.06627003                0.45138362
              10.37941685                7.92675071                6.94360794                0.99972067                0.02118671                0.11156443               -0.44343322               -0.04728808                0.00713157               -0.49785913
               0.36326409                9.06551705                7.04472554                1.00000000                0.04147833               -0.11203570                0.38934356               -0.04850642                0.04516135                0.59947975
               1.36367888                9.05384864                6.94927377                0.63606997                0.20196052                0.19711567               -0.67315691               -0.00422926                0.21737868               -0.28997524
               2.36730330                9.04145107                6.85718445                0.01210904                1.09187831                0.49239510               -1.73413947               -0.28297122                8.19067896               -0.95133191
               3.38551644                9.02249526                6.92151845                0.00010000                1.61518513               -0.14624339               -0.94008722               -0.02883868               15.96886675               -0.14141236
               4.39960701                9.00620804                6.98693214                0.00010000                1.07718612               -0.25991378               -0.22891463                0.38572632               16.12370203                0.16294890
               5.40706016                8.99392902                7.05574769                0.00010000                0.43996707               -0.32944942                0.44677846                0.62598367               16.53950138                0.39461321
               6.40840635                8.98333725                7.13006053                0.00010000               -0.17060766               -0.39767137                1.13368069                0.67395695               17.17787929                0.69525055
               7.40364801                8.97289222                7.21173876                0.15877648               -0.50470611               -0.55952931                1.93834009                0.37967888               10.16377460                1.26980114
               8.39831223                8.95734188                7.14597644                0.46169468               -0.41842550               -0.42510736                1.45230734                0.03336276                1.53467659                0.94546993
               9.39527950                8.94211763                7.05533090                0.99982629               -0.18103332               -0.18988234                0.61221658               -0.00016297                0.14342640                0.39671661
              10.39469156                8.92761711                6.96172341                0.99951339               -0.05879428                0.05819675               -0.20711586               -0.04693116               -0.00680027               -0.43488213
               0.37291658               10.06465344                7.02778342                1.00000000                0.12533402               -0.08636128                0.14209718                0.13189980                0.33667689                0.48491393
               1.37416992               10.05631995                6.92999626                0.80230026                0.28702252                0.24713027               -0.94951124                0.16522879                0.64977936               -0.28158216
               2.37865703               10.04697592                6.83845822                0.50039912                1.45141832                0.55248539               -2.00803924               -0.70385678                9.23814768               -0.75521757
               3.40319829               10.01953536                6.91283407                0.43167797                1.88770471               -0.29599088               -1.11414824               -0.40643922               17.18785448               -0.07812816
               4.41641113               10.00348345                6.98404631                0.42861823                0.97071343               -0.27245920               -0.30103253                0.22526592               17.11028829                0.10004701
               5.42261256                9.99043243                7.05832336                0.45152970                0.35777588               -0.34965846                0.47155196                0.33280419               17.54669741                0.22695189
               6.42356664                9.97903475                7.13856596                0.49765621               -0.17042655               -0.43024963                1.25749063                0.33485086               18.36175654                0.38330702
               7.41920402                9.96680886                7.22898200                0.57944151               -0.53660335               -0.60833624                2.19143030                0.23355904               11.22490947                0.81742063
               8.41283458                9.95259390                7.16638281                0.72950672               -0.51387633               -0.47479759                1.71441654                0.10067406                2.23722166                0.66978723
               9.40892650                9.93977764                7.07717489                1.00000000               -0.26776568               -0.23399855                0.89174334                0.13073696                0.56615560                0.33885107
              10.40747926                9.92791465                6.98116605                0.99995016               -0.14472361                0.02975395                0.05139253                0.09247132                0.22264331               -0.37296920
               0.22602344                0.12288385                8.19275298                1.00000000               -0.56717105               -0.65218950                2.26822701               -0.14593157               -0.52595624                0.58524323
               1.22035173                0.08730847                8.13247198                1.00000000               -0.44643685               -0.46383889                1.64619012               -0.10525887               -0.51555056               -0.03462011
               2.21709470                0.05166851                8.07229933                0.71712172               -0.07407927               -0.30775339                1.02077391                0.07069826               -0.23377107               -0.55554237
               3.21887014                0.02001727                8.01775492                0.52076861                0.54360079               -0.17486163                0.41977437                0.36257025                1.20578293               -0.07376795
               4.22796672                0.00048211                7.98659262                0.45013548                0.92194764               -0.15799929               -0.03521848                0.34097007                3.55186239               -0.06168372
               5.23730910               -0.00611500                7.97912559                0.45857646                0.53113479               -0.09535505               -0.34677860                0.16012367                4.59016287               -0.00172187
               6.23858941               -0.01334625                7.96890633                0.53611683               -0.02970151                0.08675039               -0.66687012                0.25007075                3.29458610                0.04930843
               7.23671507               -0.03264468                7.93554740                0.69740796               -0.03410391                0.27693579               -1.09824430                0.24722502                1.22028368                0.07822853
               8.23790734               -0.06244044                7.88378660                0.98378269                0.31054226                0.45480719               -1.61359741                0.08592364               -0.04944964                0.28666650
               9.24292591               -0.09611369                7.82502206                1.00000000                0.60722253                0.60648262               -2.16023575               -0.07570730               -0.39289149                0.14482387
              10.25005179               -0.12978619                7.76639560                1.00000000                0.71258753                0.75825769               -2.70239678               -0.13609842               -0.38825564               -0.39828645
               0.26013950                1.11636195                8.17427421                1.00000000               -0.52326941               -0.61563313                2.04983572               -0.05443219               -0.01962291                0.77385310
               1.25490681                1.08267008                8.11339537                1.00000000               -0.43461087               -0.42744424                1.42621988               -0.02090440                0.04121024               -0.06282390
               2.25144728                1.04859098                8.05361988                0.28601883               -0.34088793               -0.26888040                0.80742292                0.18222600                0.87055061               -0.86696005
               3.24808905                1.01826866                8.00944334                0.00101662               -0.35023629               -0.14387607                0.29156132                0.75172464                2.54018464               -1.04589833
               4.24444256                0.99890212                7.98361454                0.00346845               -0.11322673                0.31698832               -0.08916295                1.65802018                4.59234635                0.21600479
               5.24582451                0.99293144                7.98153404                0.00512146                0.49562007                0.07608801               -0.30430832                2.00165970                5.59160673                0.15787615
               6.25435496                0.98752125                7.97648194                0.01514228                0.89549474               -0.08835196               -0.53581808                1.62985971                4.28860172                0.14500916
               7.26373441                0.97012468                7.94825740                0.25037870                0.80730595                0.30173252               -0.90114637                0.90762881                2.33654947                1.02317981
               8.27050108                0.94210764                7.90365329                0.68957622                0.60536529                0.42560245               -1.36363982                0.28877897                1.01563517                0.76383364
               9.27584171                0.90995113                7.84868020                1.00000000                0.59311106                0.55756089               -1.86733949                0.02515756                0.31205253                0.36835561
              10.28236330                0.87779639                7.78988219                1.00000000                0.65215853                0.69904567               -2.40337379               -0.05315091                0.12286260               -0.43856134
               0.29231854                2.11057118                8.15937786                1.00000000               -0.46139247               -0.54512320                1.85516360               -0.05644808                0.07910259                0.95025336
               1.28770461                2.07875958                8.09373414                0.89132768               -0.35889456               -0.36073946                1.20299791               -0.02399478                0.12366036               -0.17204247
               2.28514065                2.04629091                8.02884687                0.12003957               -0.20555567               -0.19554623                0.56363880                0.19701639                1.05188911               -1.31535656
               3.28359350                2.01713975                7.98187003                0.00010000                0.06618433                0.14562778                0.04064901                1.53410555                4.50740723               -1.27735010
               4.28646433                2.00682188                7.98620594                0.00010000                0.25648274                0.54435417               -0.06493592                2.79671458                6.81395553                0.21771104
               5.28872315                1.99540676                7.98700171                0.00010000                0.37645208                0.23980222               -0.24460206                2.93191751                6.49342356                0.45969785
               6.29399337                1.98488671                7.98584107                0.00010000                0.57790520               -0.08722206               -0.43123724                2.69585432                6.13790848                0.77645105
               7.30028126                1.97338997                7.97973615                0.10066771                0.49315418                0.18319921               -0.60408036                1.58203761                3.87000686                2.16837238
               8.30385646                1.94607161                7.93298678                0.38824048                0.37295252                0.36854646               -1.04276183                0.36457805                1.36685827                1.87039570
               9.30774031                1.91503753                7.87677420                0.97979034                0.47209011                0.45760611               -1.52894808                0.04184005                0.50252930                0.66299503
              10.31329826                1.88419472                7.81256061                1.00000000                0.55579519                0.57840080               -2.09213584               -0.04786558                0.11191870               -0.43561343
               0.32263374                3.10545949                8.14432357                1.00000000               -0.39265485               -0.47590328                1.65309089               -0.05850919                0.03612493                0.91839517
               1.31870719                3.07545529                8.07246973                0.83636097               -0.28131469               -0.29517054                0.95194771               -0.02805518                0.07819435               -0.25694425
               2.31700744                3.04468006                8.00130406                0.09308036               -0.02335005               -0.12143160                0.25600004                0.38501429                2.07111970               -1.43991850
               3.31824019                3.02118121                7.96944498                0.00010000                0.25512001                0.35763030                0.12018175                1.62656613                6.30338221               -0.38719895
               4.32210984                3.00978920                7.98305381                0.00010000                0.40789207                0.24329340               -0.05518714                2.31665665                8.42853154                0.06509018
               5.32639803                2.99772749                7.99547261                0.00010000                0.40894926                0.18137819               -0.15281375                2.41064281                8.23023214                0.72799830
               6.33028883                2.98577681                8.00628916                0.00010000                0.38961131                0.09003036               -0.24611680                2.33089168                8.01334150                1.50310314
               7.33419026                2.97378866                8.01497282                0.10988137                0.29281266                0.08470910               -0.42419384                1.50696502                5.45840772                2.58887217
               8.33614508                2.94947856                7.97479896                0.38512019                0.21825729                0.25555371               -0.56056235                0.41867012                1.59679083                2.15364132
               9.33855540                2.91910326                7.90608357                0.92985425                0.34732537                0.34450837               -1.14949879                0.02042670                0.10191796                0.65148401
              10.34309159                2.88936440                7.83583829                1.00000000                0.45361885                0.45477578               -1.76271006               -0.04662575                0.03744166               -0.45698028
               0.35115675                4.10105312                8.12879882                1.00000000               -0.32338044               -0.40591069                1.44275881               -0.05635614                0.02823235                0.88366550
               1.34792294                4.07285617                8.05112326                0.80710852               -0.20208673               -0.22341021                0.69439321               -0.02605777                0.06623448               -0.25838703
               2.34711501                4.04386227                7.97404993                0.08160365                0.15463678               -0.04119986               -0.05392809                0.49360473                3.17844665               -1.39597714
               3.35101568                4.02429236                7.95877136                0.00010000                0.45680883                0.25815546                0.07872302                1.57359107                8.21059812               -0.20925154
               4.35625119                4.01168774                7.98243533                0.00010000                0.49663609                0.15166196               -0.02580297                2.05844506               10.07325474                0.28683081
               5.36094840                3.99903432                8.00623107                0.00010000                0.41494232                0.08912743               -0.04231892                2.11264879               10.00774376                0.92940533
               6.36455004                3.98668732                8.03005340                0.00010000                0.28852026                0.05387910               -0.03445720                2.12292450               10.02931103                1.74297577
               7.36671880                3.97508415                8.05513967                0.12328483                0.11826155                0.08027964               -0.04513015                1.38222124                6.51772926                2.78496314
               8.36691527                3.95118269                8.00907745                0.40632110                0.07720990                0.10183055               -0.15411088                0.34934008                1.48322457                1.65597637
               9.36826300                3.92192769                7.93338990                0.95703391                0.24640924                0.22706901               -0.79644762                0.01315374                0.00430620                0.51498048
              10.37184345                3.89329024                7.85756900                1.00000000                0.35804483                0.35067099               -1.44120052               -0.04943148                0.00640471               -0.55161998
               0.37790051                5.09734127                8.11313177                1.00000000               -0.25236253               -0.33899848                1.23045721               -0.05388972                0.03251239                0.86678545
               1.37537688                5.07098709                8.02982517                0.77575241               -0.12285747               -0.14919645                0.43562957               -0.02102298                0.07932901               -0.25772065
               2.37544336                5.04385606                7.94729695                0.06931939                0.32548301                0.04246486               -0.35731737                0.50814445                4.33140346               -1.36224924
               3.38188654                5.02634432                7.94918353                0.00010000                0.65467139                0.18732630               -0.05678735                1.45897043               10.15368958               -0.04233983
               4.38853678                5.01282244                7.98336031                0.00010000                0.58824467                0.07896563               -0.02503771                1.80154460               11.72722842                0.42227290
               5.39365143                4.99951004                8.01845458                0.00010000                0.40803514                0.00783891                0.07251585                1.88231989               11.76582632                1.04132667
               6.39669749                4.98685439                8.05499782                0.00010000                0.18439383               -0.03090126                0.20591035                1.91843533               11.90001793                1.80739858
               7.39733931                4.97539426                8.09386090                0.13420376               -0.02045715               -0.03951169                0.35851149                1.20885431                7.36298411                2.66818882
               8.39628834                4.95151518                8.04028178                0.42356456               -0.03141938               -0.02157225                0.18598049                0.27054052                1.37326092                1.48761899
               9.39671092                4.92364464                7.95934120                0.98157421                0.15447621                0.12740847               -0.48499915                0.01062510                0.00631472                0.44564038
              10.39937787                4.89637782                7.87829366                1.00000000                0.26669448                0.27630169               -1.15871383               -0.04717860                0.00855525               -0.59986079
               0.40278733                6.09427315                8.09734634                1.00000000               -0.17996267               -0.27610162                1.01627737               -0.05224349                0.03600221                0.85084192
               1.40098770                6.06987225                8.00845530                0.74324802               -0.04333291               -0.07168538                0.17287961               -0.01700409                0.09356870               -0.26653628
               2.40192067                6.04471157                7.92056498                0.05627664                0.51205033                0.13459605               -0.66574010                0.45608210                5.57838098               -1.35570820
               3.41122871                6.02803888                7.94152537                0.00010000                0.85978481                0.15441603               -0.24597056                1.26184678               12.11390966                0.04798612
               4.41911636                6.01326706                7.98497852                0.00010000                0.66670690                0.01542477               -0.05427493                1.52319183               13.28673781                0.46650347
               5.42456284                5.99919110                8.03101584                0.00010000                0.39590803               -0.07212472                0.17976756                1.64159733               13.46294387                1.04917473
               6.42703452                5.98606929                8.07959462                0.00010000                0.08361321               -0.12884878                0.44772127                1.70014042               13.67142549                1.75775626
               7.42623511                5.97429392                8.13102581                0.14302474               -0.14794149               -0.17758342                0.74596363                1.03256419                8.18887511                2.54549224
               8.42407569                5.95075124                8.07080726                0.43771772               -0.13111261               -0.12516064                0.49754866                0.19812499                1.31265661                1.44894976
               9.42361286                5.92447586                7.98478730                0.99964316                0.06789051                0.04484864               -0.20210379                0.00522247                0.01384322                0.43201937
              10.42543351                5.89881627                7.89849953                1.00000000                0.18206493                0.21724318               -0.90830321               -0.04656255                0.00442615               -0.60548199
               0.42565744                7.09181924                8.08137576                1.00000000               -0.10590671               -0.21533250                0.79805411               -0.05100673                0.03900239                0.82937639
               1.42459838                7.06955338                7.98691377                0.70959539                0.03704578                0.01077908               -0.09745671               -0.01323274                0.11168974               -0.28596113
               2.42639836                7.04654798                7.89377323                0.04253661                0.69848068                0.24003485               -0.98718043                0.33046363                6.81499345               -1.35927922
               3.43856799                7.02943264                7.93355477                0.00010000                1.07250230                0.12011284               -0.47342196                0.94091839               14.05023203               -0.05603005
               4.44784841                7.01313093                7.98628492                0.00010000                0.75565777               -0.05188357               -0.10886002                1.19435218               14.81074432                0.41046051
               5.45368115                6.99806754                8.04286024                0.00010000                0.38745337               -0.15548823                0.27358723                1.37236819               15.10546249                0.95262419
               6.45559747                6.98427742                8.10304190                0.00010000               -0.01862514               -0.22552308                0.68450848                1.44882202               15.40154686                1.61252999
               7.45330864                6.97184259                8.16682869                0.14984008               -0.27642873               -0.31109029                1.13293755                0.84607656                9.05456246                2.39795290
               8.45006890                6.94901196                8.10109148                0.44893746               -0.22791520               -0.22310826                0.80473595                0.13589450                1.31198043                1.42674617
               9.44875034                6.92454161                8.01019037                0.99859089               -0.01515521               -0.03036274                0.06390679                0.00096208                0.02899385                0.44147093
              10.44976579                6.90072269                7.91873552                1.00000000                0.10154553                0.16562982               -0.67513208               -0.04690297                0.00289452               -0.58270760
               0.44629892                8.08996650                8.06509759                1.00000000               -0.03046079               -0.15710873                0.57499144               -0.04864291                0.04609743                0.79956777
               1.44599431                8.07008783                7.96508085                0.67288616                0.11758816                0.09965460               -0.37498928               -0.00807238                0.14079553               -0.32873753
               2.44865068                8.04951227                7.86685594                0.02761026                0.87349056                0.35858049               -1.32291282                0.11585110                7.96751910               -1.35036996
               3.46346412                8.03044114                7.92359610                0.00010000                1.28589135                0.05891224               -0.71529848                0.48036851               15.92123569               -0.21909519
               4.47436851                8.01222938                7.98624564                0.00010000                0.86998030               -0.15193154               -0.18008830                0.82197849               16.33252772                0.28418177
               5.48086372                7.99608133                8.05290223                0.00010000                0.39337081               -0.23794157                0.35128331                1.05941498               16.69012671                0.74387521
               6.48223592                7.98155883                8.12427056                0.00010000               -0.12208156               -0.30796902                0.91277072                1.14363523               17.12011362                1.30969741
               7.47842209                7.96807211                8.20084753                0.15454133               -0.40706799               -0.44228869                1.53671676                0.63954530               10.01488546                2.12517603
               8.47409456                7.94628908                8.13120081                0.45617734               -0.32503607               -0.32460881                1.12082772                0.08282991                1.40010960                1.36963501
               9.47192137                7.92386861                8.03572010                0.99864519               -0.09806359               -0.10736254                0.33321766                0.00001118                0.05823160                0.45938009
              10.47213329                7.90212887                7.93919648                0.99979463                0.02119179                0.11386242               -0.44276588               -0.04677504                0.00681378               -0.56414526
               0.46444193                9.08867707                8.04840435                1.00000000                0.04492301               -0.10248637                0.34980008               -0.04549070                0.04028868                0.65288294
               1.46489116                9.07154647                7.94263779                0.63149303                0.19600687                0.19314888               -0.65524241               -0.00217110                0.21283178               -0.33689627
               2.46836207                9.05371959                7.84025899                0.01115999                1.02835411                0.47494598               -1.65654293               -0.21881240                9.07991538               -1.08329205
               3.48545824                9.03061089                7.91211645                0.00010000                1.51428570               -0.11872682               -0.93039409                0.03252892               17.69332381               -0.22064335
               4.49864778                9.01009230                7.98444261                0.00010000                1.00408789               -0.22682211               -0.25322906                0.41728779               17.76718289                0.14417461
               5.50554000                8.99330871                8.05992673                0.00010000                0.39158075               -0.29895636                0.40866754                0.64694904               18.13657989                0.41930893
               6.50647940                8.97811804                8.14122250                0.00010000               -0.20853497               -0.37704082                1.10927564                0.69451283               18.79203648                0.76172580
               7.50136930                8.96299681                8.23113382                0.15774390               -0.52751981               -0.55431553                1.93274044                0.39046318               11.13581946                1.42027206
               8.49592900                8.94251979                8.16042461                0.45914290               -0.42292667               -0.42386031                1.43769489                0.03419109                1.68160155                1.01417834
               9.49291077                8.92239436                8.06146676                0.99983418               -0.18096162               -0.19124207                0.61269877                0.00121761                0.13118458                0.41467204
              10.49230977                8.90299994                7.95971499                0.99956153               -0.06009992                0.05699492               -0.19881155               -0.04655956               -0.00897604               -0.48258249
               0.47965029               10.08791677                8.02902546                1.00000000                0.12580718               -0.07602953                0.10891035                0.12423932                0.36197360                0.52821789
               1.48090836               10.07395080                7.92066545                0.80244364                0.27798618                0.24043325               -0.92005183                0.15644102                0.69256878               -0.31930192
               2.48521002               10.05901119                7.81890557                0.50060190                1.34168091                0.52915986               -1.91270140               -0.60941533               10.23932339               -0.84222153
               3.50774198               10.02806660                7.90181961                0.43207334                1.74032098               -0.25442829               -1.08378203               -0.33753836               19.07459803               -0.11667917
               4.52001644               10.00769294                7.98088877                0.42897258                0.90174947               -0.23993606               -0.31480427                0.23864536               18.91315843                0.09230867
               5.52577697                9.99010221                8.06277194                0.45185688                0.32108209               -0.32065067                0.43984457                0.33995054               19.30297335                0.24374343
               6.52643808                9.97401801                8.15098791                0.49801858               -0.19736825               -0.41000240                1.23973382                0.34004780               20.15048478                0.43088658
               7.52182961                9.95698580                8.25093703                0.58000878               -0.55286200               -0.60110106                2.19301179                0.23572338               12.30974916                0.90690229
               8.51538084                9.93781187                8.18343573                0.73026598               -0.51820163               -0.47079163                1.69923038                0.09808178                2.43332870                0.70712709
               9.51146557                9.92004377                8.08611486                1.00000000               -0.26949461               -0.23505924                0.89460146                0.12832553                0.59085888                0.35937610
              10.50999095                9.90326877                7.98177331                0.99997881               -0.14746294                0.02688328                0.06556964                0.09061777                0.23803204               -0.40707640
               0.28391018                0.14853912                9.21526324                1.00000000               -0.56255133               -0.64325370                2.23614627               -0.14043426               -0.57377915                0.63216878
               1.27828467                0.10714024                9.14892032                1.00000000               -0.44653875               -0.46254819                1.64282253               -0.09950305               -0.56630425               -0.03413025
               2.27497940                0.06566910                9.08264049                0.71714374               -0.08303306               -0.31332692                1.04433905                0.07707242               -0.27645311               -0.59299180
               3.27662400                0.02821098                9.02218667                0.52086710                0.52841387               -0.18221618                0.46255490                0.36906390                1.23451803               -0.07854991
               4.28554768                0.00308180                8.98641623                0.45071159                0.90383352               -0.15565410               -0.00188822                0.34264003                3.69428260               -0.06739906
               5.29470067               -0.00877279                8.97565878                0.45935797                0.51764014               -0.08541528               -0.34443576                0.16049766                4.77893707               -0.00504929
               6.29590048               -0.02108359                8.96212806                0.53641114               -0.03410027                0.09494876               -0.68416074                0.25235501                3.42145548                0.04944686
               7.29401867               -0.04553711                8.92446421                0.69705742               -0.03442624                0.28328031               -1.11540159                0.25115774                1.25430094                0.08183775
               8.29521196               -0.08062832                8.86761226                0.98317732                0.31087571                0.45861637               -1.62255687                0.08805674               -0.07039735                0.29926845
               9.30023618               -0.11969719                8.80343209                1.00000000                0.60723287                0.61002012               -2.16285992               -0.07584856               -0.42645950                0.16000783
              10.30735662               -0.15880651                8.73942706                1.00000000                0.71204332                0.76154484               -2.69913311               -0.13451543               -0.41663250               -0.41498125
               0.32390472                1.14210659                9.19460144                1.00000000               -0.51800758               -0.60844440                2.01804684               -0.05247769               -0.02510359                0.83195221
               1.31872465                1.10251475                9.12764501                1.00000000               -0.43449841               -0.42644595                1.42321881               -0.01815495                0.03716617               -0.06335121
               2.31521476                1.06253583                9.06183537                0.28458961               -0.35581763               -0.27379167                0.83237809                0.18888685                0.91809830               -0.91734062
               3.31160830                1.02638882                9.01258529                0.00141165               -0.38743946               -0.15798295                0.33339573                0.78151725                2.70088983               -1.10676537
               4.30746597                1.00152526                8.98287782                0.00416269               -0.16099741                0.32077443               -0.05972184                1.68850451                4.89579243                0.25423229
               5.30838835                0.99037306                8.97844974                0.00600269                0.46701142                0.08119014               -0.30999651                2.03697636                5.95651273                0.17246022
               6.31680619                0.97986589                8.97095827                0.01486827                0.89571309               -0.08771799               -0.56349029                1.65753957                4.56126173                0.13878279
               7.32630261                0.95729570                8.93908237                0.24833756                0.81831882                0.31223988               -0.92934326                0.91970568                2.47985546                1.07862391
               8.33317257                0.92395785                8.88992729                0.68502255                0.61320933                0.43168134               -1.38099783                0.29059699                1.08095403                0.81212842
               9.33856680                0.88640301                8.82994166                1.00000000                0.59741049                0.56528199               -1.88184342                0.02495675                0.33716963                0.40553850
              10.34512078                0.84880894                8.76580666                1.00000000                0.65539853                0.70748877               -2.41546500               -0.05171188                0.13346619               -0.44790085
               0.36204429                2.13637024                9.17776790                1.00000000               -0.45519654               -0.54191116                1.82470920               -0.05371685                0.08673104                1.01694631
               1.35749232                2.09861132                9.10575548                0.87973791               -0.35806071               -0.36017698                1.20060596               -0.02050589                0.13702517               -0.18713780
               2.35488308                2.06019327                9.03463380                0.11713414               -0.21136997               -0.19746175                0.59056842                0.19782792                1.12868201               -1.41116033
               3.35326492                2.02505132                8.98253552                0.00010000                0.02252283                0.15303142                0.08698813                1.57610583                4.83356878               -1.23576658
               4.35533353                2.00949728                8.98567647                0.00010000                0.19173199                0.55063581               -0.04416446                2.86038222                7.30211549                0.27770035
               5.35709956                1.99285102                8.98454145                0.00010000                0.33975544                0.24184050               -0.24562326                2.99046540                6.93519822                0.50224000
               6.36212864                1.97716205                8.98138199                0.00010000                0.56106332               -0.08745406               -0.45335427                2.75319870                6.56500530                0.80717194
               7.36832083                1.96070769                8.97350353                0.09728732                0.48939745                0.18508524               -0.63571359                1.61187253                4.14595212                2.20728560
               8.37191659                1.92800531                8.92241506                0.38113003                0.37816989                0.38965231               -1.06836608                0.36879148                1.48472711                2.02840080
               9.37588423                1.89160844                8.86127471                0.96373031                0.47969658                0.47626391               -1.56537540                0.04525045                0.55501069                0.74216875
              10.38151052                1.85534326                8.79144007                1.00000000                0.56262925                0.59696845               -2.12789626               -0.04465907                0.12661810               -0.43016601
               0.39834822                3.13126836                9.16069880                1.00000000               -0.38567223               -0.47637352                1.62337948               -0.05623897                0.03659279                0.97875458
               1.39449150                3.09531122                9.08198480                0.82330624               -0.28084571               -0.29426609                0.94999721               -0.02513823                0.08057098               -0.28786236
               2.39273131                3.05858659                9.00402162                0.08953159               -0.03325534               -0.11886016                0.28366642                0.40242684                2.34415339               -1.56808225
               3.39382639                3.02944945                8.97068726                0.00010000                0.20713048                0.39138131                0.12202710                1.66126057                6.81772740               -0.26525182
               4.39687392                3.01253797                8.98260130                0.00010000                0.33532505                0.25569649               -0.04043824                2.36699951                8.97042798                0.12444574
               5.40053289                2.99520987                8.99391672                0.00010000                0.35697884                0.19022327               -0.15663028                2.46580085                8.79580183                0.79216253
               6.40401349                2.97811681                9.00364337                0.00010000                0.35819511                0.10003752               -0.27405298                2.37728159                8.52343075                1.58461620
               7.40769680                2.96099740                9.01045738                0.10548753                0.28170760                0.08813072               -0.46178814                1.55066957                5.92880414                2.66832593
               8.40964765                2.93175089                8.96890425                0.37666143                0.22185270                0.28817447               -0.61155143                0.44333659                1.85116114                2.35272109
               9.41213385                2.89592828                8.89429812                0.91218512                0.35551588                0.37260173               -1.20042851                0.01973552                0.11618111                0.74199459
              10.41675796                2.86074830                8.81792135                1.00000000                0.46241137                0.48265020               -1.81439134               -0.04605155                0.03532671               -0.44205604
               0.43283381                4.12684277                9.14306768                1.00000000               -0.31624783               -0.40768279                1.41233031               -0.05477191                0.02537243                0.94150077
               1.42967133                4.09272600                9.05806091                0.79460650               -0.20202142               -0.22139472                0.69239226               -0.02423758                0.06232497               -0.29210664
               2.42879338                4.05781606                8.97366218                0.07814210                0.14337158               -0.03533286               -0.02635689                0.52249373                3.59795980               -1.52278846
               3.43253876                4.03287895                8.95949536                0.00010000                0.40598610                0.28214375                0.06116278                1.60842924                8.92867500               -0.19762193
               4.43691310                4.01461121                8.98222028                0.00010000                0.41489906                0.17229286               -0.02213646                2.09472466               10.72828953                0.33683239
               5.44083674                3.99665548                9.00575497                0.00010000                0.34868209                0.10710644               -0.05083656                2.16358655               10.70020638                1.00271053
               6.44388674                3.97916280                9.02950329                0.00010000                0.24317006                0.07178305               -0.06616546                2.17102191               10.70161051                1.85005296
               7.44570014                3.96247031                9.05429456                0.11856157                0.09828481                0.10444623               -0.10549578                1.43412086                7.11861784                2.97391029
               8.44585244                3.93376880                9.00729313                0.39780886                0.07906919                0.12729726               -0.19943115                0.38008938                1.76289450                1.79138799
               9.44728153                3.89906048                8.92517585                0.94016066                0.25485061                0.25472345               -0.84417986                0.01210971                0.00611643                0.57563839
              10.45094945                3.86499627                8.84288989                1.00000000                0.36679241                0.38133934               -1.49306365               -0.04975201                0.00573489               -0.55587924
               0.46548632                5.12311471                9.12526697                1.00000000               -0.24528713               -0.33930129                1.19813781               -0.05273718                0.02953567                0.92559603
               1.46303345                5.09088332                9.03416542                0.76444084               -0.12290465               -0.14602386                0.43234530               -0.01984293                0.07581033               -0.29290675
               2.46302823                5.05787994                8.94386005                0.06634839                0.30831876                0.04961975               -0.33160583                0.53916506                4.85507485               -1.48886566
               3.46919983                5.03509232                8.94847684                0.00010000                0.59818247                0.20018277               -0.08329479                1.48752004               11.06219652               -0.10404318
               4.47499188                5.01598383                8.98308987                0.00010000                0.50266086                0.10355634               -0.03126848                1.82850122               12.54307270                0.44097266
               5.47925304                4.99735200                9.01909949                0.00010000                0.33136154                0.03250602                0.05960180                1.92584940               12.61148952                1.11156997
               6.48161911                4.97955247                9.05686020                0.00010000                0.12600840               -0.00694311                0.17476482                1.96700724               12.74793828                1.92945168
               7.48177321                4.96308633                9.09710299                0.12958856               -0.04799250               -0.01234376                0.30129134                1.25712469                8.04589318                2.86677796
               8.48065926                4.93429684                9.04199721                0.41561553               -0.03123181               -0.00725924                0.15684182                0.29682260                1.63818717                1.57649276
               9.48114858                4.90102275                8.95431073                0.96613781                0.16160452                0.14696300               -0.52132164                0.01196556                0.00885800                0.47331762
              10.48389135                4.86837509                8.86648884                1.00000000                0.27427743                0.30123169               -1.20187186               -0.04676609                0.00941384               -0.63414967
               0.49624184                6.12005674                9.10732616                1.00000000               -0.17325966               -0.27350193                0.98171993               -0.05077368                0.03399824                0.90930410
               1.49450924                6.08980552                9.01016543                0.73273616               -0.04370800               -0.06799021                0.16947327               -0.01544583                0.09233566               -0.30587833
               2.49536768                6.05880846                8.91404930                0.05379826                0.48380152                0.14042559               -0.63871023                0.48683728                6.18424417               -1.49072367
               3.50418527                6.03688261                8.93886588                0.00010000                0.79278865                0.16452343               -0.27717645                1.28862357               13.20312614               -0.05507946
               4.51122345                6.01668234                8.98435682                0.00010000                0.57999075                0.04147005               -0.06780524                1.54597491               14.28821953                0.45799247
               5.51578508                5.99730560                9.03271164                0.00010000                0.31345557               -0.04350504                0.16430169                1.67510552               14.47881515                1.10873787
               6.51749256                5.97902393                9.08391619                0.00010000                0.01565935               -0.10377946                0.42300452                1.74054555               14.69400915                1.87867320
               7.51609827                5.96222343                9.13827926                0.13872079               -0.18200491               -0.15934240                0.70840965                1.06900469                8.93621955                2.73802773
               8.51385246                5.93362361                9.07571794                0.43024709               -0.13278446               -0.12004699                0.48302502                0.21602824                1.55295776                1.52070794
               9.51344258                5.90199974                8.98267041                0.98772954                0.07284953                0.05556092               -0.22438461                0.00826686                0.01867476                0.43822711
              10.51530945                5.87102090                8.88932469                1.00000000                0.18668700                0.23298127               -0.93397347               -0.04466254                0.00943857               -0.66115359
               0.52497329                7.11764467                9.08916418                1.00000000               -0.10004736               -0.20999149                0.76221068               -0.04894108                0.03719454                0.88533238
               1.52397282                7.08952352                8.98593524                0.69968784                0.03572994                0.01366741               -0.09798339               -0.01096882                0.11122597               -0.33095113
               2.52568789                7.06068845                8.88407998                0.04054500                0.65627990                0.24132039               -0.95339097                0.36449051                7.49315886               -1.50651328
               3.53709841                7.03838279                8.92864701                0.00010000                0.99002456                0.13170173               -0.49618575                0.97532807               15.32026580               -0.17673680
               4.54548838                7.01681323                8.98508654                0.00010000                0.66575737               -0.02373365               -0.12398503                1.21752191               16.01225710                0.38394836
               5.55041356                6.99648190                9.04548293                0.00010000                0.30119067               -0.12365828                0.25804660                1.39391359               16.30388350                0.99864437
               6.55151219                6.97747688                9.10977799                0.00010000               -0.09299676               -0.20112022                0.66767573                1.47163465               16.60580889                1.72686449
               7.54855363                6.95989948                9.17807252                0.14612062               -0.31543393               -0.30127923                1.11442318                0.86516402                9.86565652                2.59722902
               8.54520351                6.93189590                9.10911824                0.44200026               -0.23185006               -0.22339927                0.79842254                0.14521926                1.52045041                1.50024641
               9.54391663                6.90213397                9.01079141                0.99862713               -0.01238686               -0.02566178                0.05352426                0.00350930                0.02940162                0.44036249
              10.54495578                6.87303472                8.91195069                1.00000000                0.10391522                0.17337204               -0.68739533               -0.04538013                0.00714231               -0.64977482
               0.55150532                8.11585691                9.07065635                1.00000000               -0.02592365               -0.14989171                0.53966736               -0.04631869                0.04356550                0.85292490
               1.55124608                8.09007887                8.96136249                0.66452396                0.11464454                0.10013017               -0.36912809               -0.00569894                0.13825648               -0.37711720
               2.55379821                8.06363487                8.85387870                0.02639326                0.81604843                0.35235761               -1.27607450                0.15864183                8.71921959               -1.50111484
               3.56756705                8.03951664                8.91639419                0.00010000                1.18382856                0.07380477               -0.71540415                0.53368427               17.37739197               -0.32638036
               4.57747478                8.01620767                8.98435064                0.00010000                0.77163256               -0.11824152               -0.18932506                0.84838968               17.73679393                0.25386257
               5.58299970                7.99483244                9.05630416                0.00010000                0.30164466               -0.20182043                0.33819290                1.06960854               18.07818608                0.77553823
               6.58350767                7.97500153                9.13331626                0.00010000               -0.20085819               -0.28112373                0.90097350                1.14466046               18.52222054                1.40531528
               7.57898254                7.95619785                9.21617265                0.15197785               -0.44926606               -0.43456559                1.52570581                0.63813819               10.89808557                2.32621625
               8.57452235                7.92915563                9.14238373                0.45067702               -0.33042948               -0.32526867                1.11466050                0.08482287                1.57256455                1.44657969
               9.57237395                7.90148650                9.03903425                0.99864084               -0.09609962               -0.10588328                0.32693425                0.00144509                0.05064565                0.46510783
              10.57260036                7.87448834                8.93475263                0.99989178                0.02264118                0.11769570               -0.44792509               -0.04682605                0.00622025               -0.62509001
               0.57560300                9.11464684                9.05172154                1.00000000                0.04778805               -0.09406656                0.31654219               -0.04353372                0.03644661                0.69772118
               1.57608088                9.09152612                8.93616892                0.62703789                0.19099758                0.18998563               -0.64048174               -0.00080632                0.21105204               -0.37807193
               2.57942295                9.06773560                8.82405360                0.01133193                0.95592077                0.46017290               -1.59129803               -0.15880506                9.91998372               -1.19315908
               3.59519930                9.03985889                8.90291057                0.00010000                1.38587118               -0.08605978               -0.90583616                0.09263956               19.33557267               -0.28129700
               4.60714038                9.01444840                8.98186756                0.00010000                0.89062872               -0.18851881               -0.25182754                0.44168940               19.35802089                0.12515670
               5.61301187                8.99244549                9.06392104                0.00010000                0.29498087               -0.26077696                0.40050146                0.64895948               19.70744307                0.43626819
               6.61303999                8.97185441                9.15224604                0.00010000               -0.29247898               -0.34399377                1.10070728                0.68331217               20.40116688                0.81620521
               7.60716229                8.95120817                9.25039356                0.15712510               -0.57143402               -0.54286852                1.91828202                0.37523815               12.10676465                1.55276412
               8.60161131                8.92539052                9.17473034                0.45698131               -0.42747393               -0.42207166                1.42474144                0.03045566                1.82957133                1.06536786
               9.59861281                8.90001631                9.06758487                0.99981808               -0.17978657               -0.19087675                0.60925827                0.00151283                0.12296856                0.42841273
              10.59801558                8.87538863                8.95774718                0.99960760               -0.05972312                0.05840669               -0.19902381               -0.04663595               -0.01029703               -0.52542344
               0.59687607               10.11397558                9.02996162                1.00000000                0.12651152               -0.06712564                0.08055772                0.11760746                0.38383970                0.56471225
               1.59814119               10.09387858                8.91159522                0.80198310                0.27066333                0.23524596               -0.89751229                0.14916805                0.73347783               -0.35148000
               2.60228934               10.07283832                8.80020419                0.50120142                1.22829281                0.51027216               -1.83704989               -0.51751797               11.18577738               -0.91106084
               3.62270705               10.03779544                8.89115843                0.43274430                1.57163133               -0.20634443               -1.04620991               -0.26927670               20.87468026               -0.14420192
               4.63372197               10.01243729                8.97775022                0.42932321                0.79329183               -0.20111069               -0.30377930                0.24923180               20.65936087                0.08566853
               5.63857288                9.98961690                9.06712025                0.45206591                0.23446374               -0.28285926                0.44004847                0.34031919               21.03415931                0.25788805
               6.63841124                9.96812165                9.16336064                0.49827539               -0.28108477               -0.37327550                1.23964161                0.32330372               21.93591932                0.47005070
               7.63295119                9.94534047                9.27284223                0.58045474               -0.60439581               -0.58676912                2.18576241                0.20851654               13.38505003                0.98128886
               8.62632333                9.92071419                9.20036742                0.73065758               -0.52725441               -0.46763295                1.68949161                0.08762599                2.62164711                0.73235747
               9.62240610                9.89766897                9.09506692                1.00000000               -0.27001663               -0.23473374                0.89421745                0.12644261                0.61601512                0.37568176
              10.62092299                9.87565647                8.98247744                0.99999705               -0.14831051                0.02678445                0.07082862                0.08949178                0.25152339               -0.43739091
               0.34723371                0.17685084               10.23747591                1.00000000               -0.55853111               -0.63544972                2.20845815               -0.13578042               -0.62197210                0.67957243
               1.34164840                0.12917647               10.16532843                1.00000000               -0.44672111               -0.46085753                1.63824401               -0.09481663               -0.61797647               -0.03334774
               2.33829929                0.08141891               10.09318611                0.71712347               -0.09318200               -0.31680642                1.06198218                0.08059690               -0.32382001               -0.62974082
               3.33978476                0.03764904               10.02700602                0.52129488                0.50404853               -0.18645404                0.49745116                0.36756450                1.24385663               -0.08342308
               4.34838026                0.00621094                9.98655486                0.45134380                0.86956214               -0.14844177                0.02763947                0.33902189                3.79832867               -0.07211283
               5.35717600               -0.01179791                9.97223687                0.46000002                0.49164167               -0.07041137               -0.33912549                0.15839928                4.92832360               -0.00716470
               6.35821309               -0.03001772                9.95522311                0.53658615               -0.04295557                0.10606972               -0.69524829                0.25112900                3.52727500                0.05020702
               7.35631689               -0.06024426                9.91323937                0.69655807               -0.03407944                0.29020948               -1.12950323                0.25118904                1.28297208                0.08566083
               8.35753150               -0.10108514                9.85133546                0.98189406                0.31325119                0.46325364               -1.63496221                0.08851702               -0.09240966                0.31357199
               9.36258192               -0.14593266                9.78176486                1.00000000                0.60988439                0.61519497               -2.17427037               -0.07561131               -0.46114027                0.17329052
              10.36972919               -0.19084501                9.71241294                1.00000000                0.71472770                0.76703757               -2.70831702               -0.13389179               -0.44645361               -0.43854273
               0.39355027                1.17049634               10.21463515                1.00000000               -0.51340780               -0.60190454                1.99091594               -0.05063002               -0.03033931                0.89068805
               1.38841620                1.12456790               10.14185975                1.00000000               -0.43406493               -0.42497143                1.41936692               -0.01573415                0.03313888               -0.06377129
               2.38486898                1.07825085               10.07026744                0.28366415               -0.36759030               -0.27687339                0.85116124                0.19257766                0.96095315               -0.96684175
               3.38106439                1.03578450               10.01611125                0.00176061               -0.41875112               -0.16632959                0.36826601                0.79565640                2.83859792               -1.16667339
               4.37649395                1.00472653                9.98242011                0.00477458               -0.20950326                0.32207313               -0.03334742                1.69169635                5.15332218                0.28870739
               5.37687433                0.98749797                9.97533411                0.00679355                0.42268016                0.08912450               -0.31154648                2.04310235                6.27623022                0.19253100
               6.38494756                0.97104298                9.96521213                0.01475929                0.87440829               -0.08186214               -0.58303411                1.66390865                4.81113394                0.14115219
               7.39436249                0.94265783                9.92967053                0.24682223                0.81566601                0.32024672               -0.95139890                0.91773805                2.62023125                1.13910222
               8.40126088                0.90354740                9.87603333                0.68090478                0.61716233                0.43739025               -1.39835999                0.29048821                1.14804861                0.86303320
               9.40670574                0.86021928                9.81104333                1.00000000                0.60208696                0.57285489               -1.89867924                0.02557847                0.36145627                0.43612379
              10.41330262                0.81682537                9.74157289                1.00000000                0.65968782                0.71608627               -2.43269918               -0.05085548                0.14209617               -0.46904774
               0.43807800                2.16481275               10.19587204                1.00000000               -0.44987923               -0.53807727                1.79800706               -0.05140460                0.09493253                1.08366204
               1.43357921                2.12067704               10.11774626                0.86863955               -0.35718795               -0.35876421                1.19719202               -0.01758567                0.15178405               -0.20278392
               2.43093424                2.07588145               10.04065824                0.11523506               -0.21784985               -0.19804059                0.61176002                0.19822375                1.20249199               -1.50696216
               3.42922221                2.03432244                9.98360980                0.00010000               -0.02167667                0.15659212                0.12393511                1.58608139                5.13277359               -1.21731839
               4.43050071                2.01265241                9.98532265                0.00010000                0.12496909                0.55038883               -0.02788596                2.87285636                7.74520187                0.33227851
               5.43172159                1.98998458                9.98208924                0.00010000                0.29153476                0.24296262               -0.24367525                3.00451522                7.33805884                0.55048369
               6.43633140                1.96834504                9.97677398                0.00010000                0.52228188               -0.08475711               -0.46477320                2.77226593                6.96501749                0.84666972
               7.44216723                1.94616067                9.96702188                0.09491362                0.47242067                0.18531563               -0.65793974                1.62302996                4.41743475                2.26033800
               8.44577982                1.90766267                9.91161946                0.37553397                0.38241424                0.40537571               -1.08862867                0.37152232                1.59909644                2.18170413
               9.44981552                1.86552443                9.84546669                0.94887701                0.48600479                0.49113610               -1.59309059                0.04851197                0.60260854                0.81162871
              10.45549991                1.82347672                9.77000268                1.00000000                0.56843972                0.61240456               -2.15713136               -0.04231807                0.14256745               -0.43857492
               0.48079359                3.15973480               10.17679116                1.00000000               -0.37978077               -0.47488961                1.59668935               -0.05423152                0.03763771                1.03714258
               1.47699579                3.11739261               10.09146967                0.81087785               -0.28027718               -0.29218136                0.94634603               -0.02245113                0.08455698               -0.32018212
               2.47518805                3.07429004               10.00697739                0.08708317               -0.04903632               -0.11566875                0.30441935                0.41146212                2.59183854               -1.69730258
               3.47601506                3.03891634                9.97188552                0.00010000                0.15504494                0.41139480                0.12013358                1.66265632                7.30337717               -0.17339819
               4.47828895                3.01573430                9.98224504                0.00010000                0.26284678                0.26417082               -0.03205352                2.37487731                9.48615744                0.17634184
               5.48127199                2.99235723                9.99234000                0.00010000                0.29639149                0.19605883               -0.15729706                2.47807310                9.32279594                0.85591627
               6.48421678                2.96934784               10.00080810                0.00010000                0.31167334                0.10632504               -0.28793992                2.38590833                9.00764443                1.66819685
               7.48750546                2.94636415               10.00573705                0.10212974                0.25553932                0.08780389               -0.47462739                1.57205814                6.38196437                2.74858163
               8.48932756                2.91165492                9.96256793                0.36955993                0.21782335                0.31274099               -0.64898414                0.45949535                2.09445432                2.54813630
               9.49186193                2.87004201                9.88207500                0.89525867                0.36120593                0.39517096               -1.23873655                0.01958004                0.13114774                0.82921818
              10.49655168                2.82907346                9.79955046                1.00000000                0.46897548                0.50642208               -1.85538521               -0.04534647                0.03541464               -0.43464354
               0.52167774                4.15531496               10.15704543                1.00000000               -0.31027944               -0.40700387                1.38478049               -0.05311751                0.02360357                0.99483042
               1.51857495                4.11483342               10.06497111                0.78209003               -0.20189904               -0.21840911                0.68912655               -0.02213314                0.06042250               -0.32842434
               2.51763976                4.07356807                9.97352279                0.07555241                0.12280647               -0.02992111               -0.00416139                0.53811561                3.98263603               -1.65130324
               3.52103108                4.04255034                9.95999461                0.00010000                0.34588048                0.29882979                0.04276804                1.61266741                9.61263869               -0.19658127
               4.52455737                4.01793582                9.98199260                0.00010000                0.33192222                0.18855225               -0.02336072                2.09210239               11.36472631                0.37689668
               5.52766952                3.99390575               10.00521434                0.00010000                0.27426404                0.12137687               -0.05537327                2.16873065               11.35846952                1.07254394
               6.53004265                3.97047154               10.02873009                0.00010000                0.18158992                0.08413412               -0.08278046                2.17234878               11.34179723                1.95911786
               7.53130132                3.94791675               10.05302975                0.11471790                0.06246079                0.11904852               -0.13642242                1.45303296                7.70894262                3.15900643
               8.53129187                3.91391749               10.00508882                0.39006782                0.07436274                0.14826549               -0.23734441                0.40139391                2.04532902                1.93736807
               9.53278857                3.87342785                9.91650631                0.92258926                0.26191061                0.27872109               -0.88590250                0.01110953                0.00868044                0.64163164
              10.53653008                3.83360516                9.82770772                1.00000000                0.37415049                0.40932830               -1.54008996               -0.04935678                0.00459197               -0.55828099
               0.56069432                5.15159472               10.13709452                1.00000000               -0.23943157               -0.33764634                1.16918507               -0.05147883                0.02716145                0.97777751
               1.55830001                5.11302443               10.03847208                0.75269552               -0.12304430               -0.14242798                0.42885623               -0.01833929                0.07332349               -0.33137109
               2.55823344                5.07369162                9.94066483                0.06405139                0.28003245                0.05545486               -0.30936473                0.55669230                5.34153681               -1.61665777
               3.56390066                5.04489293                9.94751763                0.00010000                0.52710730                0.21083929               -0.10245397                1.48831828               11.93452858               -0.16854370
               4.56877558                5.01950535                9.98273494                0.00010000                0.41051158                0.12472050               -0.03772400                1.81847263               13.34268946                0.45041575
               5.57211089                4.99478476               10.01964662                0.00010000                0.24385859                0.05383323                0.05251453                1.92177167               13.42917813                1.17676964
               6.57365276                4.97103052               10.05849311                0.00010000                0.05046423                0.01267135                0.15689321                1.96323972               13.56739978                2.05430940
               7.57312017                4.94874512               10.09988672                0.12571877               -0.09042063                0.00840948                0.26344276                1.27230706                8.72833737                3.07551805
               8.57184434                4.91462023               10.04341861                0.40803577               -0.03618622                0.00634379                0.12886303                0.31615705                1.91398645                1.67903835
               9.57239645                4.87561643                9.94891477                0.94909660                0.16827942                0.16659384               -0.55674219                0.01154105                0.01034239                0.51017912
              10.57520993                4.83726003                9.85425622                1.00000000                0.28134828                0.32630966               -1.24416642               -0.04645825                0.00944483               -0.66131348
               0.59778874                6.14856203               10.11698073                1.00000000               -0.16774785               -0.26995115                0.95138623               -0.04947352                0.03203450                0.96002778
               1.59611126                6.11198486               10.01184477                0.72187229               -0.04418202               -0.06435663                0.16646746               -0.01388891                0.09121698               -0.34718453
               2.59690510                6.07467717                9.90779077                0.05193523                0.44362232                0.14483514               -0.61490574                0.50493044                6.75168738               -1.62279135
               3.60498371                6.04676713                9.93598184                0.00010000                0.70649458                0.17383280               -0.29136682                1.29095773               14.25476478               -0.15480373
               4.61103499                6.02043023                9.98362242                0.00010000                0.47980346                0.06553668               -0.07477248                1.53486663               15.27484821                0.44297443
               5.61457978                5.99498242               10.03430188                0.00010000                0.21560484               -0.01684249                0.15738703                1.66256080               15.47401827                1.16298431
               6.61534709                5.97072497               10.08805471                0.00010000               -0.07110119               -0.08079424                0.40850631                1.72869139               15.69806344                2.00236516
               7.61315776                5.94808494               10.14519400                0.13511632               -0.23016971               -0.14256687                0.67816017                1.07403740                9.68916990                2.94552402
               8.61074370                5.91404437               10.08046776                0.42309556               -0.13890809               -0.11345652                0.46700065                0.22947314                1.80422287                1.60107707
               9.61037959                5.87675973                9.98029961                0.97121833                0.07850112                0.06842960               -0.25050928                0.00982315                0.02106277                0.45400232
              10.61231372                5.84013135                9.87982006                1.00000000                0.19341248                0.25196157               -0.96907624               -0.04382994                0.01197255               -0.70783472
               0.63285920                7.14619570               10.09661997                1.00000000               -0.09521088               -0.20471997                0.73143855               -0.04737978                0.03528662                0.93366328
               1.63190709                7.11173730                9.98495410                0.68982049                0.03452883                0.01634767               -0.09839432               -0.00907771                0.11063042               -0.37528141
               2.63354978                7.07658832                9.87470541                0.03920284                0.60298285                0.24195942               -0.92419073                0.38652781                8.13365439               -1.64472429
               3.64396675                7.04836959                9.92363105                0.00010000                0.88539241                0.14414232               -0.49898008                0.98920327               16.54840807               -0.28488877
               4.65125762                7.02081608                9.98380521                0.00010000                0.55503100                0.00476945               -0.12643286                1.21188752               17.19529964                0.35606513
               5.65506737                6.99444791               10.04802117                0.00010000                0.19332175               -0.09142149                0.25418165                1.37403026               17.48625666                1.03999883
               6.65512406                6.96941464               10.11639542                0.00010000               -0.18929221               -0.17639424                0.65879937                1.44553110               17.80011742                1.84074150
               7.65128152                6.94589378               10.18911716                0.14308189               -0.36825206               -0.29047739                1.09540913                0.85475196               10.68320585                2.80381584
               8.64775902                6.91235110               10.11705993                0.43555597               -0.23878002               -0.22178962                0.79016886                0.15158956                1.73749240                1.57349555
               9.64650592                6.87698502               10.01126086                0.98962338               -0.00844677               -0.01912141                0.03843235                0.00669793                0.02990175                0.44431398
              10.64759008                6.84229926                9.90498761                1.00000000                0.10841598                0.18496147               -0.70940665               -0.04321485                0.01112054               -0.70681305
               0.66575794                8.14446763               10.07589094                1.00000000               -0.02208569               -0.14347410                0.50981574               -0.04473616                0.04127436                0.89945391
               1.66553709                8.11231181                9.95769829                0.65643518                0.11227106                0.10075000               -0.36457745               -0.00391068                0.13633215               -0.42234045
               2.66800336                8.07951636                9.84133445                0.02582305                0.75014633                0.34712974               -1.23694428                0.19042411                9.43598465               -1.63699852
               3.68054001                8.04964997                9.90928802                0.00010000                1.05955278                0.09255616               -0.70079645                0.56991264               18.78415954               -0.41568521
               4.68919442                8.02052562                9.98245914                0.00010000                0.64609076               -0.08101113               -0.18299150                0.85220593               19.11270714                0.22679715
               5.69346183                7.99315399               10.05966609                0.00010000                0.18087123               -0.16149651                0.33942483                1.04572368               19.44944260                0.80340228
               6.69281185                7.96719708               10.14229003                0.00010000               -0.30727465               -0.25084365                0.89682871                1.10137776               19.91644743                1.49614985
               7.68731634                7.94227539               10.23136165                0.14994836               -0.50637993               -0.42556364                1.51242886                0.60751325               11.78508578                2.52175147
               8.68268425                7.90960857               10.15349402                0.44571357               -0.33754731               -0.32538206                1.10853268                0.08360040                1.75055958                1.51466756
               9.68056539                7.87637730               10.04225878                0.99863356               -0.09316496               -0.10275371                0.31703345                0.00346938                0.04528175                0.47011305
              10.68082095                7.84383058                9.93023798                1.00000000                0.02555579                0.12336965               -0.45922768               -0.04521470                0.00949654               -0.68047207
               0.69627612                9.14332621               10.05473520                1.00000000                0.05040333               -0.08683878                0.28861377               -0.04229454                0.03324458                0.73730798
               1.69678015                9.11375230                9.92982815                0.62220198                0.18719892                0.18783894               -0.62970964                0.00014829                0.21140579               -0.41557785
               2.70002010                9.08353091                9.80843302                0.01191570                0.87877932                0.44862103               -1.53939997               -0.10862940               10.72612052               -1.28930377
               3.71435574                9.05022071                9.89399972                0.00010000                1.23888162               -0.04815664               -0.87482384                0.14072442               20.91967318               -0.32817360
               4.72479773                9.01919586                9.97940606                0.00010000                0.74773210               -0.14423202               -0.23538304                0.45223391               20.91062413                0.10974801
               5.72931038                8.99121798               10.06793676                0.00010000                0.16162406               -0.21462242                0.40797642                0.62949094               21.25771948                0.45067756
               6.72803021                8.96439776               10.16323664                0.00010000               -0.41450399               -0.30036266                1.10073286                0.63935804               21.99821136                0.86504623
               7.72102030                8.93738251               10.26949946                0.15657553               -0.63505447               -0.52805764                1.90377486                0.33265905               13.07533101                1.67627527
               8.71532912                8.90584345               10.18891944                0.45470019               -0.43334991               -0.42118603                1.41639084                0.02261433                1.98272536                1.10736297
               9.71235330                8.87492995               10.07365192                0.99978269               -0.17749475               -0.18919955                0.60195760                0.00168308                0.11769129                0.43984884
              10.71177922                8.84476665                9.95573451                0.99965361               -0.05740764                0.06149167               -0.20685023               -0.04735863               -0.01179892               -0.56541843
               0.72405989               10.14273085               10.03063662                1.00000000                0.12754670               -0.05953598                0.05633630                0.11215035                0.40327360                0.59717898
               1.72533535               10.11606859                9.90271521                0.80085466                0.26512374                0.23162910               -0.88160971                0.14341646                0.77301166               -0.38062635
               2.72936236               10.08848878                9.78216457                0.50188123                1.11771020                0.49578640               -1.77904322               -0.43486085               12.09496560               -0.97018807
               3.74768956               10.04868684                9.88089541                0.43354539                1.39397339               -0.15338734               -1.00649063               -0.20900778               22.61571237               -0.16476068
               4.75724183               10.01764098                9.97481319                0.42966006                0.65800924               -0.15548774               -0.27954764                0.25314511               22.36648247                0.08116376
               5.76084974                9.98886154               10.07157291                0.45217465                0.10963262               -0.23564432                0.45494130                0.33137883               22.74542993                0.27038237
               6.75943448                9.96118983               10.17578074                0.49840189               -0.41629581               -0.32079327                1.24653160                0.28306232               23.70833157                0.50439099
               7.75252383                9.93171424               10.29465228                0.58070186               -0.69226938               -0.56682662                2.17619007                0.15010381               14.45373913                1.04966040
               8.74558909                9.90118485               10.21722557                0.73056112               -0.54239860               -0.46586010                1.68472984                0.06995088                2.80973133                0.75180259
               9.74167585                9.87259331               10.10399920                1.00000000               -0.26943637               -0.23366366                0.89135389                0.12603351                0.64095271                0.38930451
              10.74020037                9.84506042                9.98318988                1.00000000               -0.14754877                0.02937660                0.06714965                0.08882486                0.26369750               -0.46445006
               0.41576569                0.20781208               11.25943241                1.00000000               -0.55507603               -0.62878704                2.18477391               -0.13183923               -0.66975131                0.72648313
               1.41021493                0.15341064               11.18168520                1.00000000               -0.44701357               -0.45891406                1.63274023               -0.09100180               -0.66947414               -0.03255679
               2.40682542                0.09891163               11.10388013                0.71684950               -0.10412670               -0.31847650                1.07441987                0.08176057               -0.37325936               -0.66608150
               3.40813239                0.04833205               11.03213569                0.52183102                0.47289935               -0.18804771                0.52492543                0.35938970                1.24009071               -0.08794712
               4.41628340                0.00990904               10.98696902                0.45197746                0.82332500               -0.13774328                0.05296564                0.33048340                3.87411930               -0.07605853
               5.42459889               -0.01511057               10.96887627                0.46052300                0.45800411               -0.05181207               -0.33327663                0.15387642                5.04779958               -0.00821732
               6.42544349               -0.04005750               10.94822310                0.53662086               -0.05165664                0.11955637               -0.70485636                0.24611482                3.61624884                0.05168602
               7.42356576               -0.07668621               10.90187414                0.69582733               -0.03026061                0.29814439               -1.14457826                0.24727171                1.30554880                0.08977133
               8.42483827               -0.12375261               10.83491301                0.97991641                0.31850726                0.46871301               -1.65141242                0.08714207               -0.11734867                0.32887737
               9.42993591               -0.17478832               10.75994668                1.00000000                0.61465628                0.62119688               -2.19166442               -0.07518767               -0.49795258                0.18568773
              10.43713140               -0.22589728               10.68526072                1.00000000                0.71954929                0.77355115               -2.72459187               -0.13367772               -0.47842469               -0.46805909
               0.46884874                1.20152421               11.23441975                1.00000000               -0.50936015               -0.59623101                1.96802433               -0.04883034               -0.03512770                0.94863274
               1.46375513                1.14882150               11.15603235                1.00000000               -0.43332102               -0.42324615                1.41490230               -0.01352359                0.02936706               -0.06455808
               2.46018232                1.09572687               11.07885859                0.28267854               -0.37637747               -0.27837794                0.86459478                0.19370180                1.00131207               -1.01538575
               3.45622759                1.04645158               11.01995061                0.00206894               -0.44363842               -0.17006813                0.39612498                0.79641668                2.96043596               -1.22604790
               4.45130955                1.00853161               10.98221087                0.00531836               -0.25533298                0.32044402               -0.01048059                1.66972277                5.37620317                0.31906236
               5.45112093                0.98437131               10.97221881                0.00751294                0.36914542                0.09826852               -0.31122214                2.02084896                6.56147885                0.21680993
               6.45869246                0.96113807               10.95929758                0.01466399                0.83825551               -0.07215152               -0.59916377                1.64883917                5.04406290                0.15173957
               7.46788604                0.92629523               10.92005440                0.24544171                0.80341445                0.32670715               -0.97188187                0.90273698                2.75827384                1.20371278
               8.47476075                0.88093452               10.86196009                0.67665286                0.61851622                0.44287015               -1.41734925                0.28719270                1.21644829                0.91643055
               9.48025636                0.83142365               10.79196807                1.00000000                0.60714179                0.57988316               -1.91714726                0.02604925                0.38552065                0.46308535
              10.48690358                0.78183823               10.71715268                1.00000000                0.66472203                0.72457345               -2.45210085               -0.05061699                0.14961811               -0.49859024
               0.52019450                2.19588746               11.21372804                1.00000000               -0.44527022               -0.53431917                1.77500889               -0.04941322                0.10386485                1.14878677
               1.51574180                2.14494572               11.12969932                0.85766640               -0.35625633               -0.35693893                1.19319256               -0.01510564                0.16810965               -0.21973703
               2.51306938                2.09334407               11.04686900                0.11377840               -0.22429081               -0.19754359                0.62817299                0.19774435                1.27443223               -1.60298638
               3.51125599                2.04493069               10.98501422                0.00010000               -0.06556269                0.15725452                0.15361228                1.56862737                5.41135790               -1.21637580
               4.51175812                2.01631792               10.98511875                0.00010000                0.05767137                0.54316287               -0.01362588                2.83785723                8.15560140                0.38052580
               5.51240941                1.98685480               10.97966795                0.00010000                0.23691130                0.24158933               -0.24023412                2.97431903                7.71472571                0.60329657
               6.51649635                1.95849947               10.97208653                0.00010000                0.47073191               -0.08067138               -0.47151132                2.75350014                7.34553929                0.89580651
               7.52182405                1.92984793               10.96034473                0.09315850                0.44786777                0.18329668               -0.67698690                1.61477652                4.68505868                2.32915280
               8.52545371                1.88510479               10.90064249                0.37083285                0.38645609                0.41548667               -1.10623277                0.36997277                1.71257533                2.33325650
               9.52955317                1.83680935               10.82941290                0.93469039                0.49180937                0.50246924               -1.61606849                0.05036580                0.64828899                0.87489900
              10.53528989                1.78859419               10.74829744                1.00000000                0.57367197                0.62560804               -2.18248905               -0.04092766                0.15916940               -0.45712682
               0.56974396                3.19083783               11.19263258                1.00000000               -0.37475484               -0.47257242                1.57322932               -0.05251025                0.03890559                1.09269605
               1.56599641                3.14168272               11.10091172                0.79893539               -0.27958646               -0.28953084                0.94165332               -0.02006125                0.08954508               -0.35419434
               2.56415223                3.09177599               11.01011001                0.08526025               -0.06850639               -0.11207573                0.31952665                0.41335790                2.82143207               -1.82733826
               3.56462628                3.04959667               10.97308993                0.00010000                0.09951746                0.41922607                0.12485017                1.63423069                7.76776110               -0.10413463
               4.56614258                3.01939487               10.98196023                0.00010000                0.18997349                0.26706641               -0.02447680                2.34181040                9.98452102                0.22165864
               5.56842575                2.98920310               10.99077078                0.00010000                0.23133756                0.19724712               -0.15549435                2.44944991                9.82667873                0.92001060
               6.57076933                2.95952464               10.99788457                0.00010000                0.25752482                0.10803332               -0.29432105                2.35844954                9.47895327                1.75521967
               7.57357625                2.92996116               11.00096484                0.09951823                0.22147256                0.08264178               -0.47780017                1.57079098                6.82171038                2.83476384
               8.57519878                2.88924425               10.95592457                0.36349762                0.20990117                0.32803460               -0.67502412                0.46703157                2.32648535                2.74033395
               9.57777427                2.84147304               10.86952339                0.87918788                0.36582761                0.41220001               -1.26787159                0.01946048                0.14732738                0.91188160
              10.58251534                2.79435039               10.78081364                1.00000000                0.47410615                0.52653479               -1.88887196               -0.04483579                0.03671357               -0.43554605
               0.61745451                4.18643601               11.17076329                1.00000000               -0.30521010               -0.40514402                1.36042921               -0.05156735                0.02256389                1.04388599
               1.61440241                4.13915510               11.07184344                0.76976955               -0.20159603               -0.21502424                0.68492341               -0.02001279                0.06005166               -0.36658220
               2.61342259                4.09110256               10.97357895                0.07349245                0.09596584               -0.02485956                0.01282835                0.54106451                4.34077468               -1.77981415
               3.61632173                4.05331521               10.96035072                0.00010000                0.27826544                0.30687784                0.03392534                1.58753467               10.27108968               -0.20119108
               4.61898790                4.02165925               10.98175306                0.00010000                0.24734541                0.19837295               -0.02259123                2.05293147               11.99122125                0.41152989
               5.62126864                3.99079974               11.00464750                0.00010000                0.19596869                0.12983794               -0.05620406                2.13267842               11.99799786                1.14174396
               6.62290727                3.96066014               11.02784768                0.00010000                0.11258120                0.08947022               -0.09050098                2.13293445               11.96511710                2.07074482
               7.62352026                3.93150076               11.05156611                0.11156282                0.01875945                0.12356384               -0.15092670                1.44217762                8.28863283                3.33856942
               8.62328246                3.89166548               11.00254624                0.38306128                0.06579882                0.16272084               -0.26702625                0.41323701                2.32423275                2.08916227
               9.62483624                3.84505335               10.90745780                0.90507556                0.26779975                0.29799975               -0.92018543                0.01014715                0.01221879                0.70903374
              10.62863846                3.79912489               10.81208809                1.00000000                0.38022213                0.43430458               -1.58078291               -0.04874561                0.00375607               -0.56271367
               0.66327444                5.18273495               11.14865068                1.00000000               -0.23448260               -0.33520848                1.14388309               -0.05027396                0.02530418                1.02464599
               1.66092961                5.13738224               11.04274255                0.74083076               -0.12305133               -0.13876497                0.42500924               -0.01675073                0.07182936               -0.37193414
               2.66081341                5.09127880               10.93767276                0.06214258                0.24453369                0.06047465               -0.29125938                0.55968719                5.80063350               -1.74425328
               3.66582029                5.05573422               10.94642776                0.00010000                0.44516328                0.21789494               -0.11015345                1.46053563               12.77915447               -0.22903954
               4.66971668                5.02336232               10.98233539                0.00010000                0.31290728                0.14061533               -0.03922009                1.77390553               14.13275812                0.45809057
               5.67207843                4.99179986               11.02014978                0.00010000                0.15051615                0.06954954                0.05050616                1.87581207               14.23160262                1.24202937
               6.67272700                4.96131404               11.05999807                0.00010000               -0.03319855                0.02543980                0.14730437                1.91435083               14.36938126                2.18243674
               7.67141446                4.93243244               11.10237184                0.12243716               -0.14080296                0.02013565                0.23867204                1.25664883                9.40810573                3.28683479
               8.66991094                4.89249867               11.04457447                0.40087765               -0.04483254                0.01691758                0.10473004                0.32747170                2.19507700                1.79237726
               9.67051781                4.84743303               10.94317589                0.93140548                0.17431991                0.18401759               -0.58885048                0.01065628                0.01165447                0.55359140
              10.67339734                4.80303649               10.84160551                1.00000000                0.28795293                0.35039655               -1.28465503               -0.04617670                0.00926803               -0.68497252
               0.70715446                6.17973185               11.12635388                1.00000000               -0.16309130               -0.26636082                0.92533098               -0.04838830                0.03017341                1.00514747
               1.70552354                6.13637980               11.01349478                0.71085513               -0.04450525               -0.06089356                0.16339935               -0.01247099                0.09029388               -0.38963306
               2.70626435                6.09231205               10.90175119                0.05038809                0.39626888                0.14857391               -0.59520879                0.50819621                7.29291945               -1.75214748
               3.71344892                6.05767311               10.93303854                0.00010000                0.60680138                0.18223096               -0.29217266                1.26529938               15.27780676               -0.24613133
               4.71840038                6.02447156               10.98286137                0.00010000                0.36921189                0.08677435               -0.07378943                1.49025978               16.25024474                0.42988593
               5.72083316                5.99219073               11.03585938                0.00010000                0.10806643                0.00589054                0.15687719                1.60837202               16.45682278                1.21854780
               6.72056171                5.96116894               11.09208632                0.00010000               -0.16822716               -0.06288254                0.40041109                1.67021495               16.68887212                2.13048259
               7.71746862                5.93190348               11.15184246                0.13202645               -0.28652002               -0.13121478                0.65441486                1.04868305               10.44608011                3.16202492
               8.71483131                5.89200383               11.08505795                0.41624957               -0.14785361               -0.10795577                0.45211409                0.23644697                2.06446271                1.69052856
               9.71451154                5.84873370               10.97766023                0.95391827                0.08383532                0.08140264               -0.27633618                0.00990781                0.02200373                0.47716311
              10.71650801                5.80613282               10.86994317                1.00000000                0.19964702                0.27220243               -1.00538442               -0.04372078                0.01194192               -0.74771475
               0.74901076                7.17740773               11.10379295                1.00000000               -0.09107712               -0.20005417                0.70538723               -0.04625458                0.03336381                0.97687837
               1.74809999                7.13616437               10.98396736                0.67996430                0.03366353                0.01891035               -0.09932645               -0.00758925                0.10997069               -0.41894065
               2.74968403                7.09425028               10.86559617                0.03816360                0.54333913                0.24276145               -0.90046316                0.39391505                8.74962686               -1.77615838
               3.75896677                7.05937884               10.91866740                0.00010000                0.76601101                0.15805771               -0.48973906                0.97620839               17.74592914               -0.38068600
               4.76500425                7.02509781               10.98255788                0.00010000                0.42908618                0.03356073               -0.11936045                1.17446509               18.36310937                0.33339982
               5.76754849                6.99191767               11.05056656                0.00010000                0.07071543               -0.06029201                0.25780553                1.31415434               18.65712641                1.08357967
               6.76641856                6.96005639               11.12295398                0.00010000               -0.29976342               -0.15428185                0.65498382                1.37349151               18.98551258                1.95792268
               7.76155323                6.92980814               11.19998070                0.14048335               -0.43044486               -0.28264503                1.07849943                0.81474027               11.50740876                3.01698626
               8.75780966                6.89033955               11.12492162                0.42943485               -0.24831220               -0.22071781                0.78341135                0.15290235                1.96435638                1.64982430
               9.75658698                6.84906108               11.01156006                0.97318856               -0.00424889               -0.01179987                0.02129298                0.00825332                0.03007904                0.45374743
              10.75772468                6.80848053               10.89776256                1.00000000                0.11377016                0.19995914               -0.73834464               -0.04186073                0.01356630               -0.75634157
               0.78871610                8.17573076               11.08085266                1.00000000               -0.01868872               -0.13802092                0.48471754               -0.04371394                0.03921819                0.94162968
               1.78852921                8.13675801               10.95407094                0.64836856                0.11060401                0.10166412               -0.36187596               -0.00261488                0.13499966               -0.46542143
               2.79092818                8.09716728               10.82913981                0.02550177                0.67981747                0.34345634               -1.20603764                0.20830094               10.13013255               -1.76271723
               3.80212556                8.06083426               10.90237827                0.00010000                0.92113396                0.11545906               -0.67945791                0.58142245               20.15638797               -0.49146212
               4.80935086                8.02514277               10.98069081                0.00010000                0.50160523               -0.04042504               -0.16772800                0.82811000               20.46689204                0.20629824
               5.81215766                7.99098489               11.06309266                0.00010000                0.03951019               -0.11827220                0.34869369                0.98638538               20.80722107                0.83336452
               6.81014106                7.95808330               11.15125284                0.00010000               -0.43387002               -0.21958879                0.89769305                1.01443252               21.30237636                1.58782271
               7.80348026                7.92625058               11.24642122                0.14818053               -0.57523227               -0.41825514                1.50037225                0.54695360               12.67812059                2.71650290
               8.79863641                7.88758948               11.16455438                0.44094848               -0.34723188               -0.32666568                1.10578990                0.07754078                1.93793131                1.58006120
               9.79653563                7.84849770               11.04537492                0.98995824               -0.09022593               -0.09941122                0.30745995                0.00535537                0.04207386                0.47587035
              10.79683190                7.81013200               10.92556807                1.00000000                0.02962704                0.13239115               -0.47917722               -0.04208253                0.01481696               -0.73207786
               0.82608198                9.17464731               11.05749382                1.00000000                0.05291872               -0.08072201                0.26511386               -0.04155293                0.03041730                0.77367474
               1.82661117                9.13819765               10.92357472                0.61679955                0.18459045                0.18669685               -0.62282810                0.00081764                0.21341241               -0.45097250
               2.82977379                9.10111941               10.79326560                0.01253485                0.80042788                0.44020938               -1.49990658               -0.07146775               11.51013579               -1.37712258
               3.84261973                9.06168802               10.88541409                0.00010000                1.08210130               -0.00627057               -0.84298545                0.17085112               22.46466380               -0.36575886
               4.85141582                9.02428931               10.97715990                0.00010000                0.58579720               -0.09482313               -0.21201388                0.44437331               22.43597973                0.09889222
               5.85433567                8.98955222               11.07208057                0.00010000                0.00128538               -0.16163177                0.42315322                0.58657830               22.79152030                0.46608140
               6.85144153                8.95566462               11.17426070                0.00010000               -0.56747768               -0.24810130                1.10587186                0.56241289               23.58375532                0.91325193
               7.84298612                8.92144304               11.28846906                0.15590675               -0.71640871               -0.51112703                1.89182783                0.26212525               14.04742604                1.79692935
               8.83711335                8.88380624               11.20305815                0.45201020               -0.44172778               -0.42257446                1.41524200                0.00822158                2.14475995                1.14544800
               9.83415156                8.84707286               11.07962403                0.99973516               -0.17494610               -0.18686008                0.59427251                0.00236654                0.11518480                0.45005504
              10.83361443                8.81112836               10.95361017                0.99969912               -0.05371334                0.06623646               -0.22199618               -0.04526553               -0.01014159               -0.60376950
               0.86078437               10.17411632               11.03108835                1.00000000                0.12890997               -0.05309928                0.03560368                0.10780093                0.42094442                0.62728357
               1.86207347               10.14049195               10.89396303                0.79910557                0.26120395                0.22942976               -0.87141321                0.13898697                0.81172498               -0.40834633
               2.86600845               10.10597147               10.76462333                0.50248593                1.01496054                0.48520594               -1.73596573               -0.36568926               12.98029429               -1.02445361
               3.88237268               10.06070885               10.87102862                0.43438597                1.21828376               -0.09791703               -0.96863063               -0.16096302               24.31807534               -0.18139838
               4.89037412               10.02324631               10.97215927                0.42997924                0.50706217               -0.10430027               -0.25030490                0.24800067               24.04616823                0.07840394
               5.89251392                9.98775226               11.07621908                0.45220332               -0.04378120               -0.17999634                0.47567440                0.31157314               24.43999950                0.28252712
               6.88949850                9.95312127               11.18829127                0.49840001               -0.59663871               -0.25433451                1.25628317                0.21948603               25.46773895                0.53659839
               7.88058115                9.91602804               11.31636604                0.58072381               -0.81637353               -0.54150057                2.16691729                0.06033860               15.52466818                1.11727421
               8.87317103                9.87913799               11.23406202                0.72994417               -0.56601563               -0.46682502                1.68758129                0.04239071                3.00580808                0.76844614
               9.86926084                9.84476050               11.11289400                1.00000000               -0.26777203               -0.23123606                0.88459500                0.12686432                0.66536282                0.40266680
              10.86781559                9.81145673               10.98382044                1.00000000               -0.14452480                0.03283723                0.05559717                0.08973887                0.27344577               -0.49030207
               0.48933311                0.24140581               12.28117138                1.00000000               -0.55219123               -0.62324424                2.16486315               -0.12853597               -0.71659713                0.77229566
               1.48381119                0.17983103               12.19798323                1.00000000               -0.44747489               -0.45684120                1.62669368               -0.08792202               -0.72003635               -0.03188498
               2.48038361                0.11814036               12.11467451                0.71623920               -0.11567542               -0.31860973                1.08245649                0.08079716               -0.42287099               -0.70212841
               3.48149769                0.06026026               12.03750453                0.52234564                0.43692302               -0.18752559                0.54567321                0.34559969                1.22815058               -0.09185471
               4.48912207                0.01420606               11.98761417                0.45257919                0.76901152               -0.12480188                0.07369708                0.31739436                3.92902168               -0.07938322
               5.49687792               -0.01864734               11.96557134                0.46094399                0.42090630               -0.03101668               -0.32865693                0.14697643                5.14307614               -0.00832673
               6.49754019               -0.05113296               11.94112599                0.53651244               -0.05699814                0.13473084               -0.71537909                0.23720319                3.68995672                0.05390383
               7.49573795               -0.09480934               11.89034780                0.69483434               -0.02141024                0.30708411               -1.16190751                0.23931168                1.32125298                0.09427135
               8.49711199               -0.14860174               11.81830721                0.97727683                0.32686007                0.47482832               -1.67113988                0.08380069               -0.14619437                0.34484672
               9.50227515               -0.20626169               11.73793157                1.00000000                0.62103154                0.62764620               -2.21275808               -0.07457636               -0.53735126                0.19822539
              10.50953262               -0.26399009               11.65792110                1.00000000                0.72574664                0.78069439               -2.74461450               -0.13352612               -0.51244633               -0.50223623
               0.54962253                1.23517337               12.25399564                1.00000000               -0.50578286               -0.59150768                1.94897974               -0.04709312               -0.03935195                1.00492578
               1.54456470                1.17526262               12.17015780                1.00000000               -0.43227823               -0.42140458                1.41001543               -0.01149307                0.02598945               -0.06590303
               2.54097696                1.11495426               12.08755934                0.28136973               -0.38219345               -0.27850269                0.87341925                0.19233825                1.04060354               -1.06273717
               3.53692083                1.05838501               12.02403375                0.00234262               -0.46135740               -0.17023298                0.41720657                0.78528634                3.07174606               -1.28458679
               4.53174981                1.01295805               11.98221050                0.00580638               -0.29518177                0.31537517                0.00799582                1.62472140                5.57299222                0.34630786
               5.53101719                0.98104249               11.96910967                0.00817308                0.31217061                0.10729419               -0.31136162                1.97133563                6.81904814                0.24476647
               6.53799323                0.95021434               11.95322886                0.01450125                0.79241328               -0.05964274               -0.61507135                1.61221089                5.26250405                0.17016354
               7.54686546                0.90826150               11.91023289                0.24397212                0.78414708                0.33213169               -0.99328459                0.87533445                2.89345603                1.27181448
               8.55367617                0.85614654               11.84768635                0.67196564                0.61790533                0.44825343               -1.43859007                0.28022238                1.28589295                0.97266081
               9.55922357                0.80001478               11.77270038                1.00000000                0.61248004                0.58643883               -1.93708650                0.02607501                0.40995889                0.48860757
              10.56592577                0.74381685               11.69253087                1.00000000                0.67022028                0.73316562               -2.47272075               -0.05071259                0.15642688               -0.53425910
               0.60821274                2.22957565               12.23137222                1.00000000               -0.44123070               -0.53099493                1.75548557               -0.04772635                0.11363155                1.21140975
               1.60380044                2.17140294               12.14161011                0.84660796               -0.35523809               -0.35490059                1.18876094               -0.01303925                0.18612787               -0.23835175
               2.60110798                2.11257030               12.05322170                0.11244376               -0.23004044               -0.19604657                0.64033314                0.19570910                1.34559456               -1.69920866
               3.59919963                2.05685560               11.98668204                0.00010000               -0.10744852                0.15560721                0.17679846                1.52712471                5.67471476               -1.22491694
               4.59895901                2.02051357               11.98505014                0.00010000               -0.00756494                0.52875564               -0.00101134                2.75958252                8.54216895                0.42412727
               5.59904833                1.98349854               11.97728456                0.00010000                0.18031965                0.23676964               -0.23683569                2.90123226                8.07250374                0.66067552
               6.60256540                1.94767418               11.96734376                0.00010000                0.41320587               -0.07616311               -0.47723729                2.69716533                7.71058691                0.95518458
               7.60731245                1.91183329               11.95348214                0.09174239                0.41988775                0.17882725               -0.69628803                1.58616799                4.94939912                2.41322673
               8.61096316                1.86036332               11.88949480                0.36658019                0.39069492                0.42056499               -1.12368520                0.36281725                1.82731860                2.48667595
               9.61512634                1.80546709               11.81314532                0.92075911                0.49755323                0.51099792               -1.63685688                0.05028639                0.69358322                0.93497524
              10.62091422                1.75067322               11.72635290                1.00000000                0.57878794                0.63775196               -2.20569731               -0.04040286                0.17657164               -0.48363740
               0.66501344                3.22455347               12.20825575                1.00000000               -0.37041738               -0.47005350                1.55294876               -0.05108749                0.04018615                1.14510805
               1.66130926                3.16816460               12.11030274                0.78732857               -0.27874798               -0.28659962                0.93621388               -0.01801266                0.09515737               -0.39002076
               2.65943848                3.11103333               12.01336792                0.08376031               -0.08946013               -0.10806335                0.32976136                0.40862698                3.04132589               -1.95821293
               3.65952006                3.06149715               11.97438252                0.00010000                0.04300242                0.41665449                0.13654947                1.57894766                8.21729139               -0.04931887
               4.66029853                3.02353316               11.98175551                0.00010000                0.11805823                0.26388467               -0.01596068                2.27033657               10.46855245                0.26295003
               5.66188123                2.98577788               11.98923012                0.00010000                0.16516289                0.19315414               -0.15218614                2.38222295               10.31574564                0.98565966
               6.66360178                2.94869108               11.99492168                0.00010000                0.20092251                0.10493807               -0.29759102                2.29605673                9.94343137                1.84684924
               7.66589968                2.91183804               11.99618105                0.09740306                0.18484651                0.07239199               -0.47993158                1.54648606                7.25304573                2.93010856
               8.66729871                2.86455784               11.94906745                0.35815256                0.20098630                0.33437552               -0.69361419                0.46591817                2.55065225                2.93166280
               9.66991940                2.81023473               11.85671757                0.86384917                0.37033728                0.42444697               -1.29105479                0.01894027                0.16423580                0.99070503
              10.67470546                2.75657189               11.76177302                1.00000000                0.47860576                0.54428994               -1.91728426               -0.04476457                0.03889062               -0.44471619
               0.71996872                4.22017458               12.18425401                1.00000000               -0.30083999               -0.40282086                1.33929029               -0.05020266                0.02197792                1.08920692
               1.71696032                4.16567094               12.07866958                0.75773113               -0.20103731               -0.21150981                0.67992257               -0.01801490                0.06078407               -0.40605852
               2.71594797                4.11040904               11.97377936                0.07174617                0.06592160               -0.01995102                0.02479703                0.53200838                4.68201361               -1.90749851
               3.71827875                4.06518869               11.96067312                0.00010000                0.20685177                0.30635836                0.03455611                1.53416401               10.91177800               -0.20987753
               4.72008501                4.02579126               11.98154077                0.00010000                0.16280556                0.20128457               -0.01803606                1.97915640               12.60999670                0.44425019
               5.72153486                3.98736162               12.00409026                0.00010000                0.11706847                0.13177931               -0.05405078                2.05903585               12.62639130                1.21237781
               6.72242638                3.94977294               12.02692007                0.00010000                0.04202731                0.08747670               -0.09364466                2.05680211               12.57999980                2.18544641
               7.72237541                3.91328113               12.05001122                0.10891113               -0.02707738                0.11837106               -0.15839145                1.40420534                8.86064099                3.51420671
               8.72188483                3.86705084               11.99974830                0.37667352                0.05578455                0.16991125               -0.28913848                0.41590116                2.59892302                2.24434246
               9.72349110                3.81395603               11.89810260                0.88798959                0.27298975                0.31255483               -0.94793263                0.00936358                0.01688706                0.77565198
              10.72734463                3.76155902               11.79609206                1.00000000                0.38535255                0.45668045               -1.61586454               -0.04817202                0.00345836               -0.57180774
               0.77301667                5.21649705               12.15997218                1.00000000               -0.23021534               -0.33259382                1.12215057               -0.04917969                0.02386272                1.06744696
               1.77071451                5.16393441               12.04697226                0.72906548               -0.12278848               -0.13517794                0.42062113               -0.01516151                0.07123446               -0.41377625
               2.77056090                5.11063431               11.93483964                0.06046703                0.20533028                0.06508867               -0.27769857                0.54808314                6.24183976               -1.87088240
               3.77482112                5.06762432               11.94531456                0.00010000                0.35739129                0.22080812               -0.10920300                1.40377243               13.60405307               -0.28448526
               4.77770872                5.02755885               11.98195054                0.00010000                0.21295715                0.15070970               -0.03550494                1.69615958               14.91529819                0.46792251
               5.77908026                4.98841347               12.02065674                0.00010000                0.05547988                0.07874853                0.05248338                1.79190969               15.02459898                1.31023259
               6.77881832                4.95044062               12.06143920                0.00010000               -0.11871854                0.03028845                0.14261969                1.82535336               15.16062251                2.31409737
               7.77670589                4.91420547               12.10466017                0.11959695               -0.19382407                0.02177249                0.22161794                1.21238823               10.08593573                3.49782186
               8.77494184                4.86795606               12.04551321                0.39413874               -0.05536987                0.02284752                0.08563752                0.33053596                2.47984789                1.91420269
               9.77559849                4.81648583               11.93713776                0.91369073                0.17971050                0.19813968               -0.61637564                0.00963898                0.01335841                0.60114123
              10.77853605                4.76570550               11.82856312                1.00000000                0.29375554                0.37304992               -1.32179699               -0.04593099                0.00880556               -0.70782078
               0.82411041                6.21352271               12.13548735                1.00000000               -0.15905805               -0.26312844                0.90325688               -0.04748285                0.02846470                1.04628107
               1.82251983                6.16296738               12.01511276                0.69985769               -0.04453426               -0.05760417                0.15990894               -0.01115625                0.08968843               -0.43271577
               2.82321973                6.11171081               11.89588660                0.04900833                0.34549150                0.15211094               -0.58003070                0.49594211                7.81752176               -1.87916184
               3.82942966                6.06960485               11.93013839                0.00010000                0.49996613                0.18959151               -0.28554379                1.20985704               16.28061717               -0.32871898
               4.83321905                6.02880545               11.98214663                0.00010000                0.25308149                0.10478942               -0.06703395                1.41218363               17.21607484                0.42237390
               5.83449129                5.98893660               12.03743942                0.00010000               -0.00387988                0.02363816                0.16074864                1.51533997               17.43086835                1.27885996
               6.83314145                5.95037871               12.09606293                0.00010000               -0.26917822               -0.05170219                0.39633936                1.56909182               17.67003550                2.26402878
               7.82910773                5.91371658               12.15828230                0.12930248               -0.34631336               -0.12753602                0.63520149                0.99426217               11.20730569                3.38481551
               8.82621518                5.86750779               12.08951004                0.40968798               -0.15866393               -0.10524596                0.44004229                0.23635991                2.33334796                1.78930454
               9.82593445                5.81791882               11.97477289                0.93639473                0.08857460                0.09297220               -0.29948018                0.00901512                0.02269856                0.50685748
              10.82798668                5.76902001               11.85971237                1.00000000                0.20522284                0.29210122               -1.03996977               -0.04386279                0.01179592               -0.78460645
               0.87317766                7.21123448               12.11072772                1.00000000               -0.08743708               -0.19616776                0.68351227               -0.04544863                0.03149642                1.01664425
               1.87230328                7.16278232               11.98296758                0.67013602                0.03323063                0.02143154               -0.10112470               -0.00639270                0.10939428               -0.46210219
               2.87384227                7.11367653               11.85669615                0.03724888                0.48101650                0.24408867               -0.88228660                0.38563941                9.35055236               -1.90274850
               3.88192361                7.07141615               11.91383627                0.00010000                0.63891931                0.17345957               -0.47531374                0.93326106               18.92261485               -0.46617570
               4.88662065                7.02965464               11.98141801                0.00010000                0.29450943                0.06220600               -0.10703545                1.10344540               19.51843286                0.31814624
               5.88781380                6.98888623               12.05317729                0.00010000               -0.06002421               -0.03146605                0.26568792                1.21524359               19.81907104                1.13289057
               6.88542017                6.94940657               12.12949509                0.00010000               -0.41758720               -0.13659470                0.65420993                1.25789320               20.16370298                2.08106866
               7.87946206                6.91165474               12.21068715                0.13815209               -0.49766884               -0.27997437                1.06327106                0.74570225               12.34028175                3.23757379
               8.87546679                6.86585114               12.13272816                0.42350945               -0.25977466               -0.22172624                0.77943700                0.14822606                2.20271321                1.73290172
               9.87426657                6.81834528               12.01168672                0.95654054               -0.00051910               -0.00440425                0.00476903                0.00775532                0.02950905                0.47013658
              10.87545641                6.77154752               11.89022072                1.00000000                0.11898453                0.21606980               -0.76918058               -0.04256007                0.01311704               -0.80226871
               0.92010575                8.20959935               12.08558529                1.00000000               -0.01558233               -0.13352294                0.46365868               -0.04308387                0.03738015                0.98098693
               1.91994993                8.16339602               11.95046077                0.64020773                0.10964686                0.10292171               -0.36112927               -0.00167159                0.13425853               -0.50722854
               2.92229869                8.11659258               11.81721370                0.02522444                0.60834214                0.34142099               -1.18287527                0.21096054               10.81049002               -1.88174151
               3.93211677                8.07307405               11.89569886                0.00010000                0.77595906                0.14195197               -0.65683645                0.56440450               21.50602358               -0.55764824
               4.93781787                8.03004957               11.97910458                0.00010000                0.34637278                0.00253044               -0.14883531                0.77317091               21.80504560                0.19290790
               5.93904423                7.98830727               12.06663996                0.00010000               -0.11435337               -0.07365221                0.36165344                0.89117113               22.15486322                0.86844078
               6.93553080                7.94764682               12.16024389                0.00010000               -0.57335148               -0.18911027                0.90118542                0.88532350               22.68203317                1.68427301
               7.92757720                7.90811709               12.26136909                0.14649978               -0.65208149               -0.41392310                1.48942018                0.45678744               13.58176613                2.91540290
               8.92248917                7.86307326               12.17560982                0.43616545               -0.35920104               -0.33031821                1.10786623                0.06581037                2.13982022                1.64887236
               9.92039318                7.81783074               12.04840798                0.97509785               -0.08790954               -0.09666523                0.29963745                0.00532818                0.04036701                0.48576207
              10.92073098                7.77334141               11.92065443                1.00000000                0.03378058                0.14456879               -0.50463269               -0.04154833                0.01673159               -0.78117485
               0.96472265                9.20856402               12.06003748                1.00000000                0.05539685               -0.07559451                0.24528221               -0.04114331                0.02778983                0.80804540
               1.96527662                9.16484076               11.91737159                0.61080233                0.18303973                0.18645172               -0.61939128                0.00129359                0.21672006               -0.48533691
               2.96838345                9.12050495               11.77843489                0.01301580                0.72390463                0.43458295               -1.47117987               -0.04907991               12.28060559               -1.46007962
               3.97975471                9.07425519               11.87714001                0.00010000                0.92336984                0.03778865               -0.81379047                0.17993242               23.98481240               -0.39734674
               4.98685084                9.02970525               11.97516578                0.00010000                0.41426344               -0.04196317               -0.18712118                0.41574307               23.94262876                0.09233445
               5.98803998                8.98741319               12.07639983                0.00010000               -0.17670120               -0.10361067                0.44096725                0.51963118               24.31350407                0.48433085
               6.98331682                8.94562437               12.18535408                0.00010000               -0.74343092               -0.18930822                1.11312701                0.45372959               25.16185777                0.96412835
               7.97317136                8.90337628               12.30733601                0.15502224               -0.81237327               -0.49256574                1.88236831                0.16448294               15.03167775                1.91999470
               8.96706935                8.85924478               12.21722428                0.44877894               -0.45331923               -0.42636060                1.42205078               -0.01380962                2.32320459                1.18678728
               9.96410498                8.81641197               12.08553737                0.99398552               -0.17326267               -0.18620185                0.59080424                0.00128151                0.11557794                0.45801536
              10.96360410                8.77443890               11.95129459                0.99974143               -0.05008781                0.07462176               -0.24283918               -0.04303634               -0.00900294               -0.64140446
               1.00672942               10.20808746               12.03134869                1.00000000                0.13054606               -0.04765595                0.01781635                0.10443500                0.43730985                0.65601177
               2.00803488               10.16712505               11.88528694                0.79682083                0.25866236                0.22842918               -0.86589182                0.13566453                0.85005277               -0.43561597
               3.01190266               10.12528424               11.74744526                0.50295371                0.92401231                0.47792953               -1.70517149               -0.31283996               13.85133244               -1.07653028
               4.02651512               10.07382982               11.86152280                0.43521441                1.05360343               -0.04253680               -0.93524094               -0.12765572               25.99638349               -0.19619435
               5.03297473               10.02921031               11.96980709                0.43027945                0.35013045               -0.04949351               -0.22117050                0.23265079               25.70680577                0.07685684
               6.03351773                9.98623506               12.08108639                0.45217134               -0.21662142               -0.11781284                0.49722488                0.28029199               26.12182008                0.29498626
               7.02864230                9.94386065               12.20090641                0.49828289               -0.81356441               -0.17637135                1.26616450                0.13408417               27.21764631                0.56853423
               8.01724644                9.89826578               12.33799063                0.58052020               -0.97325047               -0.51105036                2.15799640               -0.05822229               16.61009616                1.18719723
               9.00917729                9.85454605               12.25097719                0.72882585               -0.60108759               -0.46987319                1.69904965                0.00284001                3.21858531                0.79032178
              10.00522469                9.81410670               12.12169110                1.00000000               -0.26804442               -0.23052691                0.87945891                0.12636105                0.69235754                0.40857013
              11.00381640                9.77483385               11.98430183                1.00000000               -0.14082867                0.03949484                0.03814004                0.09394470                0.28979760               -0.51518012
               0.56781004                0.27760949               13.30272967                1.00000000               -0.54989706               -0.61875965                2.14857694               -0.12583352               -0.76215230                0.81661621
               1.56231107                0.20842382               13.21421907                1.00000000               -0.44816690               -0.45472532                1.62048920               -0.08548840               -0.76913210               -0.03140154
               2.55884670                0.13909942               13.12552926                0.71528108               -0.12776631               -0.31744838                1.08688524                0.07780720               -0.47126845               -0.73794090
               3.55975575                0.07343651               13.04304915                0.52277259                0.39751609               -0.18541828                0.56059000                0.32702565                1.21183000               -0.09500056
               4.56679703                0.01912873               12.98844296                0.45313202                0.70964284               -0.11069262                0.08980419                0.30013065                3.96851086               -0.08215905
               5.57394860               -0.02235377               12.96230313                0.46127746                0.38345635               -0.00928094               -0.32621637                0.13779785                5.21791476               -0.00758218
               6.57446615               -0.06318517               12.93391552                0.53626856               -0.05695057                0.15087335               -0.72772327                0.22445635                3.74913483                0.05688275
               7.57280959               -0.11457097               12.87863599                0.69357897               -0.00677688                0.31681477               -1.18153383                0.22736901                1.32958307                0.09927829
               8.57433062               -0.17561394               12.80149022                0.97403456                0.33827030                0.48140881               -1.69323863                0.07852677               -0.17944454                0.36129499
               9.57957500               -0.24036143               12.71569152                1.00000000                0.62864043                0.63434825               -2.23610665               -0.07377917               -0.57950930                0.21162991
              10.58690342               -0.30516155               12.63036843                1.00000000                0.73284271                0.78828019               -2.76657028               -0.13324075               -0.54832532               -0.54014276
               0.63573738                1.27142189               13.27339935                1.00000000               -0.50261533               -0.58769729                1.93339256               -0.04546728               -0.04295773                1.05906196
               1.63071122                1.20387657               13.18423266                1.00000000               -0.43094732               -0.41950384                1.40482379               -0.00965796                0.02307880               -0.06787692
               2.62711843                1.13592493               13.09632698                0.27964044               -0.38499392               -0.27740519                0.87824440                0.18841962                1.07976006               -1.10870093
               3.62301135                1.07158233               13.02829474                0.00258765               -0.47124796               -0.16764634                0.43198327                0.76314854                3.17633474               -1.34187125
               4.61769347                1.01802180               12.98237079                0.00624847               -0.32639098                0.30633650                0.02149073                1.55865264                5.74993596                0.37207793
               5.61648353                0.97755342               12.96599158                0.00878155                0.25629210                0.11508193               -0.31359091                1.89595167                7.05343322                0.27665516
               6.62281931                0.93832357               12.94699616                0.01423433                0.74070711               -0.04522453               -0.63248620                1.55440556                5.46756874                0.19641721
               7.63129767                0.88859718               12.90018871                0.24229830                0.75958998                0.33676370               -1.01663019                0.83639877                3.02528191                1.34313372
               8.63801111                0.82920015               12.83318829                0.66671096                0.61566708                0.45355727               -1.46208151                0.26955765                1.35639601                1.03213592
               9.64361101                0.76598205               12.75322634                1.00000000                0.61800127                0.59265466               -1.95830309                0.02564214                0.43525351                0.51412712
              10.65037114                0.70272125               12.66769826                1.00000000                0.67601289                0.74204230               -2.49411485               -0.05094303                0.16283114               -0.57461823
               0.70199135                2.26585554               13.24883775                1.00000000               -0.43764780               -0.52818477                1.73904878               -0.04636369                0.12424787                1.27111977
               1.69761487                2.20003374               13.15347454                0.83535252               -0.35410076               -0.35268629                1.18386056               -0.01140354                0.20586793               -0.25872890
               2.69490934                2.13355131               13.05967567                0.11106658               -0.23465133               -0.19354259                0.64849520                0.19151865                1.41680235               -1.79552174
               3.69292185                2.07008358               12.98855019                0.00010000               -0.14551759                0.15184412                0.19375225                1.46386640                5.92736304               -1.23602168
               4.69199899                2.02525546               12.98509852                0.00010000               -0.06779897                0.50707148                0.00940559                2.64184241                8.91134919                0.46595982
               5.69156587                1.97994787               12.97493123                0.00010000                0.12557589                0.22785851               -0.23478151                2.78729270                8.41558398                0.72365414
               6.69451050                1.93591034               12.96254178                0.00010000                0.35475598               -0.07191295               -0.48413520                2.60420749                8.06215805                1.02553864
               7.69866099                1.89216431               12.94641897                0.09047812                0.39131964                0.17185396               -0.71757883                1.53702923                5.21067213                2.51137452
               8.70233690                1.83345720               12.87816878                0.36248335                0.39528745                0.42119306               -1.14227139                0.34957752                1.94483704                2.64513593
               9.70656674                1.77149166               12.79667576                0.90682012                0.50346373                0.51739052               -1.65699621                0.04822475                0.73960475                0.99412695
              10.71240617                1.70967929               12.70418349                1.00000000                0.58394337                0.64978301               -2.22788171               -0.04068191                0.19484791               -0.51652382
               0.76645371                3.26085820               13.22369156                1.00000000               -0.36663221               -0.46759130                1.53558718               -0.04995652                0.04131618                1.19447443
               1.76278739                3.19682284               13.11963600                0.77592744               -0.27773715               -0.28346682                0.93008918               -0.01631241                0.10111924               -0.42761902
               2.76089897                3.13205408               13.01670524                0.08240345               -0.11014284               -0.10352216                0.33555036                0.39731750                3.25835271               -2.09001762
               3.76058453                3.07461921               12.97582092                0.00010000               -0.01164651                0.40510194                0.15228630                1.49915891                8.65741977               -0.00212383
               4.76066604                3.02816323               12.98164102                0.00010000                0.04949821                0.25468817               -0.00701715                2.16315465               10.93959415                0.30315127
               5.76157449                2.98211059               12.98772705                0.00010000                0.10104949                0.18364030               -0.14868249                2.27866868               10.79413525                1.05445308
               6.76268703                2.93688531               12.99193275                0.00010000                0.14584500                0.09706009               -0.30070079                2.19997393               10.40304398                1.94432358
               7.76449139                2.89203426               12.99136620                0.09559482                0.14941412                0.05707389               -0.48527248                1.49912815                7.68004920                3.03638583
               8.76567531                2.83762401               12.94205228                0.35325934                0.19310111                0.33246829               -0.70800872                0.45641259                2.77091647                3.12509975
               9.76835342                2.77632986               12.84370230                0.84905289                0.37534671                0.43272665               -1.31077575                0.01781895                0.18149024                1.06717362
              10.77318224                2.71571691               12.74246796                1.00000000                0.48288258                0.56096707               -1.94254359               -0.04516921                0.04154494               -0.46145417
               0.82906294                4.25650372               13.19754910                1.00000000               -0.29701939               -0.40038271                1.32118477               -0.04903988                0.02163427                1.13146665
               1.82609274                4.19436441               13.08544189                0.74597510               -0.20018095               -0.20796538                0.67416332               -0.01616958                0.06224514               -0.44647577
               2.82505932                4.13148087               12.97407489                0.07018076                0.03515658               -0.01500804                0.03198037                0.51150789                5.01439244               -2.03406297
               3.82679588                4.07818562               12.96104184                0.00010000                0.13556890                0.29800210                0.04126425                1.45371366               11.54145594               -0.22234805
               4.82777070                4.03034922               12.98139234                0.00010000                0.08106438                0.19758446               -0.01076553                1.87247387               13.22166146                0.47738317
               5.82841716                3.98362067               13.00356649                0.00010000                0.04078072                0.12723784               -0.05040279                1.95047903               13.24707807                1.28601002
               6.82858631                3.93785155               13.02597478                0.00010000               -0.02561556                0.07839124               -0.09542338                1.94670580               13.19022344                2.30407822
               7.82790485                3.89330578               13.04839829                0.10660845               -0.07083838                0.10417697               -0.16476267                1.34113977                9.42862726                3.68871352
               8.82716954                3.84010657               12.99676347                0.37076557                0.04626809                0.16984843               -0.30535779                0.40977040                2.87139987                2.40221984
               9.82883021                3.78014620               12.88849915                0.87144772                0.27795749                0.32278511               -0.97059914                0.00868585                0.02254023                0.84084894
              10.83272869                3.72089863               12.77977080                1.00000000                0.38984797                0.47714284               -1.64633214               -0.04773192                0.00363535               -0.58665366
               0.88975154                5.25285054               13.17109369                1.00000000               -0.22646914               -0.33008924                1.10373845               -0.04820084                0.02273273                1.10723268
               1.88748684                5.19266353               13.05115497                0.71750947               -0.12218135               -0.13171155                0.41555939               -0.01356492                0.07140303               -0.45636741
               2.88730791                5.13175392               12.93211879                0.05893852                0.16518037                0.06957207               -0.26878663                0.52227761                6.67263218               -1.99618747
               3.89079045                5.08057925               12.94424370                0.00010000                0.26862757                0.21957010               -0.10358440                1.31831779               14.41634341               -0.33610293
               4.89268046                5.03211492               12.98162529                0.00010000                0.11456489                0.15511734               -0.02856075                1.58631211               15.69160876                0.48133437
               5.89308175                4.98465535               13.02119945                0.00010000               -0.03722151                0.08133598                0.05656221                1.67276370               15.81093572                1.38280880
               6.89193603                4.93845313               13.06285046                0.00010000               -0.20112919                0.02710377                0.13994764                1.69978413               15.94485461                2.44973836
               7.88905917                4.89411780               13.10680420                0.11707556               -0.24528632                0.01335109                0.20784123                1.14153021               10.76399933                3.70819570
               8.88703030                4.84102098               13.04628722                0.38777584               -0.06620489                0.02342032                0.07144694                0.32529479                2.76885777                2.04302874
               9.88773507                4.78278556               12.93084838                0.89628969                0.18462117                0.20878467               -0.63934154                0.00858824                0.01568987                0.65119901
              10.89072273                4.72525977               12.81516957                1.00000000                0.29876592                0.39422296               -1.35491040               -0.04576609                0.00839835               -0.73237582
               0.94847294                6.24990193               13.14441902                1.00000000               -0.15548740               -0.26039298                0.88475831               -0.04670414                0.02693907                1.08458052
               1.94691807                6.19173018               13.01669296                0.68898554               -0.04418954               -0.05446126                0.15574839               -0.00985121                0.08951921               -0.47614727
               2.94758915                6.13287231               12.89015058                0.04772461                0.29415806                0.15571434               -0.56949780                0.46826601                8.33237967               -2.00419491
               3.95280123                6.08257702               12.92732767                0.00010000                0.39158450                0.19578036               -0.27622430                1.12430061               17.27046409               -0.40401971
               4.95542084                6.03345157               12.98152069                0.00010000                0.13664956                0.11939336               -0.05758259                1.30109007               18.17439164                0.42122633
               5.95553422                5.98524739               13.03907435                0.00010000               -0.11506511                0.03597965                0.16655580                1.38565662               18.39830267                1.34526180
               6.95311954                5.93839362               13.10001310                0.00010000               -0.36833043               -0.04781632                0.39384509                1.42860697               18.64391400                2.40354287
               7.94816761                5.89357281               13.16454649                0.12683072               -0.40559339               -0.13224885                0.61794445                0.91239905               11.97438845                3.61261716
               8.94500767                5.84057498               13.09385879                0.40337722               -0.17022126               -0.10615819                0.43143945                0.22915662                2.61196537                1.89729335
               9.94476319                5.78432189               12.97167062                0.91898734                0.09286484                0.10215799               -0.31933805                0.00788269                0.02366350                0.54180365
              10.94686497                5.72878309               12.84914377                1.00000000                0.21017815                0.31166653               -1.07233845               -0.04406478                0.01138656               -0.82031082
               1.00516097                7.24764268               13.11746319                1.00000000               -0.08415270               -0.19305961                0.66526207               -0.04484849                0.02974694                1.05401594
               2.00431944                7.19157431               12.98194486                0.66035544                0.03327055                0.02396241               -0.10397833               -0.00532913                0.10909607               -0.50499075
               3.00582638                7.13486821               12.84795044                0.03637441                0.41888819                0.24606967               -0.86947479                0.36156429                9.94295573               -2.02599181
               4.01269721                7.08449486               12.90916113                0.00010000                0.51027551                0.19002668               -0.46032044                0.85942512               20.08632771               -0.54361311
               5.01603189                7.03450279               12.98041718                0.00010000                0.15778104                0.09007946               -0.09325253                0.99849527               20.66450158                0.31029735
               6.01585283                6.98537494               13.05588032                0.00010000               -0.19245677               -0.00581120                0.27478079                1.07877066               20.97431835                1.18919040
               7.01218276                6.93749681               13.13603818                0.00010000               -0.53635182               -0.12419253                0.65408260                1.10154648               21.33627253                2.21155428
               8.00512579                6.89147282               13.22124613                0.13597047               -0.56592019               -0.28315191                1.04793800                0.64915237               13.18428604                3.46631927
               9.00086435                6.83889781               13.14051036                0.41769412               -0.27205942               -0.22520837                0.77821607                0.13710816                2.45454285                1.82514431
               9.99968460                6.78482872               13.01165544                0.93985497                0.00273354                0.00201984               -0.00980838                0.00652222                0.02952175                0.49330210
              11.00091902                6.73149310               12.88237894                1.00000000                0.12344198                0.23257713               -0.79851668               -0.04313044                0.01268029               -0.84620800
               1.05971273                8.24604074               13.09012584                1.00000000               -0.01267627               -0.12989326                0.44601867               -0.04270283                0.03574906                1.01843085
               2.05958597                8.19220942               12.94684836                0.63190893                0.10935802                0.10452172               -0.36227226               -0.00091628                0.13415590               -0.54843677
               3.06189989                8.13779370               12.80548231                0.02489816                0.53845937                0.34090268               -1.16670103                0.19796169               11.48319535               -1.99657198
               4.07035515                8.08637756               12.88924154                0.00010000                0.63053890                0.17111460               -0.63632242                0.51736683               22.84207882               -0.61718346
               5.07451067                8.03525316               12.97771411                0.00010000                0.18802307                0.04653512               -0.13021372                0.68651510               23.13230256                0.18596065
               6.07411562                7.98513117               13.07032572                0.00010000               -0.27290397               -0.02912663                0.37477366                0.76106189               23.49562673                0.90972687
               7.06905259                7.93590977               13.16927654                0.00010000               -0.71829793               -0.16060705                0.90456956                0.71691692               24.05771077                1.78763409
               8.05974966                7.88790977               13.27620963                0.14480313               -0.73293271               -0.41257087                1.47768431                0.33923626               14.50098590                3.12202841
               9.05439393                7.83607081               13.18671171                0.43124383               -0.37256538               -0.33616012                1.11417399                0.04821245                2.35979833                1.72622064
              10.05229835                7.78436229               13.05136767                0.95985732               -0.08601578               -0.09393416                0.29225610                0.00360178                0.04004999                0.50196751
              11.05267362                7.73343464               12.91547542                1.00000000                0.03752693                0.15798902               -0.53070074               -0.04271886                0.01625531               -0.82924363
               1.11196955                9.24504482               13.06239946                1.00000000                0.05786051               -0.07133069                0.22851399               -0.04094108                0.02525361                0.84112749
               2.11254816                9.19366474               12.91118690                0.60425365                0.18239658                0.18697512               -0.61889828                0.00167154                0.22109768               -0.51939358
               3.11561748                9.14168626               12.76384200                0.01329690                0.65184680                0.43132151               -1.45156006               -0.04241214               13.04356789               -1.54040013
               4.12558509                9.08791715               12.86913828                0.00010000                0.76955494                0.08209198               -0.78925005                0.16652965               25.49038978               -0.42521234
               5.13100858                9.03543349               12.97341747                0.00010000                0.24161801                0.01238349               -0.16430395                0.36556165               25.43731693                0.08939120
               6.13041745                8.98479241               13.08089991                0.00010000               -0.36330428               -0.04261587                0.45770607                0.42932827               25.82800386                0.50609761
               7.12374250                8.93428467               13.19652324                0.00010000               -0.93339863               -0.12612334                1.11949878                0.31618010               26.73664389                1.01956048
               8.11174948                8.88322140               13.32611643                0.15388367               -0.91832063               -0.47235065                1.87292133                0.04262872               16.03619494                2.04904517
               9.10537608                8.83217461               13.23149917                0.44497315               -0.46783341               -0.43161079                1.43523702               -0.04115206                2.52531207                1.23620547
              10.10239281                8.78295004               13.09144011                0.98073771               -0.17280683               -0.18689225                0.59100839               -0.00183654                0.11958025                0.46950093
              11.10191995                8.73465288               12.94875339                0.99978236               -0.04728649                0.08520070               -0.26552101               -0.04389259               -0.00907971               -0.68096554
               1.16165406               10.24461413               13.03144468                1.00000000                0.13238940               -0.04306917                0.00254718                0.10193103                0.45267623                0.68392466
               2.16297796               10.19594893               12.87664519                0.79409074                0.25725881                0.22841839               -0.86413539                0.13328043                0.88830420               -0.46300685
               3.16679924               10.14642013               12.73051990                0.50327144                0.84802805                0.47338742               -1.68441745               -0.27830082               14.71467917               -1.12790028
               4.17993852               10.08801940               12.85232380                0.43600414                0.90737023                0.01022462               -0.90776952               -0.11062278               27.66090530               -0.21047032
               5.18494664               10.03550083               12.96773586                0.43056048                0.19562429                0.00673370               -0.19538663                0.20677903               27.35484597                0.07599254
               6.18385100                9.98427885               13.08616358                0.45209507               -0.39997257               -0.05135551                0.51624516                0.23767906               27.79469815                0.30802640
               7.17694719                9.93338730               13.21361456                0.49806728               -1.05693581               -0.08973627                1.27361146                0.02966483               28.96208761                0.60125655
               8.16271229                9.87846275               13.35952596                0.58010661               -1.15524682               -0.47586498                2.14801362               -0.20115473               17.71959893                1.26208350
               9.15384226                9.82743859               13.26804301                0.72725350               -0.64644682               -0.47360173                1.71507839               -0.04529838                3.45972284                0.81981070
              10.14978335                9.78062444               13.13048318                0.99772267               -0.27260798               -0.23256002                0.88504864                0.12405691                0.72876416                0.41629535
              11.14839010                9.73513865               12.98458324                1.00000000               -0.13932550                0.04857735                0.01745621                0.09843589                0.31312284               -0.54487209
               0.65111126                0.31639877               14.32414292                1.00000000               -0.54822987               -0.61522498                2.13582845               -0.12374656               -0.80612636                0.85913331
               1.64562896                0.23917582               14.23039302                1.00000000               -0.44915524               -0.45262057                1.61452826               -0.08366515               -0.81632323               -0.03119564
               2.64212815                0.16178610               14.13641222                0.71399856               -0.14041884               -0.31522688                1.08857003                0.07285642               -0.51730327               -0.77362336
               3.64282058                0.08786908               14.04871633                0.52308655                0.35550782               -0.18225401                0.57089231                0.30436878                1.19412319               -0.09726153
               4.64923831                0.02470722               13.98941026                0.45362918                0.64715354               -0.09631798                0.10172363                0.27909010                3.99664579               -0.08436959
               5.65576366               -0.02617588               13.95904701                0.46153575                0.34758581                0.01233693               -0.32629959                0.12649323                5.27498814               -0.00604058
               6.65619003               -0.07615659               13.92657152                0.53590149               -0.05043698                0.16730110               -0.74206744                0.20807841                3.79434069                0.06063150
               7.65475492               -0.13592920               13.86671713                0.69207896                0.01387707                0.32703941               -1.20309322                0.21163452                1.33033705                0.10486903
               8.65646757               -0.20477199               13.78444244                0.97025767                0.35259179                0.48826838               -1.71696910                0.07141212               -0.21730606                0.37806668
               9.66180675               -0.27709873               13.69320944                1.00000000                0.63723623                0.64118052               -2.26082554               -0.07283935               -0.62448052                0.22637122
              10.66921229               -0.34945261               13.60258969                1.00000000                0.74055422                0.79620322               -2.78950859               -0.13276231               -0.58588437               -0.58119092
               0.72709675                1.31024652               14.29266349                1.00000000               -0.49981063               -0.58464675                1.92083799               -0.04404768               -0.04595723                1.11072526
               1.72209864                1.23464961               14.19825427                1.00000000               -0.42933326               -0.41753980                1.39934750               -0.00808861                0.02066573               -0.07052949
               2.71851009                1.15863384               14.10512422                0.27748137               -0.38474663               -0.27522455                0.87951962                0.18185755                1.11946605               -1.15323195
               3.71440371                1.08604654               14.03267342                0.00281051               -0.47291954               -0.16300498                0.44118900                0.73068304                3.27692837               -1.39753534
               4.70905169                1.02374404               13.98264031                0.00665248               -0.34716095                0.29276574                0.03012326                1.47337929                5.91162388                0.39816878
               5.70746049                0.97394749               13.96283785                0.00934318                0.20478888                0.12060144               -0.31854514                1.79627364                7.26792588                0.31311062
               6.71314747                0.92551642               13.94057913                0.01384877                0.68592353               -0.02975280               -0.65195824                1.47622511                5.66005036                0.23062182
               7.72117896                0.86734119               13.88990029                0.24037207                0.73094899                0.34062425               -1.04198266                0.78691197                3.15357821                1.41754423
               8.72776645                0.80011069               13.81844472                0.66085630                0.61198508                0.45870217               -1.48744651                0.25537153                1.42812912                1.09510133
               9.73341867                0.72931308               13.73353432                1.00000000                0.62360501                0.59861997               -1.98054358                0.02478564                0.46178428                0.54053151
              10.74023855                0.65850942               13.64264858                1.00000000                0.68198871                0.75128267               -2.51605478               -0.05119407                0.16904666               -0.61874491
               0.80142413                2.30470584               14.26615319                1.00000000               -0.43442534               -0.52574573                1.72517915               -0.04537495                0.13558375                1.32787711
               1.79707988                2.23082502               14.16528732                0.82384813               -0.35278792               -0.35023718                1.17827804               -0.01024494                0.22721089               -0.28078880
               2.79436837                2.15628161               14.06619161                0.10956859               -0.23779211               -0.19000397                0.65261654                0.18472420                1.48862096               -1.89177792
               3.79232404                2.08460899               13.99055709                0.00010000               -0.17817102                0.14582406                0.20470425                1.38049452                6.17317419               -1.24466359
               4.79080495                2.03056254               13.98523825                0.00010000               -0.12036438                0.47791581                0.01713265                2.48798732                9.26806448                0.50894334
               5.78991675                1.97623615               13.97258893                0.00010000                0.07579369                0.21421024               -0.23486900                2.63487590                8.74650951                0.79356226
               6.79232083                1.92324836               13.95766105                0.00010000                0.29910699               -0.06859368               -0.49328796                2.47615870                8.40129895                1.10744924
               7.79589889                1.87088328               13.93913057                0.08924814                0.36411429                0.16226282               -0.74131609                1.46779297                5.46901765                2.62214918
               8.79960311                1.80440205               13.86664937                0.35836624                0.40024212                0.41772266               -1.16237508                0.33024440                2.06626321                2.81096254
               9.80390373                1.73487367               13.78000540                0.89272514                0.50963046                0.52208694               -1.67723927                0.04429316                0.78711694                1.05398561
              10.80979572                1.66557305               13.68179527                1.00000000                0.58919912                0.66230367               -2.24968298               -0.04173833                0.21412144               -0.55455523
               0.87395089                3.29973161               14.23896749                1.00000000               -0.36329153               -0.46520251                1.52082471               -0.04908984                0.04212864                1.24123254
               1.87031797                3.22764487               14.12890452                0.76462569               -0.27651407               -0.28012837                0.92320012               -0.01491506                0.10715641               -0.46676243
               2.86842061                3.15483376               14.02007893                0.08108388               -0.12926479               -0.09836939                0.33705263                0.37928292                3.47736708               -2.22271262
               3.86773268                3.08896303               13.97742825                0.00010000               -0.06181640                0.38549846                0.16901914                1.39674933                9.09275647                0.04261094
               4.86718428                3.03330236               13.98161516                0.00010000               -0.01302416                0.23960554                0.00118836                2.02286541               11.39885973                0.34475565
               5.86747219                2.97823169               13.98625647                0.00010000                0.04196169                0.16866391               -0.14626362                2.14097131               11.26391002                1.12782942
               6.86802351                2.92414455               13.98890766                0.00010000                0.09544682                0.08442200               -0.30550965                2.07164888               10.85779101                2.04861925
               7.86938113                2.87058645               13.98647560                0.09395681                0.11787188                0.03670593               -0.49542441                1.42904867                8.10568341                3.15419294
               8.87038095                2.80846514               13.93490728                0.34862002                0.18762019                0.32291237               -0.72042833                0.43886106                2.99094338                3.32341927
               9.87313353                2.73975482               13.83050206                0.83461761                0.38120460                0.43766281               -1.32866926                0.01606015                0.19880986                1.14292884
              10.87800504                2.67175550               13.72292215                1.00000000                0.48715082                0.57756405               -1.96591678               -0.04601620                0.04438579               -0.48464452
               0.94461582                4.29540179               14.21067771                1.00000000               -0.29363872               -0.39799141                1.30591057               -0.04804004                0.02138061                1.17139909
               1.94167943                4.22522245               14.09215284                0.73446043               -0.19899720               -0.20444385                0.66767313               -0.01440317                0.06413031               -0.48751665
               2.94063587                4.15431423               13.97441897                0.06871156                0.00554934               -0.00994415                0.03467907                0.48003523                5.34385356               -2.15938328
               3.94179042                4.09231895               13.96149841                0.00010000                0.06788595                0.28267029                0.05060862                1.34746166               12.16574155               -0.23858132
               4.94199359                4.03535465               13.98132546                0.00010000                0.00517835                0.18774121               -0.00272814                1.73456697               13.82680869                0.51227823
               5.94189398                3.97960943               14.00308220                0.00010000               -0.02972719                0.11650418               -0.04702739                1.80918780               13.86158373                1.36364375
               6.94139905                3.92493680               14.02501160                0.00010000               -0.08673585                0.06262559               -0.09823443                1.80475611               13.79693842                2.42742765
               7.94015927                3.87161740               14.04671596                0.10453464               -0.10935426                0.08173616               -0.17350427                1.25457468                9.99602188                3.86466023
               8.93921196                3.81086030               13.99364114                0.36520208                0.03876560                0.16280863               -0.31751356                0.39516992                3.14465657                2.56319855
               9.94093458                3.74362693               13.87869062                0.85542639                0.28310370                0.32917597               -0.98962085                0.00802150                0.02892272                0.90497596
              10.94487404                3.67712433               13.76316542                1.00000000                0.39394583                0.49647541               -1.67318119               -0.04743114                0.00418427               -0.60726323
               1.01334876                5.29177178               14.18204695                1.00000000               -0.22312836               -0.32784878                1.08837387               -0.04730430                0.02183373                1.14482364
               2.01111747                5.22355599               14.05528345                0.70618714               -0.12119728               -0.12839545                0.40977849               -0.01188410                0.07221253               -0.49940262
               3.01092481                5.15463487               13.92946391                0.05750545                0.12620060                0.07405198               -0.26434339                0.48285887                7.09850102               -2.12007595
               4.01364148                5.09461643               13.94324287                0.00010000                0.18301673                0.21440381               -0.09652698                1.20503594               15.22194092               -0.38560975
               5.01458514                5.03705718               13.98137932                0.00010000                0.02161586                0.15417227               -0.02084530                1.44559738               16.46306833                0.49840739
               6.01407380                4.98056178               14.02178799                0.00010000               -0.12372431                0.07757674                0.06055703                1.52054139               16.59209442                1.46020174
               7.01211066                4.92539706               14.06423815                0.00010000               -0.27623399                0.01625290                0.13671855                1.54039698               16.72393084                2.58968827
               8.00854912                4.87222117               14.10881699                0.11477499               -0.29179195               -0.00451995                0.19384895                1.04573967               11.44498913                3.91866301
               9.00627482                4.81172132               14.04694215                0.38172154               -0.07595938                0.01851069                0.06125645                0.31177809                3.06392141                2.17798961
              10.00702993                4.74633834               13.92435093                0.87933038                0.18934024                0.21604533               -0.65840654                0.00759246                0.01870034                0.70282108
              11.01006162                4.68168501               13.80146492                1.00000000                0.30316903                0.41400494               -1.38419757               -0.04562947                0.00815295               -0.75993396
               1.08010131                6.28884481               14.15318252                1.00000000               -0.15226553               -0.25819006                0.86942407               -0.04600203                0.02561501                1.12080685
               2.07857866                6.22265454               14.01822772                0.67827896               -0.04343510               -0.05144396                0.15077972               -0.00845291                0.08988927               -0.51982107
               3.07923261                6.15579526               13.88449664                0.04650007                0.24450834                0.15950434               -0.56351258                0.42563961                8.84232132               -2.12761056
               4.08346882                6.09660703               13.92461390                0.00010000                0.28637920                0.20067924               -0.26734201                1.00923878               18.25322477               -0.47393434
               5.08496019                6.03843810               13.98099498                0.00010000                0.02480553                0.13049935               -0.04827715                1.15801400               19.12747509                0.42585208
               6.08396493                5.98116096               14.04077054                0.00010000               -0.22063003                0.04284473                0.17177330                1.22145636               19.36069354                1.41780138
               7.08054759                5.92526186               14.10393983                0.00010000               -0.46075642               -0.05114221                0.39041500                1.25175995               19.61197836                2.54898151
               8.07474981                5.87152700               14.17064119                0.12452485               -0.46086172               -0.14515883                0.60004664                0.80475666               12.74958203                3.84463931
               9.07133036                5.81123051               14.09813883                0.39727215               -0.18135334               -0.11101004                0.42590895                0.21471758                2.90219422                2.01384548
              10.07112274                5.74794784               13.96838613                0.90185954                0.09688758                0.10879668               -0.33609061                0.00661966                0.02514034                0.58088785
              11.07326811                5.68540443               13.83826560                1.00000000                0.21453719                0.33033542               -1.10173748               -0.04427218                0.01089260               -0.85668582
               1.14480925                7.28660798               14.12403296                1.00000000               -0.08112890               -0.19065569                0.65012610               -0.04436755                0.02816410                1.08961444
               2.14399796                7.22252711               13.98088801                0.65062926                0.03379326                0.02653501               -0.10798008               -0.00425505                0.10927111               -0.54784417
               3.14548512                7.15782496               13.83930665                0.03550355                0.35927333                0.24871582               -0.86173481                0.32198548               10.53126567               -2.14701911
               4.15118343                7.09863002               13.90462986                0.00010000                0.38531885                0.20730986               -0.44758631                0.75499690               21.24306799               -0.61503954
               5.15319149                7.03966717               13.97955296                0.00010000                0.02478698                0.11651977               -0.08099135                0.86040983               21.80447248                0.30887011
               6.15167917                6.98141867               14.05867290                0.00010000               -0.32058389                0.01606297                0.28229516                0.90682192               22.12476807                1.25236636
               7.14677982                6.92437422               14.14257674                0.00010000               -0.65017852               -0.11737089                0.65205025                0.90764233               22.50430786                2.34952851
               8.13867560                6.86931800               14.23164591                0.13386043               -0.63157393               -0.29198222                1.03025931                0.52694218               14.04186613                3.70303180
               9.13414834                6.80950112               14.14829248                0.41192960               -0.28435924               -0.23108250                0.77911047                0.11965069                2.72241623                1.92728964
              10.13298841                6.74851427               14.01149055                0.92322731                0.00573327                0.00687898               -0.02221564                0.00491632                0.03017373                0.52216582
              11.13426300                6.68829171               13.87425039                1.00000000                0.12745891                0.24888344               -0.82616077               -0.04363160                0.01213065               -0.89003606
               1.20737570                8.28503170               14.09450566                1.00000000               -0.00991216               -0.12701247                0.43126828               -0.04246531                0.03431945                1.05445721
               2.20727658                8.22318525               13.94321533                0.62346325                0.10968585                0.10644676               -0.36518845               -0.00020211                0.13476771               -0.58955341
               3.20956942                8.16076958               13.79387968                0.02448901                0.47249863                0.34171976               -1.15675713                0.16931451               12.15242583               -2.10896957
               4.21672655                8.10075323               13.88297241                0.00010000                0.49051601                0.20193324               -0.61994911                0.44012585               24.17106231               -0.67221049
               5.21937974                8.04076849               13.97650030                0.00010000                0.03338884                0.09020729               -0.11466940                0.56865246               24.45287544                0.18433834
               6.21739433                7.98148222               14.07413543                0.00010000               -0.42893093                0.01393093                0.38512767                0.59805356               24.83213347                0.95712997
               7.21080112                7.92291444               14.17833528                0.00010000               -0.86162874               -0.13483294                0.90505805                0.51292516               25.43089389                1.89846582
               8.20016175                7.86568736               14.29092278                0.14303432               -0.81370099               -0.41385730                1.46263083                0.19690789               15.43950172                3.33771153
               9.19452710                7.80660886               14.19789330                0.42612793               -0.38656423               -0.34317638                1.12259020                0.02508172                2.60032808                1.81409357
              10.19243047                7.74808542               14.05425310                0.94428842               -0.08432523               -0.09138935                0.28534141                0.00135926                0.04118132                0.52529381
              11.19284059                7.69038209               13.91004042                1.00000000                0.04101255                0.17100269               -0.55570191               -0.04368466                0.01599986               -0.87771273
               1.26765285                9.28406773               14.06460776                1.00000000                0.06031850               -0.06780865                0.21432561               -0.04085796                0.02274629                0.87330511
               2.26825604                9.22465605               13.90499363                0.59722133                0.18252855                0.18815380               -0.62091172                0.00203933                0.22641524               -0.55361897
               3.27130342                9.16465935               13.74940369                0.01337326                0.58654988                0.43004290               -1.43962234               -0.05195686               13.80316154               -1.61951920
               4.27998704                9.10266868               13.86135501                0.00010000                0.62660626                0.12480753               -0.77050900                0.13013400               26.98855309               -0.45090257
               5.28383555                9.04147132               13.97187970                0.00010000                0.07536285                0.06624476               -0.14600855                0.29403727               26.92507182                0.08926321
               6.28149429                8.98169729               14.08555395                0.00010000               -0.55011843                0.01930206                0.47050420                0.31724544               27.33831037                0.53135114
               7.27283318                8.92167756               14.20774406                0.00010000               -1.12874809               -0.06056491                1.12210447                0.15320543               28.31072468                1.08020641
               8.25891933                8.86104085               14.34479444                0.15248885               -1.02906337               -0.44994900                1.86026137               -0.09958751               17.06592878                2.18560900
               9.25225191                8.80263759               14.24592902                0.44061685               -0.48384828               -0.43771403                1.45112592               -0.07334622                2.75484406                1.29397332
              10.24924237                8.74668648               14.09735754                0.96649937               -0.17279806               -0.18694690                0.59158867               -0.00482697                0.12727903                0.48995537
              11.24879595                8.69171177               13.94598417                0.99982012               -0.04464134                0.09473053               -0.28786225               -0.04556426               -0.00997849               -0.72308146
               1.32538191               10.28367553               14.03139963                1.00000000                0.13438326               -0.03922045               -0.01054583                0.10018482                0.46725669                0.71132970
               2.32672574               10.22694832               13.86800423                0.79099817                0.25678684                0.22922743               -0.86542661                0.13171573                0.92671215               -0.49084849
               3.33051764               10.16937044               13.71375691                0.50344862                0.78957635                0.47110843               -1.67192510               -0.26352522               15.57478742               -1.17939939
               4.34251727               10.10324938               13.84336741                0.43674589                0.78571139                0.05806969               -0.88697050               -0.11082963               29.31868092               -0.22502572
               5.34623187               10.04209339               13.96589935                0.43082485                0.05078635                0.06220683               -0.17507392                0.17057637               28.99508043                0.07537289
               6.34353299                9.98186826               14.09141130                0.45198732               -0.58551026                0.01709714                0.53025806                0.18435766               29.46163418                0.32166797
               7.33452167                9.92170314               14.22637864                0.49776930               -1.31615107                0.00255796                1.27627898               -0.09014564               30.70401968                0.63524912
               8.31720997                9.85668838               14.38095090                0.57950557               -1.35535645               -0.43524710                2.13419504               -0.36336383               18.85811642                1.34341960
               9.30741454                9.79785458               14.28527876                0.72528405               -0.69751122               -0.47830075                1.73302611               -0.10083263                3.73684951                0.85490028
              10.30325975                9.74434648               14.13939208                0.99097882               -0.27678992               -0.23400062                0.89273887                0.12284438                0.77518517                0.43563440
              11.30187874                9.69227671               13.98465095                1.00000000               -0.13810086                0.05649366               -0.00319679                0.10130135                0.33435929               -0.57921179
               0.73918732                0.35775103               15.34544624                1.00000000               -0.54720097               -0.61248980                2.12647858               -0.12242836               -0.84816113                0.89960352
               1.73371531                0.27207740               15.24650964                1.00000000               -0.45049957               -0.45057252                1.60931589               -0.08255548               -0.86104436               -0.03139091
               2.73017733                0.18620293               15.14730066                0.71243104               -0.15375710               -0.31220317                1.08883346                0.06611253               -0.55978957               -0.80924869
               3.73064017                0.10357710               15.05446700                0.52328157                0.31109639               -0.17862373                0.57803806                0.27828010                1.17722480               -0.09844218
               4.73639926                0.03098122               14.99047743                0.45407165                0.58234648               -0.08240404                0.11010197                0.25455723                4.01595217               -0.08594894
               5.74228710               -0.03005627               14.95577714                0.46172911                0.31417954                0.03299830               -0.32896579                0.11316269                5.31617702               -0.00380601
               6.74268285               -0.08998776               14.91907417                0.53542510               -0.03708452                0.18342369               -0.75829908                0.18832139                3.82624962                0.06511726
               7.74154541               -0.15883991               14.85457413                0.69035610                0.04046655                0.33745382               -1.22613252                0.19235460                1.32365998                0.11105992
               8.74349218               -0.23605716               14.76715083                0.96601343                0.36963630                0.49523976               -1.74174392                0.06255561               -0.25974279                0.39499776
               9.74893814               -0.31648377               14.67047501                1.00000000                0.64665268                0.64804921               -2.28634848               -0.07182925               -0.67220732                0.24274898
              10.75642523               -0.39690314               14.57457826                1.00000000                0.74870982                0.80439160               -2.81294766               -0.13210420               -0.62493269               -0.62498460
               0.82363666                1.35162613               15.31181611                1.00000000               -0.49728614               -0.58209722                1.91090754               -0.04307279               -0.04845971                1.15979260
               1.81866380                1.26757167               15.21221961                1.00000000               -0.42740287               -0.41548409                1.39340205               -0.00699293                0.01874719               -0.07393788
               2.81508861                1.18308090               15.11391737                0.27492288               -0.38149882               -0.27209437                0.87764597                0.17269226                1.16053704               -1.19661582
               3.81103383                1.10179086               15.03711852                0.00301896               -0.46635467               -0.15708087                0.44628674                0.68874003                3.37574903               -1.45106466
               4.80576151                1.03015718               14.98297326                0.00702435               -0.35653029                0.27391238                0.03501182                1.37060143                6.06152226                0.42606228
               5.80390322                0.97027371               14.95962067                0.00986081                0.15981854                0.12283842               -0.32591865                1.67377220                7.46498569                0.35455049
               6.80895788                0.91184647               14.93395699                0.01334446                0.63002153               -0.01407182               -0.67323553                1.37864532                5.84064459                0.27265289
               7.81650365                0.84453463               14.87934905                0.23818219                0.69908897                0.34359458               -1.06889264                0.72781891                3.27839009                1.49486530
               8.82293966                0.76889524               14.80343936                0.65442044                0.60695918                0.46355250               -1.51416171                0.23786223                1.50129235                1.16162237
               9.82864284                0.68999672               14.71361547                1.00000000                0.62919499                0.60437047               -2.00352773                0.02352902                0.48982554                0.56834811
              10.83552356                0.61114078               14.61737717                1.00000000                0.68807288                0.76088762               -2.53841109               -0.05141328                0.17521543               -0.66600385
               0.90643477                2.34610908               15.28334133                1.00000000               -0.43140945               -0.52338952                1.71348414               -0.04485828                0.14721705                1.38198688
               1.90212068                2.26376772               15.17704010                0.81206539               -0.35113912               -0.34748026                1.17138461               -0.00963798                0.24969202               -0.30418901
               2.89941199                2.18076105               15.07272800                0.10791421               -0.23909942               -0.18542173                0.65194950                0.17508674                1.56179939               -1.98779072
               3.89733869                2.10043548               14.99264428                0.00010000               -0.20417789                0.13696235                0.21072937                1.27840120                6.41603183               -1.24744541
               4.89532843                2.03645947               14.98544117                0.00010000               -0.16327178                0.44069732                0.02245120                2.30092583                9.61609666                0.55510326
               5.89407325                1.97240050               14.97023385                0.00010000                0.03332052                0.19500944               -0.23727188                2.44641504                9.06684223                0.87119202
               6.89599484                1.90973080               14.95267602                0.00010000                0.24898821               -0.06696656               -0.50497123                2.31486530                8.72868072                1.20090104
               7.89905302                1.84803198               14.93159265                0.08798391                0.33962415                0.14990472               -0.76721208                1.37924460                5.72467334                2.74388102
               8.90278733                1.77321389               14.85492128                0.35412846                0.40550813                0.41026904               -1.18385724                0.30498590                2.19237119                2.98561958
               9.90716318                1.69560364               14.76313098                0.87840572                0.51607690                0.52532502               -1.69786239                0.03863101                0.83662252                1.11566251
              10.91310886                1.61831461               14.65918983                1.00000000                0.59456829                0.67565445               -2.27142929               -0.04359284                0.23450496               -0.59672036
               0.98742223                3.34115834               15.25410805                1.00000000               -0.36031484               -0.46284204                1.50853248               -0.04835173                0.04244224                1.28607301
               1.98381908                3.26062207               15.13810000                0.75334005               -0.27498228               -0.27662873                0.91547499               -0.01362291                0.11297623               -0.50695156
               2.98192258                3.17937247               15.02344629                0.07973906               -0.14578256               -0.09264115                0.33427623                0.35434368                3.70171961               -2.35565443
               3.98090343                3.10453011               14.97920130                0.00010000               -0.10537847                0.35819441                0.18482361                1.27320916                9.52725370                0.08839398
               4.97981501                3.03897113               14.98166478                0.00010000               -0.06716163                0.21855763                0.00782548                1.85192186               11.84768981                0.38923688
               5.97956019                2.97417390               14.98480178                0.00010000               -0.00956502                0.14807639               -0.14582872                1.97127262               11.72610176                1.20651173
               6.97962371                2.91050714               14.98582256                0.00010000                0.05226276                0.06694041               -0.31303243                1.91276463               11.30696825                2.16007347
               7.98060545                2.84753272               14.98145772                0.09239713                0.09220046                0.01128108               -0.51063368                1.33681059                8.53207236                3.28307284
               8.98146772                2.77710062               14.92764372                0.34409320                0.18546438                0.30608860               -0.73219284                0.41356015                3.21376970                3.52877927
               9.98431474                2.70050322               14.81712891                0.82039480                0.38810226                0.43966003               -1.34570732                0.01372262                0.21603314                1.21945888
              10.98922977                2.62465386               14.70314962                1.00000000                0.49150283                0.59479976               -1.98818132               -0.04724081                0.04722069               -0.51300083
               1.06654028                4.33685224               15.22366731                1.00000000               -0.29061857               -0.39580676                1.29336000               -0.04706031                0.02114356                1.20962689
               2.06363409                4.25823514               15.09879535                0.72312037               -0.19747241               -0.20107352                0.66059627               -0.01244777                0.06626875               -0.52892360
               3.06259083                4.17890822               14.97476847                0.06728249               -0.02149387               -0.00488702                0.03350497                0.43800751                5.67465449               -2.28333041
               4.06320421                4.10759937               14.96205401                0.00010000                0.00661237                0.26107261                0.06014309                1.21664146               12.78910317               -0.25865851
               5.06272307                4.04083062               14.98133778                0.00010000               -0.06207582                0.17212116                0.00434757                1.56721806               14.42619667                0.54937929
               6.06196270                3.97536203               15.00262594                0.00010000               -0.09158779                0.09985725               -0.04547291                1.63717984               14.47058493                1.44556752
               7.06089132                3.91106961               15.02401010                0.00010000               -0.13834728                0.04057650               -0.10376889                1.63287541               14.40004189                2.55580264
               8.05919575                3.84825760               15.04492820                0.10259834               -0.14016469                0.05165591               -0.18648016                1.14577805               10.56582252                4.04371606
               9.05808803                3.77933567               14.99041320                0.35986529                0.03443207                0.14912284               -0.32717481                0.37231563                3.42189358                2.72811648
              10.05988439                3.70439684               14.86870673                0.83983799                0.28873712                0.33216249               -1.00619395                0.00732579                0.03578435                0.96885134
              11.06386277                3.63021061               14.74630717                1.00000000                0.39783760                0.51535213               -1.69731713               -0.04722087                0.00498433               -0.63292755
               1.14371521                5.33324220               15.19286117                1.00000000               -0.22010762               -0.32600874                1.07580155               -0.04643226                0.02113392                1.18071507
               2.14151414                5.25660060               15.05935054                0.69507330               -0.11983543               -0.12529735                0.40332693               -0.00999131                0.07362714               -0.54278976
               3.14131851                5.17927473               14.92683192                0.05612930                0.08998587                0.07845670               -0.26392969                0.43047673                7.52338513               -2.24269216
               4.14331386                5.10975156               14.94231316                0.00010000                0.10391035                0.20559905               -0.09017284                1.06510021               16.02541616               -0.43465729
               5.14339671                5.04241355               14.98120838                0.00010000               -0.06245244                0.14821765               -0.01445625                1.27550630               17.23097735                0.51850025
               6.14206481                4.97617105               15.02241059                0.00010000               -0.20055341                0.06782402                0.06247793                1.33728303               17.36891902                1.54212383
               7.13938565                4.91131867               15.06558483                0.00010000               -0.34049277               -0.00174730                0.13080652                1.34959662               17.49857334                2.73387613
               8.13525495                4.84856584               15.11068118                0.11261726               -0.33054269               -0.03104627                0.17704219                0.92644554               12.13176507                4.12996859
               9.13277479                4.78008308               15.04751235                0.37589851               -0.08343206                0.00829444                0.05389748                0.28996136                3.36756166                2.31865545
              10.13358631                4.70714647               14.91768025                0.86281811                0.19415125                0.22015918               -0.67443885                0.00663330                0.02236813                0.75571373
              11.13665782                4.63496091               14.78748562                1.00000000                0.30715056                0.43266497               -1.41013079               -0.04550117                0.00809664               -0.79090078
               1.21889484                6.33033207               15.16180750                1.00000000               -0.14930991               -0.25651845                0.85684717               -0.04534008                0.02450471                1.15537461
               2.21740174                6.25572920               15.01970855                0.66773025               -0.04227174               -0.04853885                0.14495920               -0.00688362                0.09089232               -0.56378632
               3.21804940                6.18047736               14.87888032                0.04531094                0.19828268                0.16350277               -0.56178139                0.36867443                9.35071048               -2.24983948
               4.22136739                6.11171135               14.92198083                0.00010000                0.18821549                0.20419998               -0.26076664                0.86580127               19.23331470               -0.54036267
               5.22181371                6.04379498               14.98055515                0.00010000               -0.07820767                0.13806543               -0.04134126                0.98443735               20.07732555                0.43505864
               6.21980324                5.97671851               15.04250982                0.00010000               -0.31626258                0.04431614                0.17417181                1.02496390               20.31914200                1.49575381
               7.21548846                5.91103466               15.10782140                0.00010000               -0.54214923               -0.06133715                0.38377648                1.04142155               20.57503771                2.69975829
               8.20896025                5.84763667               15.17654743                0.12232250               -0.50909220               -0.16569879                0.57913859                0.67296589               13.53543822                4.08009649
               9.20530662                5.77950155               15.10237697                0.39132225               -0.19105122               -0.11969692                0.42258137                0.19282957                3.20639004                2.13824406
              10.20513923                5.70880003               14.96494881                0.88505816                0.10086306                0.11292966               -0.35020496                0.00531082                0.02724243                0.62325090
              11.20732388                5.63886391               14.82710902                1.00000000                0.21846485                0.34783244               -1.12810395               -0.04440426                0.01045051               -0.89464291
               1.29201415                7.32811183               15.13046571                1.00000000               -0.07829784               -0.18884886                0.63762476               -0.04395369                0.02677748                1.12376478
               2.29123117                7.25562982               14.97978526                0.64094753                0.03478450                0.02917711               -0.11315382               -0.00307428                0.11008310               -0.59090521
               3.29270984                7.18254478               14.83071574                0.03461830                0.30405445                0.25199566               -0.85869406                0.26738284               11.11844493               -2.26670717
               4.29731226                7.11383556               14.90020940                0.00010000                0.26842298                0.22484232               -0.43873666                0.62092326               22.39713140               -0.68226070
               5.29807830                7.04517486               14.97879735                0.00010000               -0.09939309                0.14091010               -0.07242737                0.69066273               22.94090963                0.31250421
               6.29532440                6.97705737               15.06152622                0.00010000               -0.43911969                0.03371069                0.28589978                0.70185682               23.27179088                1.32153787
               7.28929591                6.91009193               15.14907918                0.00010000               -0.75385121               -0.11614436                0.64577421                0.67945753               23.66827545                2.49427636
               8.28024738                6.84525186               15.24185131                0.13177090               -0.69139378               -0.30606051                1.00808010                0.38093165               14.91555932                3.94667824
               9.27546803                6.77768914               15.15609257                0.40617501               -0.29586012               -0.23927047                0.78130150                0.09583822                3.00903344                2.03884225
              10.27433017                6.70940507               15.01121112                0.90669757                0.00869679                0.01005730               -0.03291363                0.00320204                0.03163811                0.55587201
              11.27564197                6.64191756               14.86585573                1.00000000                0.13117937                0.26413466               -0.85158249               -0.04399595                0.01156899               -0.93447862
               1.36297979                8.32655509               15.09875120                1.00000000               -0.00724839               -0.12474424                0.41893784               -0.04230577                0.03308598                1.08932124
               2.36290730                8.25631274               14.93954459                0.61487363                0.11057682                0.10868170               -0.36975221                0.00057668                0.13617550               -0.63095767
               3.36519132                8.18551727               14.78234717                0.02398931                0.41242381                0.34369322               -1.15234777                0.12524703               12.82093624               -2.22017375
               4.37115578                8.11620819               14.87684255                0.00010000                0.36069163                0.23342715               -0.60887900                0.33318955               25.49741420               -0.72433839
               5.37240515                8.04661318               14.97542072                0.00010000               -0.11162353                0.13224194               -0.10416651                0.42086531               25.76985249                0.18680427
               6.36892331                7.97739272               15.07802828                0.00010000               -0.57610182                0.05430980                0.39039530                0.40467483               26.16610403                1.00989044
               7.36088312                7.90871177               15.18737770                0.00010000               -0.99708166               -0.11232454                0.90021094                0.27716668               26.80211156                2.01629711
               8.34898167                7.84151546               15.30546224                0.14116688               -0.89064714               -0.41731977                1.44180062                0.03200444               16.39981783                3.56214507
               9.34307018                7.77471614               15.20916351                0.42080019               -0.40034101               -0.35102630                1.13126335               -0.00362322                2.86407195                1.91221759
              10.34097485                7.70900117               15.05707450                0.92844445               -0.08255976               -0.08974472                0.27911348               -0.00082392                0.04375580                0.55455268
              11.34141898                7.64414660               14.90436138                1.00000000                0.04441264                0.18315800               -0.57929393               -0.04419919                0.01594461               -0.92673671
               1.43165274                9.32561695               15.06668598                1.00000000                0.06277874               -0.06490618                0.20230620               -0.04083868                0.02023442                0.90478276
               2.43228052                9.25780346               14.89876866                0.58978077                0.18332944                0.18990002               -0.62508481                0.00246619                0.23261146               -0.58832731
               3.43531933                9.18941865               14.73504955                0.01326186                0.52998107                0.43042211               -1.43420628               -0.07794316               14.56212226               -1.69837955
               4.44288015                9.11850410               14.85372810                0.00010000                0.49958781                0.16429472               -0.75818944                0.07074822               28.48404432               -0.47547809
               5.44531108                9.04781970               14.97049730                0.00010000               -0.07804219                0.11778964               -0.13389526                0.20193371               28.40933487                0.09117717
               6.44131930                8.97814357               15.09031000                0.00010000               -0.72972923                0.08023964                0.47717893                0.18534179               28.84649060                0.55967247
               7.43071650                8.90784544               15.21896533                0.00010000               -1.32181036                0.00556754                1.11850251               -0.03166166               29.88508986                1.14589721
               8.41488310                8.83690547               15.36332166                0.15085429               -1.14033180               -0.42486180                1.84149495               -0.25920018               18.12365017                2.32961033
               9.40790986                8.77066861               15.26052169                0.43576291               -0.49999271               -0.44395163                1.46645284               -0.11137013                3.01257709                1.36011506
              10.40488324                8.70761017               15.10327188                0.95144706               -0.17213672               -0.18665563                0.59034251               -0.00739443                0.13749249                0.51540125
              11.40446713                8.64558072               14.94299614                0.99985154               -0.04161139                0.10371239               -0.30939794               -0.04591786               -0.01065446               -0.76577218
               1.49779000               10.32525696               15.03123376                1.00000000                0.13649289               -0.03599835               -0.02176896                0.09910340                0.48121245                0.73839841
               2.49915493               10.26011074               14.85933666                0.78761371                0.25709079                0.23072830               -0.86923780                0.13087760                0.96546463               -0.51933013
               3.50293181               10.19412571               14.69708140                0.50350449                0.75073816                0.47070658               -1.66630274               -0.26958374               16.43456980               -1.23151784
               4.51416969               10.11949409               14.83458439                0.43743802                0.69362754                0.09899882               -0.87320959               -0.12888274               30.97431434               -0.24031483
               5.51680436               10.04896897               14.96423438                0.43107466               -0.07826419                0.11492714               -0.16164828                0.12449940               30.63080637                0.07466815
               6.51260441                9.97899751               15.09676874                0.45185766               -0.76581901                0.08539477                0.53739935                0.12121800               31.12467761                0.33577810
               7.50148798                9.90882312               15.23914014                0.49740413               -1.58149560                0.09776872                1.27210493               -0.22181559               32.44461182                0.67071652
               8.48097449                9.83301823               15.40220986                0.57874281               -1.56749585               -0.38872380                2.11396883               -0.54016076               20.02921831                1.43056101
               9.47013807                9.76583711               15.30270353                0.72297558               -0.75298151               -0.48315021                1.75048030               -0.16468794                4.04837757                0.89683274
              10.46591486                9.70526806               15.14833795                0.98364332               -0.27892654               -0.23421140                0.89450613                0.12234903                0.82651496                0.45886902
              11.46455954                9.64622085               14.98451930                0.99999913               -0.13553271                0.06401316               -0.02332355                0.10451983                0.35665088               -0.61392504
               0.83202124                0.40165110               16.36667249                1.00000000               -0.54675928               -0.61038230                2.11979860               -0.12237441               -0.88773134                0.93817363
               1.82655365                0.30712805               16.26257934                1.00000000               -0.45231231               -0.44876572                1.60561073               -0.08230228               -0.90239512               -0.03229631
               2.82297500                0.21236771               16.15818889                0.71062397               -0.16826722               -0.30935290                1.08920724                0.05814985               -0.59792387               -0.84494518
               3.82318831                0.12059721               16.06027709                0.52336577                0.26361101               -0.17492315                0.58303249                0.24889458                1.16127280               -0.09823874
               4.82824722                0.03799660               15.99161229                0.45445910                0.51510769               -0.06950510                0.11538999                0.22646256                4.02738029               -0.08703227
               5.83349046               -0.03393907               15.95246769                0.46186423                0.28354052                0.05208548               -0.33420844                0.09777660                5.34303612               -0.00106905
               6.83391803               -0.10461989               15.91140554                0.53485017               -0.01695058                0.19875153               -0.77618726                0.16545679                3.84589225                0.07026277
               7.83315145               -0.18325785               15.84219448                0.68843673                0.07269005                0.34778258               -1.25019651                0.16983458                1.31008053                0.11782557
               8.83537183               -0.26944909               15.74960756                0.96136469                0.38918641                0.50217810               -1.76707370                0.05206456               -0.30648066                0.41191089
               9.84093518               -0.35852466               15.64748247                1.00000000                0.65676557                0.65487397               -2.31227540               -0.07083175               -0.72251429                0.26095683
              10.84850714               -0.44755011               15.54633074                1.00000000                0.75719634                0.81278853               -2.83663912               -0.13131184               -0.66523858               -0.67120832
               0.92532055                1.39554728               16.33088164                1.00000000               -0.49482288               -0.57987366                1.90363204               -0.04320374               -0.05052151                1.20649095
               1.92037233                1.30264039               16.22612231                1.00000000               -0.42493182               -0.41335991                1.38653048               -0.00698495                0.01756734               -0.07831662
               2.91682192                1.20927418               16.12267714                0.27201555               -0.37547592               -0.26854144                0.87422912                0.16163824                1.20401232               -1.23887486
               3.91286281                1.11884798               16.04159915                0.00322116               -0.45209671               -0.15099585                0.45028734                0.63852795                3.47471097               -1.50226270
               4.90777998                1.03730155               15.98334055                0.00736689               -0.35431680                0.24882382                0.03800208                1.25119478                6.20178350                0.45609356
               5.90577647                0.96658178               15.95631948                0.01033520                0.12260007                0.12089777               -0.33483914                1.52971804                7.64605221                0.40061545
               6.91023199                0.89736763               15.92711442                0.01272608                0.57439624                0.00103483               -0.69567649                1.26279040                6.00983669                0.32193118
               7.91726440                0.82021997               15.86852244                0.23573682                0.66469478                0.34550454               -1.09672692                0.66003549                3.39981412                1.57479779
               8.92352588                0.73557269               15.78816148                0.64744775                0.60064868                0.46795877               -1.54168446                0.21722420                1.57604620                1.23161469
               9.92927737                0.64802408               15.69346377                1.00000000                0.63467941                0.60990719               -2.02697782                0.02187679                0.51956636                0.59787866
              10.93621947                0.56057778               15.59188036                1.00000000                0.69420991                0.77081465               -2.56109815               -0.05158176                0.18142299               -0.71589677
               1.01697095                2.39005363               16.30042288                1.00000000               -0.42838937               -0.52100931                1.70461367               -0.04451356                0.15840453                1.43381141
               2.01268705                2.29886085               16.18871501                0.79998288               -0.34853831               -0.34449067                1.16179252               -0.00949069                0.27220134               -0.32832270
               3.01000018                2.20699688               16.07923060                0.10608213               -0.23777780               -0.17969931                0.64392239                0.16241057                1.63739319               -2.08220351
               4.00793150                2.11757729               15.99477167                0.00010000               -0.22314363                0.12365968                0.21560485                1.15863223                6.65962917               -1.24337297
               5.00553731                2.04297308               15.98568727                0.00010000               -0.19563764                0.39444705                0.02624822                2.08296031                9.95748463                0.60467894
               6.00401874                1.96847888               15.96784349                0.00010000               -0.00008323                0.16940314               -0.24174522                2.22438552                9.37721695                0.95615507
               7.00553564                1.89540081               15.94756163                0.00010000                0.20641758               -0.06778408               -0.51899573                2.12241566                9.04480905                1.30501763
               8.00814710                1.82365224               15.92378632                0.08664283                0.31882840                0.13461912               -0.79466238                1.27231501                5.97797552                2.87467105
               9.01191221                1.73991009               15.84297223                0.34971824                0.41102665                0.39880591               -1.20635744                0.27402533                2.32362776                3.16984414
              10.01636763                1.65367348               15.74604815                0.86384214                0.52279482                0.52720806               -1.71889424                0.03135097                0.88842057                1.17988052
              11.02236811                1.56786618               15.63636668                1.00000000                0.60004789                0.69001816               -2.29327440               -0.04630122                0.25608208               -0.64214761
               1.10681584                3.38512710               16.26913814                1.00000000               -0.35765801               -0.46062083                1.49875336               -0.04706902                0.04219526                1.32939702
               2.10323926                3.29575058               16.14721402                0.74201511               -0.27310751               -0.27337057                0.90745408               -0.01151554                0.11842950               -0.54744224
               3.10135369                3.20568020               16.02676446                0.07832947               -0.15900033               -0.08674486                0.32853286                0.32203566                3.93412778               -2.48759376
               4.10005926                3.12132117               15.98112472                0.00010000               -0.14080470                0.32283196                0.19897849                1.12909849                9.96427754                0.13641173
               5.09853760                3.04519049               15.98177167                0.00010000               -0.11114025                0.19127784                0.01267999                1.65284836               12.28715384                0.43647383
               6.09783645                2.96996984               15.98333989                0.00010000               -0.05153287                0.12165417               -0.14786505                1.77180393               12.18107078                1.29018028
               7.09750694                2.89601195               15.98264701                0.00010000                0.01824846                0.04448834               -0.32371054                1.72522475               11.74975615                2.27817560
               8.09820142                2.82291236               15.97626293                0.09085205                0.07391027               -0.01919919               -0.53056915                1.22311898                8.96083430                3.42166822
               9.09898515                2.74354881               15.92026342                0.33958196                0.18734358                0.28219560               -0.74401888                0.38074857                3.44183686                3.74262715
              10.10194829                2.65856824               15.80358791                0.80627207                0.39614466                0.43895710               -1.36243159                0.01089968                0.23309435                1.29796499
              11.10690804                2.57437814               15.68315853                1.00000000                0.49597478                0.61317959               -2.00980666               -0.04877318                0.04993332               -0.54523616
               1.19478260                4.38084121               16.23654491                1.00000000               -0.28789554               -0.39406023                1.28343929               -0.04593527                0.02102900                1.24628963
               2.19190364                4.29339344               16.10536477                0.71189403               -0.19561469               -0.19817918                0.65320700               -0.00996165                0.06884433               -0.57067763
               3.19087030                4.20526198               15.97508907                0.06585962               -0.04502360               -0.00055099                0.02951980                0.38583448                6.00979947               -2.40604820
               4.19100317                4.12403393               15.96270127                0.00010000               -0.04623521                0.23376507                0.06857657                1.06253695               13.41463718               -0.28310937
               5.18994560                4.04679863               15.98141241                0.00010000               -0.11849014                0.15096634                0.00928032                1.37238488               15.02049191                0.58817348
               6.18863337                3.97091197               16.00217275                0.00010000               -0.14239875                0.07752636               -0.04686672                1.43656113               15.07428822                1.53126442
               7.18709763                3.89629058               16.02293623                0.00010000               -0.17803778                0.01256647               -0.11312402                1.43304420               14.99891865                2.68881705
               8.18507261                3.82326826               16.04298636                0.10073256               -0.16131618                0.01444805               -0.20459255                1.01594565               11.14059829                4.22644851
               9.18387130                3.74555400               15.98709765                0.35465798                0.03418401                0.12909221               -0.33554748                0.34131050                3.70618139                2.89781300
              10.18575629                3.66245262               15.85856674                0.82457720                0.29507702                0.33211476               -1.02123529                0.00657540                0.04294595                1.03341224
              11.18977284                3.58012978               15.72921908                1.00000000                0.40165494                0.53435015               -1.71948278               -0.04704630                0.00593165               -0.66259318
               1.28079269                5.37724589               16.20356298                1.00000000               -0.21734255               -0.32467297                1.06569182               -0.04555438                0.02064379                1.21499873
               2.27861926                5.29178700               16.06334999                0.68412116               -0.11813959               -0.12246725                0.39631011               -0.00783398                0.07571312               -0.58668382
               3.27842989                5.20566918               15.92418532                0.05478323                0.05770423                0.08263356               -0.26693433                0.36568578                7.95002708               -2.36456346
               4.27977334                5.12599647               15.94143942                0.00010000                0.03386830                0.19348020               -0.08577070                0.89988813               16.82989814               -0.48483153
               5.27910726                5.04820982               15.98109020                0.00010000               -0.13488062                0.13758343               -0.01090521                1.07780062               17.99627108                0.54049131
               6.27707573                4.97152037               16.02303755                0.00010000               -0.26478625                0.05242198                0.06077373                1.12508059               18.14179525                1.62770618
               7.27381153                4.89626328               16.06685428                0.00010000               -0.39094104               -0.02639515                0.12060734                1.12970329               18.26883951                2.88173856
               8.26925691                4.82320132               16.11235783                0.11054269               -0.35922726               -0.06547260                0.15558630                0.78488839               12.82711183                4.34238151
               9.26662699                4.74613065               16.04802010                0.37023094               -0.08764446               -0.00694131                0.04823401                0.25973435                3.68262700                2.46483683
              10.26750402                4.66521053               15.91086215                0.84669101                0.19929096                0.22146765               -0.68831521                0.00568668                0.02664630                0.80998251
              11.27061281                4.58506514               15.77326230                1.00000000                0.31087866                0.45058417               -1.43333553               -0.04534623                0.00821689               -0.82502371
               1.36478930                6.37434776               16.17031946                1.00000000               -0.14656214               -0.25531593                0.84658099               -0.04471493                0.02361064                1.18843702
               2.36332368                6.29094410               16.02112691                0.65730681               -0.04073772               -0.04570111                0.13830614               -0.00513800                0.09260532               -0.60820780
               3.36397455                6.20691466               15.87326101                0.04413975                0.15683059                0.16773997               -0.56384850                0.29797093                9.85981875               -2.37140437
               4.36646029                6.12790353               15.91939857                0.00010000                0.10015832                0.20633021               -0.25753637                0.69533760               20.21372500               -0.60510103
               5.36597771                6.04955030               15.98016815                0.00010000               -0.16893842                0.14209351               -0.03834533                0.78212392               21.02533627                0.44738934
               6.36308152                5.97196041               16.04425397                0.00010000               -0.39834840                0.04053006                0.17200859                0.79848957               21.27426317                1.57794559
               7.35801074                5.89576267               16.11161536                0.00010000               -0.60892599               -0.07799153                0.37209953                0.80035512               21.53333471                2.85486938
               8.35090300                5.82195880               16.18222396                0.12017262               -0.54769854               -0.19322883                0.55322723                0.51844934               14.33463320                4.31810479
               9.34705677                5.74541517               16.10659046                0.38547350               -0.19837322               -0.13196162                0.42051211                0.16326878                3.52730208                2.26972354
              10.34693554                5.66688198               15.96138203                0.86856095                0.10499633                0.11477458               -0.36233487                0.00401397                0.03006629                0.66839068
              11.34915670                5.58914146               15.81570352                1.00000000                0.22211622                0.36423210               -1.15173814               -0.04443341                0.01013566               -0.93440750
               1.44670571                7.37213957               16.13678545                1.00000000               -0.07561065               -0.18749458                0.62728388               -0.04359227                0.02559551                1.15663617
               2.44594960                7.29087297               15.97862493                0.63128757                0.03620842                0.03192971               -0.11947465               -0.00175760                0.11164596               -0.63440759
               3.44742987                7.20902397               15.82213277                0.03371050                0.25474245                0.25588191               -0.85990470                0.19828635               11.70638447               -2.38577655
               4.45104445                7.13012307               15.89585513                0.00010000                0.16314955                0.24221154               -0.43462666                0.45843514               23.55130721               -0.74688554
               5.45069287                7.05105169               15.97810441                0.00010000               -0.21056476                0.16271600               -0.06904536                0.49106240               24.07554880                0.31973529
               6.44683315                6.97233097               16.06439090                0.00010000               -0.54363140                0.04679263                0.28381747                0.46648284               24.41612341                1.39544683
               7.43982024                6.89470345               16.15549223                0.00010000               -0.84298772               -0.12042201                0.63335926                0.42022038               24.82814924                2.64459797
               8.42997340                6.81933674               16.25180751                0.12966948               -0.74255226               -0.32494444                0.97957758                0.21286372               15.80784826                4.19581905
               9.42496919                6.74349142               16.16391851                0.40039711               -0.30576926               -0.24955395                0.78385414                0.06543958                3.31724671                2.15881000
              10.42385801                6.66750603               16.01083228                0.89026843                0.01179907                0.01168672               -0.04236730                0.00152701                0.03400356                0.59362246
              11.42520517                6.59234978               15.85721874                1.00000000                0.13471602                0.27827438               -0.87474175               -0.04417306                0.01112324               -0.97965287
               1.52645065                8.37059786               16.10288442                1.00000000               -0.00465271               -0.12293725                0.40858863               -0.04219450                0.03203788                1.12317796
               2.52640412                8.29158269               15.93582028                0.60614430                0.11197602                0.11122254               -0.37583825                0.00147606                0.13844163               -0.67292881
               3.52869017                8.21203229               15.77083272                0.02340202                0.35985777                0.34667791               -1.15283201                0.06608173               13.49042885               -2.33108035
               4.53360128                8.13274776               15.87079483                0.00010000                0.24504453                0.26471064               -0.60370124                0.19740275               26.82389948               -0.77482897
               5.53359106                8.05280462               15.97441697                0.00010000               -0.24209289                0.17147552               -0.10000840                0.24479893               27.08519702                0.19215008
               6.52875942                7.97289626               16.08194334                0.00010000               -0.70908400                0.09096543                0.38886054                0.18362676               27.49837947                1.06695159
               7.51940938                7.89335423               16.19633950                0.00010000               -1.11935608               -0.09351887                0.88811383                0.01333692               28.17107654                2.14011314
               8.50637230                7.81545992               16.31975879                0.13919031               -0.96065506               -0.42256532                1.41325368               -0.15337822               17.38409095                3.79425506
               9.50019628                7.74042409               16.22051856                0.41526368               -0.41322926               -0.35957756                1.13913676               -0.03800849                3.15355452                2.01938956
              10.49810771                7.66711571               16.05983537                0.91237920               -0.08052803               -0.08874851                0.27299922               -0.00286994                0.04750594                0.58846142
              11.49858572                7.59470695               15.89845454                1.00000000                0.04780055                0.19443101               -0.60132746               -0.04441777                0.01601809               -0.97591881
               1.60389216                9.36968083               16.06865388                1.00000000                0.06525270               -0.06249705                0.19207994               -0.04085511                0.01770050                0.93569344
               2.60454469                9.29309742               15.89249193                0.58199702                0.18471356                0.19215166               -0.63114892                0.00299894                0.23966883               -0.62372326
               3.60758644                9.21595753               15.72071957                0.01298861                0.48377415                0.43220505               -1.43436925               -0.12044966               15.32214272               -1.77760343
               4.61422017                9.13541729               15.84619122                0.00010000                0.39269576                0.19913714               -0.75256499               -0.01135229               29.97974293               -0.49968917
               5.61544035                9.05448120               15.96920179                0.00010000               -0.21320476                0.16539823               -0.12904454                0.09027900               29.89218497                0.09444039
               6.60995608                8.97415028               16.09509753                0.00010000               -0.89585160                0.13850423                0.47615320                0.03566172               30.35350871                0.59048038
               7.59752332                8.89283307               16.23011411                0.00010000               -1.50600520                0.07068055                1.10681638               -0.23507264               31.45959327                1.21601254
               8.57983597                8.81088544               16.38162434                0.14900451               -1.24850454               -0.39683669                1.81441286               -0.43372757               19.21094884                2.48055011
               9.57255323                8.73629987               16.27525807                0.43047824               -0.51591069               -0.44982730                1.47952240               -0.15483306                3.29970362                1.43329615
              10.56951776                8.66573106               16.10916439                0.93575922               -0.17094407               -0.18619952                0.58749718               -0.00974513                0.14904758                0.54473921
              11.56913435                8.59623840               15.93979621                0.99987763               -0.03834149                0.11224701               -0.33027948               -0.04609803               -0.01133509               -0.80880898
               1.67880035               10.36934792               16.03096425                1.00000000                0.13870430               -0.03329046               -0.03142889                0.09859907                0.49468156                0.76524674
               2.68018740               10.29542572               15.85061948                0.78399599                0.25804806                0.23282984               -0.87519627                0.13069422                1.00475483               -0.54856006
               3.68396132               10.22067639               15.68043085                0.50345819                0.73315852                0.47188615               -1.66646421               -0.29727277               17.29583402               -1.28453566
               4.69485057               10.13673051               15.82590322                0.43808417                0.63511667                0.13132192               -0.86660697               -0.16515096               32.63052581               -0.25657815
               5.69666365               10.05611259               15.96266639                0.43131299               -0.18648904                0.16313888               -0.15603298                0.06912163               32.26405116                0.07364006
               6.69112079                9.97566634               16.10215928                0.45171199               -0.93454369                0.15160613                0.53629771                0.04923364               32.78485654                0.35019885
               7.67797278                9.89476784               16.25182074                0.49698333               -1.84449203                0.19347759                1.25941625               -0.36221236               34.18417524                0.70748778
               8.65423095                9.80752318               16.42323027                0.57784246               -1.78593876               -0.33622537                2.08539822               -0.72751769               21.23408223                1.52316674
               9.64225400                9.73142755               16.32028836                0.72038723               -0.81283341               -0.48723235                1.76486488               -0.23649582                4.39409696                0.94419277
              10.63797428                9.66339172               16.15728220                0.97585955               -0.28024696               -0.23393350                0.89330989                0.12186873                0.88092982                0.48463614
              11.63664906                9.59695189               15.98418448                0.99999143               -0.13252174                0.07134824               -0.04368402                0.10748816                0.37949551               -0.64924442
               0.92961901                0.44809621               17.38784221                1.00000000               -0.54679918               -0.60906452                2.11461600               -0.12248139               -0.92444122                0.97649673
               1.92415102                0.34434552               17.27862185                1.00000000               -0.45489540               -0.44758546                1.60350756               -0.08157193               -0.94054419               -0.03673327
               2.92052110                0.24032752               17.16908481                0.70862028               -0.18544002               -0.30658218                1.08931607                0.04822498               -0.63317131               -0.88221685
               3.92044222                0.13896819               17.06612765                0.52334753                0.21175779               -0.17171741                0.58655221                0.21507029                1.14456283               -0.09640001
               4.92475626                0.04578407               16.99278523                0.45479616                0.44561805               -0.05799958                0.11773361                0.19458894                4.03155720               -0.08813670
               5.92935458               -0.03778122               16.94909297                0.46194526                0.25588268                0.06914492               -0.34186022                0.08036333                5.35732737                0.00198830
               6.92987391               -0.12000028               16.90355042                0.53418974                0.00952080                0.21292873               -0.79540192                0.13987002                3.85474686                0.07597757
               7.92954499               -0.20913932               16.82957020                0.68634211                0.11003305                0.35780556               -1.27484761                0.14446340                1.29046689                0.12511418
               8.93207457               -0.30492677               16.73180936                0.95636524                0.41098396                0.50896446               -1.79254154                0.04007341               -0.35705141                0.42861570
               9.93776467               -0.40322722               16.62422950                1.00000000                0.66746772                0.66158406               -2.33829380               -0.06992671               -0.77512939                0.28112181
              10.94542393               -0.50142654               16.51784548                1.00000000                0.76592527                0.82134363               -2.86043174               -0.13043915               -0.70652766               -0.71956694
               1.03214489                1.44200556               17.34988875                1.00000000               -0.49252398               -0.57837023                1.89874528               -0.04361079               -0.05348964                1.25216586
               2.02721965                1.33986967               17.23995022                1.00000000               -0.42264351               -0.41179822                1.38113984               -0.00689515                0.01784080               -0.08627852
               3.02369201                1.23726169               17.13140195                0.26884938               -0.36775017               -0.26489256                0.87558497                0.14817231                1.25153010               -1.28477689
               4.01986464                1.13725102               17.04612426                0.00342203               -0.43075797               -0.14628708                0.45597697                0.57873821                3.57423468               -1.55199222
               5.01507686                1.04520408               16.98373330                0.00767914               -0.34071267                0.21689258                0.04073916                1.11546287                6.33232740                0.48680477
               6.01305039                0.96291023               16.95292389                0.01076563                0.09374029                0.11422056               -0.34445156                1.36567950                7.81148838                0.45010430
               7.01695166                0.88212901               16.92004346                0.01199970                0.52012437                0.01494203               -0.71862503                1.13013928                6.16786590                0.37744334
               8.02345288                0.79443873               16.85741451                0.23305273                0.62837981                0.34621159               -1.12487870                0.58453979                3.51793285                1.65692909
               9.02951926                0.70016287               16.77260567                0.63998954                0.59312064                0.47178065               -1.56952919                0.19366824                1.65250077                1.30489093
              10.03531529                0.60338862               16.67307591                1.00000000                0.63997959                0.61521667               -2.05063889                0.01982469                0.55112833                0.62928333
              11.04231885                0.50678690               16.56615520                1.00000000                0.70035604                0.78100134               -2.58404436               -0.05169579                0.18771319               -0.76798822
               1.13301859                2.43652880               17.31743361                1.00000000               -0.42616061               -0.51906578                1.69920408               -0.04345037                0.16630827                1.48319472
               2.12875698                2.33610956               17.20027595                0.78763128               -0.34576985               -0.34230987                1.15120172               -0.00787147                0.29217913               -0.35339763
               3.12610319                2.23502967               17.08560645                0.10408273               -0.23411930               -0.17497851                0.63066988                0.14676592                1.71904915               -2.17681388
               4.12407460                2.13604245               16.99695637                0.00010000               -0.23484426                0.10388631                0.22359465                1.02046888                6.90707737               -1.23540209
               5.12140631                2.05012192               16.98596614                0.00010000               -0.21656801                0.33856940                0.02895136                1.83633980               10.29124812                0.65595175
               6.11974324                1.96450319               16.96539895                0.00010000               -0.02290594                0.13690134               -0.24799243                1.97162573                9.67761844                1.04677818
               7.12094819                1.88029856               16.94229611                0.00010000                0.17293445               -0.07164765               -0.53504913                1.90129291                9.35014896                1.41811947
               8.12320193                1.79778491               16.91569940                0.08520712                0.30249322                0.11636570               -0.82302728                1.14815661                6.22931243                3.01237158
               9.12699805                1.70450884               16.83079413                0.34511480                0.41676061                0.38324380               -1.22947126                0.23762082                2.46025374                3.36381374
              10.13153714                1.60907711               16.72875309                0.84904521                0.52976967                0.52776619               -1.74025559                0.02254390                0.94264646                1.24707393
              11.13759345                1.51419349               16.61332434                1.00000000                0.60563077                0.70549232               -2.31528229               -0.04994459                0.27889314               -0.69006528
               1.23211438                3.43162425               17.28408312                1.00000000               -0.35530199               -0.45878065                1.49131795               -0.04495111                0.04236532                1.37031599
               2.22856136                3.33302347               17.15624908                0.73062127               -0.27099692               -0.27119672                0.90015496               -0.00761467                0.12462361               -0.58750165
               3.22669444                3.23376212               17.03001694                0.07683741               -0.16897979               -0.08316329                0.32281745                0.28262003                4.17647586               -2.61783163
               4.22518176                3.13932875               16.98318087                0.00010000               -0.16757609                0.27900152                0.21171083                0.96561755               10.40554695                0.18401349
               5.22334292                3.05197547               16.98191838                0.00010000               -0.14377463                0.15768212                0.01577966                1.42873172               12.71776068                0.48486880
               6.22230627                2.96564825               16.98184448                0.00010000               -0.08235586                0.08932362               -0.15267872                1.54509984               12.62871379                1.37758142
               7.22169580                2.88069605               16.97934835                0.00010000               -0.00502684                0.01700589               -0.33769361                1.51128399               12.18546405                2.40163557
               8.22220573                2.79676605               16.97084633                0.08927780                0.06418382               -0.05466223               -0.55469308                1.08880290                9.39330235                3.56793768
               9.22297947                2.70782775               16.91276334                0.33502123                0.19378932                0.25132032               -0.75625704                0.34055583                3.67711165                3.96570995
              10.22608152                2.61394394               16.78988028                0.79217221                0.40538621                0.43568672               -1.37912428                0.00768689                0.24999358                1.37933026
              11.23108720                2.52089674               16.66295349                1.00000000                0.50056820                0.63307413               -2.03106601               -0.05055617                0.05245545               -0.58015774
               1.32932113                4.42735319               17.24933609                1.00000000               -0.28543134               -0.39283151                1.27572807               -0.04477183                0.02119313                1.28106637
               2.32646682                4.33068562               17.11185949                0.70071835               -0.19354062               -0.19593431                0.64574280               -0.00710394                0.07231684               -0.61337413
               3.32545032                4.23336640               16.97535887                0.06442005               -0.06466035                0.00246944                0.02359296                0.32360220                6.35118478               -2.52911262
               4.32517361                4.14162248               16.96342554                0.00010000               -0.08944405                0.20144400                0.07533209                0.88671721               14.04395809               -0.31313761
               5.32366144                4.05327557               16.98152339                0.00010000               -0.16244810                0.12460882                0.01133581                1.15241343               15.60997437                0.62730337
               6.32192465                3.96628966               17.00168860                0.00010000               -0.18026803                0.04978448               -0.05196886                1.20967351               15.67259970                1.61954089
               7.32005608                3.88063868               17.02174762                0.00010000               -0.20391764               -0.02108733               -0.12697077                1.20741774               15.59282152                2.82542825
               8.31784629                3.79669166               17.04083635                0.09888639               -0.17123986               -0.02950876               -0.22817578                0.86611044               11.72264733                4.41246494
               9.31663128                3.70953524               16.98370225                0.34950285                0.03877927                0.10296282               -0.34351176                0.30213575                4.00034496                3.07289766
              10.31862188                3.61779084               16.84828203                0.80954067                0.30227187                0.32934459               -1.03542197                0.00576236                0.05030607                1.09949614
              11.32267672                3.52685497               16.71191752                1.00000000                0.40548362                0.55396229               -1.74027351               -0.04685409                0.00695027               -0.69512116
               1.42455408                5.42376762               17.21417500                1.00000000               -0.21480103               -0.32374277                1.05752076               -0.04473208                0.02036750                1.24756463
               2.42240607                5.32910478               17.06727674                0.67326600               -0.11622299               -0.11977620                0.38883905               -0.00553122                0.07853752               -0.63138561
               3.42222962                5.23381151               16.92149323                0.05344141                0.03004333                0.08677089               -0.27267002                0.28883212                8.38017152               -2.48664526
               4.42300694                5.14335763               16.94059775                0.00010000               -0.02528071                0.17855673               -0.08405128                0.71086362               17.63725781               -0.53777309
               5.42172401                5.05446764               16.98099028                0.00010000               -0.19351549                0.12264937               -0.01119533                0.85449576               18.75937393                0.56295656
               6.41913663                4.96664394               17.02362607                0.00010000               -0.31409286                0.03172040                0.05435234                0.88616547               18.91074721                1.71566818
               7.41544215                4.88027431               17.06799698                0.00010000               -0.42526267               -0.05722864                0.10500540                0.88305122               19.03437240                3.03224530
               8.41063137                4.79617587               17.11379291                0.10850198               -0.37595687               -0.10712847                0.12827821                0.62221093               13.53373366                4.55561465
               9.40792301                4.70988700               17.04847703                0.36464841               -0.08771676               -0.02688154                0.04329789                0.22091340                4.01209336                2.61640456
              10.40887704                4.62053083               16.90391394                0.83086571                0.20494253                0.22034350               -0.70082732                0.00473012                0.03149453                0.86587787
              11.41202186                4.53197599               16.75881891                1.00000000                0.31448240                0.46821749               -1.45446130               -0.04513967                0.00848346               -0.86172969
               1.51775216                6.42087834               17.17873912                1.00000000               -0.14398631               -0.25440077                0.83811320               -0.04417262                0.02291924                1.22010462
               2.51631230                6.32829010               17.02247468                0.64695884               -0.03890222               -0.04282433                0.13086767               -0.00329058                0.09507760               -0.65328807
               3.51697412                6.23510182               16.86760335                0.04296775                0.12112278                0.17230129               -0.56918428                0.21406178               10.37102147               -2.49291798
               4.51873475                6.14519362               16.91683010                0.00010000                0.02454594                0.20719801               -0.25819583                0.49932851               21.19617007               -0.66980197
               5.51746503                6.05572855               16.97978825                0.00010000               -0.24467310                0.14265517               -0.04031508                0.55299776               21.97220977                0.46132130
               6.51384129                5.96692407               17.04594999                0.00010000               -0.46399322                0.03164988                0.16405083                0.54439867               22.22619789                1.66296989
               7.50818517                5.87949411               17.11526340                0.00010000               -0.65817363               -0.10072790                0.35403963                0.53125796               22.48666121                3.01303425
               8.50067782                5.79454910               17.18761197                0.11803785               -0.57452916               -0.22712327                0.52080231                0.34250970               15.14989277                4.55764046
               9.49669459                5.70899761               17.11078722                0.37967447               -0.20251618               -0.14748830                0.41884382                0.12569014                3.86791910                2.40755643
              10.49662749                5.62219771               16.95770212                0.85231304                0.10945092                0.11466710               -0.37316449                0.00273453                0.03365352                0.71597144
              11.49888361                5.53621932               16.80407426                1.00000000                0.22561111                0.37987446               -1.17313238               -0.04435640                0.00997686               -0.97585700
               1.60884711                7.41867960               17.14301139                1.00000000               -0.07303280               -0.18640574                0.61862831               -0.04329810                0.02460816                1.18839841
               2.60811678                7.32824830               16.97739577                0.62162444                0.03801153                0.03485338               -0.12688468               -0.00032665                0.11401914               -0.67854610
               3.60960734                7.23725754               16.81351765                0.03277064                0.21249957                0.26035253               -0.86485939                0.11522629               12.29614734               -2.50486428
               4.61236677                7.14750159               16.89151687                0.00010000                0.07230868                0.25909514               -0.43563173                0.26889871               24.70710932               -0.81034360
               5.61105351                7.05732075               16.97741644                0.00010000               -0.30538599                0.18151199               -0.07177742                0.26354538               25.20927463                0.32914434
               6.60625905                6.96727694               17.06720257                0.00010000               -0.63056143                0.05505269                0.27480992                0.20330420               25.55791080                1.47269880
               7.59844228                6.87825975               17.16174637                0.00010000               -0.91404951               -0.13009735                0.61342233                0.13302457               25.98346309                2.79907631
               8.58797806                6.79163341               17.26144286                0.12753009               -0.78270423               -0.34826799                0.94330849                0.02420484               16.72128879                4.44894031
               9.58278820                6.70693724               17.17176965                0.39457138               -0.31340185               -0.26166197                0.78602690                0.02804343                3.65007880                2.28608186
              10.58171002                6.62282417               17.01036378                0.87392542                0.01516615                0.01202863               -0.05109230               -0.00011271                0.03725921                0.63466977
              11.58309152                6.53957348               16.84836089                1.00000000                0.13814975                0.29157152               -0.89595859               -0.04419951                0.01082039               -1.02560095
               1.69774881                8.41715022               17.10692298                1.00000000               -0.00209848               -0.12143114                0.39980366               -0.04212849                0.03115808                1.15619390
               2.69772783                8.32898717               16.93202782                0.59728135                0.11382691                0.11407500               -0.38331969                0.00250418                0.14159568               -0.71565630
               3.70002535                8.24030887               16.75929053                0.02273463                0.31608462                0.35054559               -1.15758959               -0.00780474               14.16180263               -2.44235431
               4.70404952                8.15037552               16.86476853                0.00010000                0.14676184                0.29501734               -0.60461780                0.03379676               28.15193998               -0.82470738
               5.70296059                8.05935879               16.97342055                0.00010000               -0.35405750                0.20691728               -0.10298049                0.04222860               28.39987143                0.19927340
               6.69696837                7.96802512               17.08580549                0.00010000               -0.82356964                0.12301443                0.37936184               -0.06242604               28.82904330                1.12718269
               7.68648919                7.87689216               17.20513998                0.00010000               -1.22419711               -0.07876488                0.86738984               -0.27510583               29.53697167                2.26867248
               8.67248443                7.78758374               17.33372732                0.13710338               -1.02122531               -0.42942096                1.37567581               -0.35738687               18.39449898                4.03269195
               9.66606469                7.70376437               17.23194625                0.40953002               -0.42477155               -0.36862497                1.14559089               -0.07848831                3.47153654                2.13423188
              10.66398900                7.62243829               17.06253448                0.89613898               -0.07818425               -0.08830229                0.26669378               -0.00487939                0.05220039                0.62603644
              11.66450100                7.54205075               16.89233483                1.00000000                0.05120067                0.20505591               -0.62200108               -0.04448975                0.01621405               -1.02540203
               1.78433065                9.41625098               17.07052757                1.00000000                0.06775664               -0.06045361                0.18328969               -0.04089994                0.01513365                0.96617287
               2.78500822                9.33052980               16.88614569                0.57393006                0.18661187                0.19486374               -0.63888801                0.00365338                0.24757964               -0.65993212
               3.78806289                9.24426845               16.70636217                0.01257918                0.44922811                0.43517792               -1.43930362               -0.17942291               16.08412519               -1.85761624
               4.79399278                9.15340193               16.83867680                0.00010000                0.30927964                0.22815103               -0.75365498               -0.11571049               31.47710129               -0.52407889
               5.79424848                9.06145909               16.96791641                0.00010000               -0.32578066                0.20768938               -0.13208550               -0.03979855               31.37458368                0.09846146
               6.78747716                8.96973723               17.09983306                0.00010000               -1.04334639                0.19264270                0.46637550               -0.12979091               31.85945134                0.62315782
               7.77338155                8.87668445               17.24110166                0.00010000               -1.67595293                0.13337319                1.08572666               -0.45404694               33.03327938                1.28982402
               8.75395811                8.78304499               17.39960991                0.14696625               -1.35088355               -0.36570225                1.77753656               -0.62078168               20.32926463                2.63741086
               9.74636388                8.69956474               17.29011214                0.42483006               -0.53160239               -0.45519952                1.49001980               -0.20417335                3.61819811                1.51237260
              10.74332606                8.62105813               17.11502183                0.91958549               -0.16935431               -0.18565598                0.58349131               -0.01208953                0.16156866                0.57700407
              11.74297679                8.54367460               16.93639055                0.99989960               -0.03492635                0.12043330               -0.35052648               -0.04615881               -0.01202453               -0.85229840
               1.86837318               10.41594115               17.03060518                1.00000000                0.14102421               -0.03098306               -0.03984281                0.09858246                0.50778936                0.79198460
               2.86978342               10.33288444               16.84183274                0.78019341                0.25957863                0.23546444               -0.88303673                0.13108480                1.04476110               -0.57859835
               3.87356476               10.24901243               16.66375211                0.50332935                0.73806225                0.47439755               -1.67152570               -0.34710805               18.15956812               -1.33862441
               4.88454467               10.15493854               16.81725225                0.43868952                0.61322826                0.15366077               -0.86710012               -0.21980295               34.28861562               -0.27391934
               5.88582932               10.06351258               16.96111372                0.43154033               -0.26987396                0.20534910               -0.15876913                0.00505595               33.89576028                0.07212985
               6.87914719                9.97187798               17.10749469                0.45155583               -1.08644115                0.21407475                0.52600528               -0.03064532               34.44240157                0.36476118
               7.86410050                9.87955962               17.26432847                0.49651607               -2.09793407                0.28751705                1.23701351               -0.50851966               35.92200738                0.74539073
               8.83718851                9.78026969               17.44391783                0.57682778               -2.00662080               -0.27752968                2.04691593               -0.92192155               22.47372366                1.62045526
               9.82396808                9.69466038               17.33800083                0.71757068               -0.87755817               -0.49043529                1.77619256               -0.31680609                4.77477988                0.99573276
              10.81963735                9.61872517               17.16620415                0.96774652               -0.28115966               -0.23329616                0.89037272                0.12108047                0.93774891                0.51252169
              11.81834489                9.54445942               16.98364562                0.99998345               -0.12924576                0.07848194               -0.06390968                0.11023448                0.40298506               -0.68531510
               1.03197314                0.49708796               18.40896481                1.00000000               -0.54729692               -0.60887587                2.11084985               -0.11966345               -0.96049485                1.01526975
               2.02650017                0.38373665               18.29464949                1.00000000               -0.45836853               -0.44759202                1.60209975               -0.07836767               -0.97935927               -0.04523913
               3.02280577                0.27008908               18.17997521                0.70646563               -0.20605186               -0.30320750                1.08880514                0.03423697               -0.66862930               -0.91760476
               4.02237914                0.15867598               18.07200813                0.52323617                0.15536365               -0.16965705                0.58987240                0.17613520                1.12736173               -0.09530423
               5.02591304                0.05433774               17.99396697                0.45508389                0.37463417               -0.04809982                0.11766080                0.15952958                4.02934151               -0.08942581
               6.02987182               -0.04156115               17.94563049                0.46197960                0.23113457                0.08390378               -0.35140016                0.06121803                5.36106224                0.00518816
               7.03053574               -0.13608641               17.89549750                0.53345370                0.04150157                0.22572225               -0.81551546                0.11214212                3.85444207                0.08215717
               8.03070185               -0.23644420               17.81669752                0.68409640                0.15178799                0.36735493               -1.29966744                0.11675007                1.26586177                0.13286353
               9.03357150               -0.34246940               17.71375673                0.95105818                0.43473103                0.51551350               -1.81780268                0.02675770               -0.41085628                0.44491912
              10.03939647               -0.45059505               17.60071660                1.00000000                0.67865712                0.66812021               -2.36414627               -0.06918165               -0.82970882                0.30332940
              11.04714464               -0.55856090               17.48912210                1.00000000                0.77481668                0.83000420               -2.88419388               -0.12953343               -0.74849389               -0.76976850
               1.14412782                1.49099920               18.36885654                1.00000000               -0.49118849               -0.57824036                1.89475489               -0.04188314               -0.05607646                1.29811941
               2.13921594                1.37926073               18.25374511                1.00000000               -0.42246739               -0.41213040                1.38267543               -0.00422883                0.02259309               -0.10099584
               3.13567848                1.26705700               18.14018884                0.26550834               -0.35998906               -0.26217329                0.88749372                0.13068236                1.30339931               -1.34404409
               4.13201616                1.15697941               18.05071869                0.00361893               -0.40257846               -0.14316702                0.46297762                0.50669778                3.67061775               -1.60235247
               5.12762691                1.05385674               17.98415533                0.00795952               -0.31600407                0.17846442                0.04382937                0.96525631                6.45209528                0.51567082
               6.12569608                0.95927789               17.94943045                0.01115122                0.07358872                0.10275048               -0.35441614                1.18416965                7.96117187                0.50145630
               7.12909868                0.86617081               17.91274192                0.01117252                0.46823842                0.02723615               -0.74164850                0.98269489                6.31491399                0.43791339
               8.13506084                0.76722935               17.84602486                0.23014678                0.59079082                0.34560255               -1.15287364                0.50241982                3.63285901                1.74080156
               9.14091450                0.66268574               17.75677090                0.63209613                0.58447802                0.47490450               -1.59731117                0.16744541                1.73074609                1.38120851
              10.14675040                0.55608616               17.65245099                1.00000000                0.64503288                0.62028192               -2.07429234                0.01736409                0.58459376                0.66263490
              11.15381515                0.44973915               17.54019947                1.00000000                0.70647498                0.79137450               -2.60716938               -0.05175975                0.19410145               -0.82187444
               1.25461243                2.48552315               18.33440696                1.00000000               -0.42546367               -0.51841372                1.69518259               -0.04274126                0.17030552                1.53062063
               2.25035780                2.37549404               18.21173905                0.77511807               -0.34558481               -0.34218631                1.14639644               -0.00477852                0.30990782               -0.38314775
               3.24770074                2.26484561               18.09184399                0.10199836               -0.23222218               -0.17429304                0.62582201                0.12957700                1.81230764               -2.28577154
               4.24571335                2.15581264               17.99924357                0.00010000               -0.23905216                0.07764302                0.23373195                0.86570084                7.15995890               -1.22724418
               5.24291969                2.05790703               17.98626630                0.00010000               -0.22361045                0.27369384                0.03045305                1.56417600               10.61556302                0.70615005
               6.24124114                1.96049386               17.96288364                0.00010000               -0.03407625                0.09769666               -0.25600562                1.69179834                9.96816302                1.14069622
               7.24223817                1.86445831               17.93686064                0.00010000                0.14970881               -0.07888301               -0.55290619                1.65448416                9.64532000                1.53803020
               8.24423532                1.77046785               17.90732578                0.08366457                0.29127151                0.09524076               -0.85182491                1.00810075                6.47924896                3.15481525
               9.24806360                1.66702869               17.81838280                0.34030989                0.42275128                0.36345758               -1.25285482                0.19608372                2.60231199                3.56734392
              10.25269035                1.56181059               17.71124304                0.83403643                0.53699328                0.52698755               -1.76183723                0.01227553                0.99932210                1.31748105
              11.25880346                1.45726659               17.59006104                1.00000000                0.61131187                0.72213322               -2.33747035               -0.05462081                0.30293879               -0.73976670
               1.36333123                3.48063093               18.29896450                1.00000000               -0.35333200               -0.45762467                1.48573709               -0.04403146                0.04379412                1.40820731
               2.35979791                3.37241700               18.16521712                0.71915820               -0.26899074               -0.26978711                0.89360153               -0.00451881                0.13309547               -0.62852756
               3.35795142                3.26357114               18.03322080                0.07528238               -0.17645762               -0.08210845                0.31712343                0.23712405                4.42866348               -2.74909803
               4.35626876                3.15853227               17.98535894                0.00010000               -0.18611042                0.22708337                0.22397452                0.78819679               10.85021991                0.22685217
               5.35422921                3.05933062               17.98208727                0.00010000               -0.16439990                0.11828883                0.01675556                1.18309419               13.13958140                0.53268593
               6.35298076                2.96123182               17.98028632                0.00010000               -0.10074194                0.05136694               -0.16053428                1.29412607               13.06882587                1.46696477
               7.35221437                2.86459315               17.97589314                0.00010000               -0.01641413               -0.01539006               -0.35502899                1.27352448               12.61371818                2.52866574
               8.35265248                2.76913417               17.96516907                0.08764943                0.06395314               -0.09484368               -0.58243414                0.93486710                9.83061050                3.71932910
               9.35349343                2.66995489               17.90513828                0.33036743                0.20527686                0.21347856               -0.76907224                0.29303320                3.92117073                4.19822901
              10.35675801                2.56662591               17.77600542                0.77804096                0.41586522                0.42991462               -1.39593054                0.00418606                0.26677549                1.46414470
              11.36181074                2.46418181               17.64253721                1.00000000                0.50527211                0.65476680               -2.05212315               -0.05253967                0.05476145               -0.61671563
               1.47015966                4.47637066               18.26205947                1.00000000               -0.28324547               -0.39183855                1.26935753               -0.04397029                0.02158494                1.31399413
               2.46732721                4.37009830               18.11827962                0.68954924               -0.19158559               -0.19364492                0.63840096               -0.00466751                0.07668426               -0.65771806
               3.46632795                4.26320344               17.97556093                0.06295336               -0.08046971                0.00603199                0.01630055                0.25084573                6.69963404               -2.65493079
               4.46571781                4.16035431               17.96420791                0.00010000               -0.12229610                0.16520920                0.07978058                0.69110295               14.67767488               -0.35031100
               5.46388203                4.06027280               17.98163913                0.00010000               -0.19283393                0.09367361                0.01002117                0.91020503               16.19454413                0.66505765
               6.46186113                3.96152120               18.00113337                0.00010000               -0.20378583                0.01702636               -0.06130365                0.95904602               16.26527843                1.70890831
               7.45980631                3.86415051               18.02039681                0.00010000               -0.21451055               -0.06003742               -0.14568243                0.95837772               16.18106150                2.96413780
               8.45757092                3.76857098               18.03842285                0.09702542               -0.16868946               -0.07980879               -0.25724818                0.69734078               12.31394099                4.60051918
               9.45643252                3.67129826               17.98022741                0.34433925                0.04881118                0.07094461               -0.35169151                0.25461489                4.30691567                3.25367976
              10.45854715                3.57040888               17.83785830                0.79464463                0.31041717                0.32410485               -1.04923921                0.00488398                0.05783112                1.16772868
              11.46264086                3.47036193               17.69441361                1.00000000                0.40937188                0.57459988               -1.76014191               -0.04660522                0.00798679               -0.72946146
               1.57499655                5.47279416               18.22471340                1.00000000               -0.21247765               -0.32286022                1.05065247               -0.04416005                0.02028255                1.27865936
               2.57287178                5.36854410               18.07112677                0.66245116               -0.11421170               -0.11694947                0.38097993               -0.00342934                0.08209915               -0.67711359
               3.57271232                5.26369178               17.91873192                0.05208734                0.00748385                0.09142203               -0.28054803                0.20019760                8.81453693               -2.60974026
               4.57302145                5.16183645               17.93975839                0.00010000               -0.07229517                0.16170316               -0.08550298                0.49966488               18.44818880               -0.59490957
               5.57126642                5.06120409               17.98086629                0.00010000               -0.23687399                0.10388813               -0.01597825                0.60779403               19.52028487                0.58441453
               6.56828398                4.96157235               18.02412459                0.00010000               -0.34671386                0.00610498                0.04250954                0.62287537               19.67550830                1.80453267
               7.56433214                4.86339240               18.06895439                0.00010000               -0.44162184               -0.09382689                0.08329923                0.61206625               19.79458619                3.18404875
               8.55945154                4.76753799               18.11492340                0.10646069               -0.37921585               -0.15546599                0.09441160                0.43937474               14.25411958                4.76875188
               9.55674782                4.67137378               18.04888606                0.35909305               -0.08297552               -0.05122936                0.03832628                0.17312512                4.35890394                2.77318842
              10.55779203                4.57310800               17.89684561                0.81525196                0.21123592                0.21713416               -0.71262433                0.00372214                0.03688452                0.92363432
              11.56097254                4.47567381               17.74417307                1.00000000                0.31805131                0.48602028               -1.47409688               -0.04486558                0.00886087               -0.90036472
               1.67777657                6.46991346               18.18708173                1.00000000               -0.14155770               -0.25352367                0.83092008               -0.04378696                0.02239657                1.25070271
               2.67636099                6.36775931               18.02374426                0.63663687               -0.03685108               -0.03975977                0.12270687               -0.00148110                0.09829069               -0.69918221
               3.67703955                6.26503188               17.86187733                0.04177935                0.09189030                0.17738681               -0.57725239                0.11742312               10.88491050               -2.61503605
               4.67819880                6.16358837               17.91423465                0.00010000               -0.03687681                0.20706601               -0.26303042                0.27925342               22.18126627               -0.73584577
               5.67630201                6.06235057               17.97936185                0.00010000               -0.30342356                0.13990891               -0.04785781                0.29905822               22.91802020                0.47541462
               6.67213033                5.96164330               18.04753499                0.00010000               -0.51100116                0.01785534                0.14951493                0.26504366               23.17467271                1.74935419
               7.66608199                5.86227397               18.11869615                0.00010000               -0.68766461               -0.12920082                0.32870291                0.23677167               23.43444257                3.17282039
               8.65837704                5.76546166               18.19264000                0.11588696               -0.58784906               -0.26688950                0.48082592                0.14620291               15.98391119                4.79747531
               9.65432501                5.67027368               18.11496734                0.37387934               -0.20277373               -0.16598778                0.41688648                0.07959694                4.23137566                2.55106201
              10.65432156                5.57475157               17.95391874                0.83624947                0.11434683                0.11295243               -0.38330355                0.00142921                0.03800602                0.76573948
              11.65661195                5.48008234               17.79224087                1.00000000                0.22903835                0.39516932               -1.19283340               -0.04418275                0.00996708               -1.01878271
               1.77842912                7.46772368               18.14915802                1.00000000               -0.07053865               -0.18539484                0.61121355               -0.04310035                0.02379297                1.21934370
               2.77772373                7.36774891               17.97608724                0.61192638                0.04013026                0.03801702               -0.13530226                0.00116633                0.11721369               -0.72344550
               3.77923172                7.26723952               17.80483558                0.03179003                0.17820553                0.26544010               -0.87303571                0.01874157               12.88812658               -2.62453821
               4.78128784                7.16597777               17.88714249                0.00010000               -0.00195331                0.27526591               -0.44184444                0.05370012               25.86499390               -0.87385021
               5.77919265                7.06400227               17.97666886                0.00010000               -0.38131979                0.19697773               -0.08113023                0.01005989               26.34222477                0.33944221
               6.77366144                6.96192945               18.06988709                0.00010000               -0.69717223                0.05830648                0.25811321               -0.08516776               26.69678587                1.55191723
               7.76524921                6.86080839               18.16776067                0.00010000               -0.96427761               -0.14507891                0.58502656               -0.17921283               27.13340003                2.95623204
               8.75437589                6.76220020               18.27067368                0.12533748               -0.80996788               -0.37574774                0.89827348               -0.18376920               17.65853896                4.70455899
               9.74904985                6.66805403               18.17963905                0.38867350               -0.31819690               -0.27537162                0.78730881               -0.01691559                4.01078199                2.41963031
              10.74801195                6.57536705               18.00981043                0.85764011                0.01887495                0.01134112               -0.05952045               -0.00176280                0.04138671                0.67839475
              11.74942735                6.48357719               17.83929956                1.00000000                0.14153979                0.30434558               -0.91564898               -0.04411798                0.01066224               -1.07244676
               1.87686412                8.46620556               18.11088049                1.00000000                0.00043664               -0.12008039                0.39220135               -0.04211640                0.03042519                1.18861242
               2.87686849                8.36851965               17.92815389                0.58828710                0.11606970                0.11724802               -0.39206426                0.00365436                0.14564279               -0.75924700
               3.87918552                8.27034069               17.74768093                0.02198953                0.28207827                0.35520515               -1.16602510               -0.09599275               14.83533421               -2.55450551
               4.88251005                8.16909369               17.85870248                0.00010000                0.06830085                0.32371100               -0.61157476               -0.15652233               29.48190031               -0.87480581
               5.88055153                8.06629012               17.97235736                0.00010000               -0.44445974                0.23774945               -0.11346437               -0.18505767               29.71401331                0.20721503
               6.87362086                7.96280943               18.08953058                0.00010000               -0.91622727                0.14973913                0.36120663               -0.33096558               30.15757771                1.18950362
               7.86222699                7.85937239               18.21368730                0.00010000               -1.30824226               -0.06836604                0.83715417               -0.58499392               30.89865892                2.40071533
               8.84745601                7.75794670               18.34727231                0.13490856               -1.07035705               -0.43785297                1.32811160               -0.57856270               19.43340527                4.27607578
               9.84081985                7.66476624               18.24343038                0.40361205               -0.43464370               -0.37806427                1.15037273               -0.12564455                3.82121089                2.25554826
              10.83876314                7.57497839               18.06516925                0.87975970               -0.07552709               -0.08827921                0.26007972               -0.00691171                0.05777359                0.66650958
              11.83930930                7.48616925               17.88601452                1.00000000                0.05461652                0.21522269               -0.64155489               -0.04446169                0.01651820               -1.07550137
               1.97295861                9.46532208               18.07231967                1.00000000                0.07030771               -0.05865820                0.17560202               -0.04097528                0.01252717                0.99639567
               2.97366169                9.37009387               17.87971417                0.56562153                0.18896062                0.19800037               -0.64811511                0.00443741                0.25635095               -0.69701787
               3.97673783                9.27434362               17.69193349                0.01205323                0.42731331                0.43916656               -1.44829251               -0.25471106               16.84836567               -1.93869853
               4.98220796                9.17245199               17.83111812                0.00010000                0.25189687                0.25037685               -0.76128428               -0.24175731               32.97646700               -0.54905111
               5.98177576                9.06875726               17.96656008                0.00010000               -0.41240481                0.24352197               -0.14329030               -0.18714395               32.85661606                0.10275437
               6.97395986                8.96492424               18.10442504                0.00010000               -1.16818553                0.24144394                0.44723459               -0.30914880               33.36374231                0.65713706
               7.95841205                8.85944106               18.25182864                0.00010000               -1.82745369                0.19248224                1.05439630               -0.68591484               34.60479012                1.36657503
               8.93741079                8.75344314               18.41717507                0.14476376               -1.44533888               -0.33151245                1.72995563               -0.81856411               21.48049309                2.79922560
               9.92950528                8.66049274               18.30505847                0.41887764               -0.54700351               -0.46007156                1.49806702               -0.25991215                3.97099247                1.59635391
              10.92647072                8.57360147               18.12083422                0.90305260               -0.16744353               -0.18504419                0.57857854               -0.01448832                0.17497383                0.61162204
              11.92615640                8.48788165               17.93278568                0.99991826               -0.03143122                0.12831011               -0.37008923               -0.04615616               -0.01272790               -0.89650730
               2.06650104               10.46503240               18.03016740                1.00000000                0.14346556               -0.02896803               -0.04732390                0.09896801                0.52065527                0.81873791
               3.06793569               10.37247965               17.83295874                0.77624095                0.26160664                0.23857879               -0.89255460                0.13198105                1.08567711               -0.60947415
               4.07173317               10.27912402               17.64700034                0.50313222                0.76627898                0.47803954               -1.68074298               -0.41938731               19.02614198               -1.39386626
               5.08326127               10.17410122               17.80856121                0.43925881                0.63016215                0.16492314               -0.87447332               -0.29284144               35.94877112               -0.29236503
               6.08433641               10.07116056               17.95949101                0.43176126               -0.32535975                0.24033035               -0.17008444               -0.06708125               35.52602457                0.07004069
               7.07675408                9.96763830               18.11267939                0.45139147               -1.21733131                0.27140687                0.50596040               -0.11750468               36.09687220                0.37932903
               8.05998978                9.86322204               18.27656101                0.49600999               -2.33605102                0.37809739                1.20407637               -0.65831925               37.65701902                0.78423061
               9.03003305                9.75131646               18.46416859                0.57571636               -2.22632547               -0.21266856                1.99768546               -1.12063446               23.74970326                1.72165741
              10.01546328                9.65556481               18.35581222                0.71457141               -0.94742948               -0.49279272                1.78480724               -0.40614741                5.19283433                1.05067178
              11.01108447                9.57127751               18.17508965                0.95939241               -0.28187264               -0.23239617                0.88622230                0.11990666                0.99674431                0.54214737
              12.00982582                9.48873545               17.98290629                0.99997585               -0.12586429                0.08538017               -0.08363825                0.11273606                0.42709425               -0.72226242
               1.13903977                0.54861814               19.43005921                1.00000000               -0.54863259               -0.60923356                2.10887449               -0.11621912               -0.99923828                1.05178321
               2.13355344                0.42524949               19.31066384                1.00000000               -0.46249468               -0.44893040                1.60248813               -0.07492272               -1.02115587               -0.05044474
               3.12978987                0.30154815               19.19086091                0.70416554               -0.22778732               -0.30361254                1.09091019                0.01922966               -0.70536003               -0.94306254
               4.12899769                0.17964099               19.07792510                0.52303978                0.09654294               -0.16724547                0.59360308                0.13481555                1.10863789               -0.09789070
               5.13172073                0.06361883               18.99513845                0.45532678                0.30237988               -0.04006682                0.11653620                0.12270886                4.02057262               -0.09081195
               6.13504529               -0.04527738               18.94206496                0.46197047                0.20874937                0.09635786               -0.36213313                0.04095366                5.35563520                0.00832594
               7.13589572               -0.15284598               18.88724011                0.53265094                0.07788533                0.23701138               -0.83606772                0.08301338                3.84638300                0.08869268
               8.13660300               -0.26513673               18.80357685                0.68171299                0.19713292                0.37632389               -1.32431046                0.08727149                1.23731527                0.14098729
               9.13983838               -0.38205672               18.69545331                0.94548197                0.46010645                0.52176918               -1.84257948                0.01233285               -0.46725453                0.46063120
              10.14580513               -0.50062943               18.57694658                1.00000000                0.69023275                0.67442946               -2.38960154               -0.06864883               -0.88586303                0.32764313
              11.15364303               -0.61897664               18.46016160                1.00000000                0.78379051                0.83871130               -2.90777799               -0.12863178               -0.79080181               -0.82151962
               1.26124622                1.54252581               19.38778385                1.00000000               -0.49070156               -0.57924422                1.89226289               -0.04052397               -0.05141706                1.34258806
               2.25633921                1.42076019               19.26760373                0.99772808               -0.42299024               -0.41374514                1.38773593               -0.00245588                0.03541325               -0.11857833
               3.25278642                1.29851203               19.14915183                0.26195173               -0.35143499               -0.26329389                0.90117603                0.11316512                1.35529002               -1.40854750
               4.24931051                1.17796854               19.05538382                0.00380066               -0.36897081               -0.13918336                0.47035074                0.42799579                3.75968444               -1.65653823
               5.24540700                1.06321816               18.98460989                0.00820806               -0.28116378                0.13470806                0.04629060                0.80372140                6.56130282                0.54121522
               6.24368723                0.95568620               18.94583557                0.01149208                0.06242617                0.08693111               -0.36491808                0.98864165                8.09531920                0.55326248
               7.24665553                0.84952413               18.90521049                0.01024803                0.41969241                0.03769640               -0.76459750                0.82285221                6.45153148                0.50207858
               8.25208108                0.73862651               18.83435704                0.22704011                0.55262630                0.34368704               -1.18042829                0.41492949                3.74485545                1.82592754
               9.25770805                0.62316097               18.74065945                0.62381473                0.57487563                0.47725289               -1.62474999                0.13885081                1.81088108                1.46029668
              10.26357859                0.50611487               18.63159007                1.00000000                0.64979351                0.62508604               -2.09775124                0.01448659                0.62002748                0.69795350
              11.27070392                0.38941048               18.51401182                1.00000000                0.71253289                0.80185254               -2.63037040               -0.05177903                0.20059397               -0.87717850
               1.38176052                2.53703326               19.35133726                1.00000000               -0.42424186               -0.51949612                1.69177897               -0.04392697                0.17756881                1.57743531
               2.37751810                2.41697459               19.22320387                0.76246065               -0.34578479               -0.34239250                1.14620135               -0.00616161                0.33138307               -0.42104201
               3.37484483                2.29628227               19.09812289                0.09984967               -0.23333160               -0.17243961                0.63007028                0.11111017                1.91203384               -2.41136867
               4.37285147                2.17685732               19.00163101                0.00010000               -0.23836667                0.04664548                0.24462501                0.70199525                7.41382802               -1.22195591
               5.37007749                2.06631299               18.98657520                0.00010000               -0.21696593                0.20190964                0.03028541                1.27020395               10.93108393                0.75325124
               6.36851215                1.95646124               18.96027884                0.00010000               -0.03325209                0.05258109               -0.26598849                1.38923144               10.24917712                1.23576575
               7.36941245                1.84790794               18.93123798                0.00010000                0.13762968               -0.08954639               -0.57249310                1.38538274                9.93127650                1.66255798
               8.37126475                1.74173701               18.89866291                0.08201133                0.28572904                0.07145264               -0.88074282                0.85360568                6.72842307                3.29983290
               9.37512703                1.62748834               18.80573704                0.33530637                0.42903009                0.33933738               -1.27624881                0.14968807                2.74980521                3.78000227
              10.37984535                1.51187230               18.69351635                0.81884389                0.54446001                0.52483542               -1.78353311                0.00057926                1.05839257                1.39120163
              11.38601623                1.39706042               18.56657494                1.00000000                0.61708836                0.73996905               -2.35982076               -0.06044090                0.32818086               -0.79061197
               1.50048502                3.53213589               19.31379786                1.00000000               -0.35180590               -0.45745412                1.48116315               -0.04475515                0.04450462                1.44511211
               2.49696696                3.41391234               19.17412111                0.70760210               -0.26795660               -0.26764907                0.88788745               -0.00458571                0.14169508               -0.67405526
               3.49512589                3.29506323               19.03635941                0.07367010               -0.18236334               -0.07628004                0.31090894                0.18294954                4.69087286               -2.88784647
               4.49331970                3.17890145               18.98766036                0.00010000               -0.19593641                0.16797418                0.23513152                0.59952756               11.29903114                0.26348528
               5.49120716                3.06725635               18.98225349                0.00010000               -0.17213943                0.07423516                0.01507744                0.91928718               13.55201763                0.57847444
               6.48987691                2.95673782               18.97863379                0.00010000               -0.10598742                0.00841537               -0.17167712                1.02186142               13.50152385                1.55668641
               7.48908741                2.84773320               18.97224777                0.00010000               -0.01520517               -0.05238804               -0.37569974                1.01465577               13.03451758                2.65734632
               8.48957280                2.74005556               18.95919765                0.08594698                0.07395585               -0.13946474               -0.61332558                0.76221393               10.27386817                3.87312960
               9.49056653                2.62994772               18.89738189                0.32559236                0.22226475                0.16863623               -0.78255390                0.23815614                4.17528614                4.43997702
              10.49401810                2.51661158               18.76196167                0.76384452                0.42761670                0.42164696               -1.41292209                0.00045492                0.28351190                1.55276396
              11.49911886                2.40420986               18.62191102                1.00000000                0.51007652                0.67847294               -2.07306565               -0.05469212                0.05684106               -0.65399422
               1.61731251                4.52788418               19.27472324                1.00000000               -0.28134696               -0.39086707                1.26369969               -0.04385845                0.02217375                1.34590534
               2.61449904                4.41162161               19.12462751                0.67833326               -0.18989002               -0.19072333                0.63119346               -0.00324657                0.08164067               -0.70356358
               3.61351471                4.29475667               18.97568488                0.06143864               -0.09250702                0.01185370                0.00796712                0.16790226                7.05460140               -2.78317229
               4.61264890                4.18021681               18.96502115                0.00010000               -0.14439256                0.12656227                0.08134807                0.47788305               15.31567775               -0.39612653
               5.61062686                4.06779769               18.98172381                0.00010000               -0.20881845                0.05884294                0.00488839                0.64845419               16.77416551                0.70009147
               6.60847253                3.95662955               19.00046253                0.00010000               -0.21195169               -0.02024241               -0.07520719                0.68721372               16.85207348                1.79785253
               7.60638783                3.84686018               19.01883397                0.00010000               -0.20890109               -0.10386316               -0.16938454                0.68829105               16.76313991                3.10324136
               8.60429451                3.73894772               19.03569139                0.09511996               -0.15268432               -0.13609052               -0.29164858                0.51050857               12.91626670                4.78881891
               9.60333414                3.63086106               18.97666842                0.33912159                0.06488970                0.03315646               -0.36051354                0.19849337                4.62815162                3.44019141
              10.60559231                3.52030523               18.82729724                0.77981672                0.31958437                0.31657492               -1.06302570                0.00392140                0.06554779                1.23852014
              11.60972583                3.41062987               18.67671468                1.00000000                0.41335221                0.59657857               -1.77941472               -0.04627191                0.00901358               -0.76472014
               1.73213299                5.52431854               19.23518805                1.00000000               -0.21034517               -0.32182034                1.04458369               -0.04394164                0.02028469                1.30912077
               2.73002954                5.41009787               19.07489634                0.65162939               -0.11221254               -0.11378120                0.37279434               -0.00173837                0.08623132               -0.72400663
               3.72988874                5.29530031               18.91588227                0.05070506               -0.00966006                0.09703789               -0.29011032                0.10010200                9.25297973               -2.73448464
               4.72983634                5.18143269               18.93888769                0.00010000               -0.10626180                0.14378963               -0.09046203                0.26797791               19.26244419               -0.65706441
               5.72776350                5.06843321               18.98067071                0.00010000               -0.26388219                0.08182930               -0.02566034                0.33992622               20.27870703                0.60357637
               6.72455869                4.95633297               19.02447626                0.00010000               -0.36142166               -0.02404501                0.02485220                0.33753162               20.43566103                1.89282715
               7.72053507                4.84565594               19.06966296                0.00010000               -0.43882961               -0.13579763                0.05515771                0.31909792               20.54879190                3.33560144
               8.71578210                4.73733375               19.11568114                0.10438856               -0.36780939               -0.20996981                0.05364862                0.23726265               14.99060696                4.98041535
               9.71317888                4.63061085               19.04924355                0.35351399               -0.07271932               -0.07975988                0.03275487                0.11592741                4.72591770                2.93496624
              10.71432771                4.52294308               18.88966146                0.79977829                0.21826329                0.21212212               -0.72419274                0.00261780                0.04280352                0.98340080
              11.71754415                4.41614143               18.72933697                1.00000000                0.32164333                0.50436507               -1.49270848               -0.04452213                0.00930847               -0.94034436
               1.84487502                6.52144777               19.19535752                1.00000000               -0.13925100               -0.25254153                0.82458716               -0.04360154                0.02200614                1.28079980
               2.84348251                6.40934599               19.02492881                0.62630351               -0.03465444               -0.03640573                0.11389682                0.00018061                0.10217956               -0.74594526
               3.84418193                6.29669743               18.85605831                0.04055782                0.06965212                0.18314302               -0.58756344                0.00862445               11.40140301               -2.73828403
               4.84487556                6.18309260               18.91156949                0.00010000               -0.08284159                0.20620344               -0.27215197                0.03669416               23.16869851               -0.80428413
               5.84252510                6.06943428               18.97883109                0.00010000               -0.34375578                0.13404313               -0.06127889                0.02229767               23.86236032                0.48842628
               6.83800044                5.95614865               19.04894029                0.00010000               -0.53780475               -0.00066378                0.12798813               -0.03728943               24.11909474                1.83567744
               7.83176901                5.84414423               19.12183745                0.00010000               -0.69577907               -0.16313457                0.29560707               -0.08058501               24.37584575                3.33270098
               8.82408486                5.73474832               19.19722849                0.11369956               -0.58628212               -0.31207358                0.43264741               -0.06950026               16.83928001                5.03619382
               9.82004336                5.62926586               19.11912494                0.36804944               -0.19853902               -0.18720244                0.41412789                0.02437787                4.62088410                2.69964617
              10.82011408                5.52454768               18.95003604                0.82030589                0.11976560                0.10992423               -0.39322793                0.00004211                0.04311632                0.81749095
              11.82243868                5.42071718               18.78021759                1.00000000                0.23245990                0.41047343               -1.21132029               -0.04393233                0.01007921               -1.06298501
               1.95546453                7.51926771               19.15523566                1.00000000               -0.06810378               -0.18434770                0.60467807               -0.04302070                0.02311824                1.24989512
               2.95478349                7.40936976               18.97468972                0.60217036                0.04250426                0.04146547               -0.14462636                0.00265913                0.12119264               -0.76916089
               3.95631461                7.29896317               18.79605693                0.03076372                0.15249397                0.27117077               -0.88392498               -0.09057420               13.48217595               -2.74527531
               4.95783337                7.18555676               18.88267998                0.00010000               -0.05806043                0.29055868               -0.45319536               -0.18567751               27.02458645               -0.93836909
               5.95515340                7.07111408               18.97579384                0.00010000               -0.43652088                0.20887955               -0.09729002               -0.26747051               27.47394974                0.34951768
               6.94910295                6.95631970               19.07236484                0.00010000               -0.74148527                0.05643010                0.23334701               -0.39656381               27.83196690                1.63181746
               7.94032370                6.84239325               19.17344690                0.00010000               -0.99162440               -0.16528657                0.54764173               -0.51378928               28.27688074                3.11463676
               8.92927046                6.73109228               19.27940833                0.12307953               -0.82283083               -0.40722306                0.84375174               -0.41009311               18.62225930                4.96110959
               9.92386708                6.62686680               19.18751583                0.38268735               -0.31966107               -0.29049713                0.78737370               -0.07010577                4.40281434                2.55858894
              10.92287724                6.52514156               19.00917337                0.84138884                0.02297100                0.00985072               -0.06797321               -0.00348220                0.04638111                0.72431127
              11.92432650                6.42435090               18.83004791                1.00000000                0.14492600                0.31687164               -0.93418802               -0.04395884                0.01062947               -1.12030973
               2.06381052                8.51776082               19.11476700                1.00000000                0.00297221               -0.11878641                0.38546094               -0.04216844                0.02981496                1.22075130
               3.06384024                8.41017529               18.92418654                0.57916094                0.11864645                0.12074128               -0.40193197                0.00489767                0.15055653               -0.80373882
               4.06618345                8.30212085               18.73597002                0.02117121                0.25854276                0.36059531               -1.17757741               -0.19799448               15.51081884               -2.66792139
               5.06901110                8.18890377               18.85253703                0.00010000                0.01146524                0.35027062               -0.62434562               -0.37234081               30.81332344               -0.92576628
               6.06641275                8.07361187               18.97115126                0.00010000               -0.51105531                0.26332291               -0.13153505               -0.43530181               31.02711606                0.21517248
               7.05878999                7.95727725               19.09302962                0.00010000               -0.98460569                0.17057294                0.33407430               -0.61964334               31.48302426                1.25293590
               8.04672064                7.84083850               19.22188306                0.00010000               -1.36902719               -0.06255027                0.79690243               -0.91348856               32.25472633                2.53508295
               9.03140945                7.72660386               19.36028955                0.13260611               -1.10643350               -0.44795325                1.26985241               -0.81574528               20.50348742                4.52305872
              10.02459197                7.62345592               19.25495370                0.39752260               -0.44245574               -0.38784081                1.15340314               -0.18008347                4.20623111                2.38236462
              11.02256033                7.52474469               19.06773608                0.86326786               -0.07255731               -0.08856998                0.25306888               -0.00901142                0.06421304                0.70928561
              12.02314082                7.42705461               18.87950373                1.00000000                0.05804912                0.22508928               -0.66017532               -0.04436756                0.01691907               -1.12648133
               2.16979220                9.51689199               19.07403961                1.00000000                0.07292125               -0.05701796                0.16872284               -0.04108618                0.00987420                1.02657300
               3.17052141                9.41178458               18.87318338                0.55710528                0.19170215                0.20152567               -0.65865375                0.00534365                0.26598228               -0.73499996
               4.17362624                9.30617507               18.67739632                0.01142649                0.41870567                0.44402823               -1.46070082               -0.34603683               17.61470224               -2.02105568
               5.17889553                9.19256217               18.82345111                0.00010000                0.22238217                0.26506434               -0.77512899               -0.38881060               34.47736483               -0.57488832
               6.17807389                9.07638053               18.96505060                0.00010000               -0.47060363                0.27198396               -0.16265052               -0.35060657               34.33769191                0.10693203
               7.16948345                8.95973116               19.10877775                0.00010000               -1.26732837                0.28392995                0.41846749               -0.50068229               34.86533560                0.69191678
               8.15272732                8.84114224               19.26218958                0.00010000               -1.95726584                0.24705012                1.01234312               -0.92834538               36.17254844                1.44556790
               9.13033814                8.72213322               19.43420903                0.14241713               -1.53013698               -0.29440343                1.67098868               -1.02551722               22.66715246                2.96517444
              10.12212458                8.61910998               19.32007348                0.41266805               -0.56199065               -0.46447972                1.50384977               -0.32256584                4.36165503                1.68447610
              11.11909832                8.52337016               19.12659340                0.88625338               -0.16526323               -0.18437247                0.57291705               -0.01697331                0.18925690                0.64812512
              12.11881932                8.42885268               18.92898877                0.99993405               -0.02790087                0.13591727               -0.38892444               -0.04611328               -0.01343664               -0.94160862
               2.27320360               10.51662046               19.02965871                1.00000000                0.14604276               -0.02715284               -0.05415754                0.09967487                0.53338510                0.84564697
               3.27466403               10.41420581               18.82398164                0.77216596                0.26407624                0.24212242               -0.90356546                0.13330892                1.12766658               -0.64119762
               4.27848512               10.31100141               18.63013725                0.50287842                0.81826990                0.48263363               -1.69347476               -0.51414945               19.89546649               -1.45033100
               5.29102942               10.19420506               18.79976278                0.43979644                0.68732565                0.16428879               -0.88837766               -0.38410326               37.61036698               -0.31188576
               6.29223164               10.07905155               18.95771203                0.43197454               -0.35073944                0.26710160               -0.18994580               -0.14668548               37.15425867                0.06732364
               7.28401464                9.96295585               19.11761390                0.45122174               -1.32399817                0.32246949                0.47591759               -0.21048423               37.74735319                0.39379378
               8.26575167                9.84577950               19.28840999                0.49547081               -2.55416359                0.46372598                1.16012515               -0.80956773               39.38788110                0.82380976
               9.23293136                9.72071579               19.48387154                0.57452490               -2.44239831               -0.14174244                1.93698712               -1.32133622               25.06435272                1.82619180
              10.21690371                9.61416633               19.37369697                0.71142389               -1.02266007               -0.49436556                1.79103052               -0.50501481                5.65153037                1.10845396
              11.21247816                9.52105724               19.18392860                0.95086817               -0.28250984               -0.23129190                0.88120520                0.11831520                1.05780154                0.57320280
              12.21125351                9.42977295               18.98197286                0.99996890               -0.12246520                0.09202696               -0.10265184                0.11499067                0.45181169               -0.76013436
               1.25077910                0.60267435               20.45114230                1.00000000               -0.55037478               -0.61014334                2.10881843               -0.11457430               -1.03774692                1.08788941
               2.24527535                0.46884799               20.32669925                1.00000000               -0.46708925               -0.44988566                1.60489470               -0.07333114               -1.06275993               -0.05567525
               3.24143732                0.33464599               20.20179341                0.70171452               -0.25005011               -0.30219135                1.09517765                0.00432397               -0.74356933               -0.96597774
               4.24027435                0.20180073               20.08388019                0.52275896                0.03736564               -0.16579979                0.59735861                0.09437566                1.08520604               -0.10074138
               5.24218463                0.07357863               19.99629769                0.45552623                0.23042532               -0.03343333                0.11507507                0.08482978                4.00446689               -0.09294718
               6.24488286               -0.04893584               19.93838783                0.46192064                0.18834406                0.10651016               -0.37355023                0.02030225                5.34126667                0.01136154
               7.24595151               -0.17025331               19.87877615                0.53178781                0.11760523                0.24678256               -0.85673472                0.05318266                3.83157448                0.09544798
               8.24723496               -0.29518484               19.79021132                0.67920758                0.24525823                0.38466809               -1.34855948                0.05661623                1.20575478                0.14939608
               9.25085668               -0.42366906               19.67690514                0.93966847                0.48679762                0.52769974               -1.86666440               -0.00297463               -0.52557825                0.47556802
              10.25697092               -0.55332916               19.55292456                1.00000000                0.70209401                0.68046181               -2.41444655               -0.06836607               -0.94317737                0.35410118
              11.26489856               -0.68269172               19.43096654                1.00000000                0.79276403                0.84739563               -2.93100821               -0.12775762               -0.83311368               -0.87451959
               1.38345972                1.59657291               20.40670180                1.00000000               -0.49034982               -0.58082509                1.89198913               -0.03980478               -0.04451510                1.38588585
               2.37855622                1.46434913               20.28149983                0.98334653               -0.42277671               -0.41460854                1.39069247               -0.00121818                0.05159179               -0.13836718
               3.37500419                1.33162408               20.15821236                0.25814568               -0.34022171               -0.26176680                0.90901518                0.09352796                1.40777694               -1.47350661
               4.37175179                1.20014273               20.06012571                0.00396304               -0.33014875               -0.13518776                0.47661701                0.34417348                3.84443295               -1.71118513
               5.36840121                1.07324430               19.98508114                0.00842495               -0.23749675                0.08749073                0.04691197                0.63477246                6.66020529                0.56334106
               6.36700185                0.95212926               19.94213209                0.01179038                0.06033126                0.06733927               -0.37641739                0.78246286                8.21536571                0.60482827
               7.36960784                0.83221451               19.89744997                0.00923941                0.37535718                0.04627531               -0.78753571                0.65303505                6.57872346                0.56883909
               8.37450900                0.70866184               19.82241630                0.22374487                0.51456278                0.34043688               -1.20743799                0.32315976                3.85439507                1.91191083
               9.37989909                0.58160794               19.72427590                0.61518422                0.56447946                0.47876735               -1.65166762                0.10815991                1.89306151                1.54189779
              10.38579859                0.45347546               19.61049597                1.00000000                0.65422223                0.62960912               -2.12085268                0.01118379                0.65748736                0.73522598
              11.39298354                0.32578224               19.48759206                1.00000000                0.71849505                0.81234311               -2.65351045               -0.05175466                0.20718548               -0.93353656
               1.51443058                2.59105785               20.36824254                1.00000000               -0.42307461               -0.52128642                1.68986351               -0.04444775                0.18488159                1.62284570
               2.51019983                2.46055582               20.23466307                0.74959517               -0.34581496               -0.34184359                1.14505739               -0.00665772                0.35412677               -0.46331582
               3.50751428                2.32941065               20.10444540                0.09760456               -0.23311146               -0.16859267                0.63302492                0.08832945                2.01647918               -2.54233606
               4.50553760                2.19909697               20.00413607                0.00010000               -0.23103649                0.01345508                0.25504825                0.52606523                7.66706892               -1.22018433
               5.50289355                2.07532845               19.98687201                0.00010000               -0.19878498                0.12535995                0.02805101                0.96044465               11.23653930                0.79694388
               6.50156190                1.95241095               19.95756387                0.00010000               -0.02069583                0.00262955               -0.27820079                1.06794277               10.52133258                1.33057863
               7.50247963                1.83067219               19.92541078                0.00010000                0.13714141               -0.10352092               -0.59381373                1.09729909               10.20927388                1.78979618
               8.50430473                1.71162390               19.88971092                0.08024565                0.28633158                0.04532168               -0.90967930                0.68604087                6.97774114                3.44553445
               9.50820626                1.58590629               19.79285783                0.33010987                0.43577828                0.31075511               -1.29949515                0.09875807                2.90269267                4.00123309
              10.51302029                1.45926302               19.67557238                0.80349207                0.55218190                0.52124160               -1.80524865               -0.01253056                1.11974748                1.46825532
              11.51924990                1.33355515               19.54286462                1.00000000                0.62296049                0.75899715               -2.38227124               -0.06752211                0.35455015               -0.84199763
               1.64357483                3.58614719               20.32858777                1.00000000               -0.35045656               -0.45796328                1.47724745               -0.04529161                0.04463147                1.48151490
               2.64007026                3.45751226               20.18297487                0.69592805               -0.26726039               -0.26520103                0.88294928               -0.00482035                0.14977731               -0.72284322
               3.63822962                3.32825222               20.03943898                0.07198917               -0.18574799               -0.06967575                0.30514707                0.12058157                4.96151195               -3.03277390
               4.63635530                3.20041183               19.99006157                0.00010000               -0.19667440                0.10537408                0.24332644                0.39770540               11.75131309                0.29246692
               5.63429613                3.07575150               19.98238881                0.00010000               -0.16691700                0.02644841                0.01030743                0.64002185               13.95518494                0.62127545
               6.63301696                2.95218185               19.97685278                0.00010000               -0.09776336               -0.03875816               -0.18628257                0.73115717               13.92695628                1.64535509
               7.63234086                2.83014409               19.96837915                0.00010000               -0.00106226               -0.09360259               -0.39963580                0.73735246               13.44816867                2.78590085
               8.63299572                2.70956828               19.95290255                0.08415727                0.09471351               -0.18800177               -0.64691926                0.57180114               10.72415806                4.02667424
               9.63423513                2.58782304               19.88948720                0.32067699                0.24517030                0.11670715               -0.79675380                0.17577222                4.44050329                4.69046226
              10.63789912                2.46390029               19.74774698                0.74956600                0.44068571                0.41082402               -1.43011705               -0.00346574                0.30029328                1.64535400
              11.64304885                2.34096218               19.60107589                1.00000000                0.51497261                0.70432168               -2.09389180               -0.05699261                0.05870112               -0.69121281
               1.77079460                4.58189858               20.28733346                1.00000000               -0.27962128               -0.39024445                1.25869314               -0.04413639                0.02258983                1.37784411
               2.76799839                4.45525179               20.13090349                0.66704447               -0.18841323               -0.18747946                0.62403780               -0.00247601                0.08659872               -0.75124859
               3.76702633                4.32801714               19.97572027                0.05986690               -0.10029760                0.01882190               -0.00120597                0.07518054                7.41499768               -2.91429239
               4.76599243                4.20120445               19.96583487                0.00010000               -0.15511865                0.08674984                0.07962069                0.24834360               15.95726928               -0.45078642
               5.76392396                4.07585741               19.98173690                0.00010000               -0.20999938                0.02084216               -0.00444389                0.36935926               17.34871936                0.73133667
               6.76179245                3.95163578               19.99962922                0.00010000               -0.20418536               -0.06153626               -0.09382461                0.39653562               17.43283683                1.88497569
               7.75984025                3.82880014               20.01700912                0.00010000               -0.18653225               -0.15215751               -0.19801926                0.39951569               17.33874750                3.24099137
               8.75806180                3.70786387               20.03258987                0.09315037               -0.12252795               -0.19795421               -0.33097767                0.30638343               13.53132172                4.97534503
               9.75738970                3.58824043               19.97301714                0.33381524                0.08750203               -0.01032307               -0.37027449                0.13331821                4.96602670                3.63227194
              10.75981184                3.46747950               19.81659778                0.76500729                0.32982834                0.30684653               -1.07698835                0.00283498                0.07350322                1.31208013
              11.76398626                3.34764158               19.65882531                1.00000000                0.41744200                0.62009134               -1.79827110               -0.04585093                0.01000735               -0.80017799
               1.89598567                5.57834230               20.24560507                1.00000000               -0.20834867               -0.32083697                1.03911424               -0.04398721                0.02031872                1.33972029
               2.89390218                5.45376267               20.07858266                0.64075867               -0.11025495               -0.11023883                0.36432274               -0.00041112                0.09074783               -0.77207926
               3.89378057                5.32862866               19.91292971                0.04927510               -0.02101424                0.10372034               -0.30105059               -0.01076216                9.69478203               -2.86124681
               4.89348190                5.20214683               19.93794915                0.00010000               -0.12642918                0.12529684               -0.09916792                0.01736168               20.07918157               -0.72477786
               5.89125199                5.07616834               19.98035309                0.00010000               -0.27384762                0.05692789               -0.04043939                0.05293796               21.03416657                0.61941930
               6.88800495                4.95095113               20.02462164                0.00010000               -0.35744462               -0.05837597                0.00125311                0.03230091               21.19073415                1.97916600
               7.88410309                4.82710094               20.07005755                0.00010000               -0.41609272               -0.18280412                0.02053347                0.00642606               21.29628551                3.48525641
               8.87968309                4.70560919               20.11599637                0.10226391               -0.34086162               -0.27027613                0.00606218                0.01644920               15.74543238                5.18894267
               9.87728586                4.58761658               20.04954116                0.34787513               -0.05642068               -0.11230543                0.02618247                0.04867332                5.11584430                3.10146552
              10.87855468                4.47003722               19.88236175                0.78437548                0.22609073                0.20549854               -0.73587083                0.00134127                0.04926322                1.04524041
              11.88180768                4.35336401               19.71431890                1.00000000                0.32529991                0.52350575               -1.51062317               -0.04411253                0.00979850               -0.98118845
               2.01907411                6.57548184               20.20357347                1.00000000               -0.13703104               -0.25150956                0.81887944               -0.04359774                0.02169651                1.31099650
               3.01770380                6.45304702               20.02602220                0.61592010               -0.03235894               -0.03273517                0.10451108                0.00169180                0.10664696               -0.79362292
               4.01842693                6.33009154               19.85012606                0.03929331                0.05480942                0.18968178               -0.59974771               -0.11161072               11.91996312               -2.86312913
               5.01879999                6.20371039               19.90879161                0.00010000               -0.11242556                0.20480098               -0.28557291               -0.22674036               24.15757329               -0.87586845
               6.01617842                6.07699597               19.97813627                0.00010000               -0.36470642                0.12520542               -0.08065618               -0.27536603               24.80450973                0.49933378
               7.01150586                5.95046826               20.05009475                0.00010000               -0.54338556               -0.02373280                0.09936721               -0.36045685               25.05868210                1.92061024
               8.00531071                5.82514406               20.12460829                0.00010000               -0.68153570               -0.20227172                0.25459477               -0.41848423               25.30985404                3.49110394
               8.99787515                5.70245834               20.20129295                0.11145398               -0.56877866               -0.36239317                0.37600261               -0.30403371               17.71862344                5.27224378
               9.99393514                5.58599433               20.12324989                0.36214826               -0.18919524               -0.21097680                0.41022657               -0.04068153                5.03970048                2.85282618
              10.99409124                5.47158947               19.94605418                0.80443170                0.12576488                0.10580122               -0.40327463               -0.00149111                0.04898947                0.87104460
              11.99645043                5.35811169               19.76801447                1.00000000                0.23591920                0.42604244               -1.22895487               -0.04361915                0.01028519               -1.10830793
               2.13998336                7.57331211               20.16125158                1.00000000               -0.06570452               -0.18326026                0.59877769               -0.04305189                0.02255360                1.28049276
               3.13932631                7.45310797               19.97319471                0.59233273                0.04508119                0.04520966               -0.15474977                0.00414936                0.12590777               -0.81570322
               4.14088498                7.33242230               19.78715708                0.02968147                0.13581750                0.27756639               -0.89708843               -0.21203281               14.07775008               -2.86744776
               5.14204266                7.20624285               19.87807859                0.00010000               -0.09490950                0.30484192               -0.46950973               -0.44772780               28.18489837               -1.00462491
               6.13898679                7.07867245               19.97472306                0.00010000               -0.46974717                0.21704163               -0.12020693               -0.56717645               28.60359362                0.35845835
               7.13264772                6.95047647               20.07455404                0.00010000               -0.76217315                0.04934827                0.20043813               -0.72866279               28.96239180                1.71122656
               8.12374333                6.82305551               20.17871351                0.00010000               -0.99477856               -0.19063449                0.50105298               -0.86821325               29.41256505                3.27286091
               9.11275215                6.69836133               20.28754871                0.12074614               -0.82011140               -0.44255790                0.77928421               -0.65392427               19.61530215                5.21711223
              10.10734110                6.58339705               20.19538652                0.37659480               -0.31723310               -0.30692196                0.78603008               -0.13226415                4.82986021                2.70229626
              11.10640749                6.47215324               20.00845097                0.82514149                0.02748751                0.00773006               -0.07668125               -0.00530312                0.05224993                0.77203742
              12.10789085                6.36188486               19.82061580                1.00000000                0.14833646                0.32935364               -0.95186543               -0.04374173                0.01070362               -1.16928368
               2.25862135                8.57181664               20.11858971                1.00000000                0.00552443               -0.11751360                0.37934094               -0.04228241                0.02930362                1.25293993
               3.25867660                8.45395121               19.92011525                0.56990252                0.12150203                0.12453967               -0.41277822                0.00622786                0.15629916               -0.84912197
               4.26105139                8.33564287               19.72412938                0.02028097                0.24593419                0.36664916               -1.19173087               -0.31324120               16.18770216               -2.78287060
               5.26359528                8.20980723               19.84621556                0.00010000               -0.02250631                0.37428166               -0.64258686               -0.61238833               32.14515890               -0.97803817
               6.26060127                8.08133680               19.96972666                0.00010000               -0.55228689                0.28313410               -0.15704082               -0.70679147               32.33819572                0.22249761
               7.25254954                7.95145523               20.09621206                0.00010000               -1.02698408                0.18509106                0.29793212               -0.92627798               32.80408362                1.31661316
               8.24006159                7.82133137               20.22962534                0.00010000               -1.40472097               -0.06150072                0.74637468               -1.25798130               33.60354311                2.67065036
               9.22445512                7.69360719               20.37266936                0.13020031               -1.12818229               -0.45983451                1.20046251               -1.06788452               21.60770565                4.77240421
              10.21749794                7.57985589               20.26649844                0.39127147               -0.44788776               -0.39790283                1.15467785               -0.24251051                4.63057426                2.51392865
              11.21549737                7.47174407               20.07023062                0.84668320               -0.06927837               -0.08908966                0.24560209               -0.01120225                0.07153771                0.75390419
              12.21611237                7.36469877               19.87281101                1.00000000                0.06150040                0.23477479               -0.67801814               -0.04422677                0.01741188               -1.17853702
               2.37486856                9.57096183               20.07569413                1.00000000                0.07560745               -0.05547407                0.16241116               -0.04123213                0.00716835                1.05691483
               3.37562463                9.45559876               19.86654109                0.54840494                0.19477908                0.20539846               -0.67032495                0.00636621                0.27646301               -0.77386120
               4.37876414                9.33975528               19.66271948                0.01070940                0.42381663                0.44963270               -1.47593658               -0.45301546               18.38262368               -2.10479097
               5.38410097                9.21372848               19.81561554                0.00010000                0.22194113                0.27164731               -0.79475697               -0.55608005               35.97870423               -0.60176946
               6.38320296                9.08433513               19.96330707                0.00010000               -0.49866853                0.29236863               -0.18994223               -0.52904943               35.81671424                0.11069850
               7.37412760                8.95417829               20.11279439                0.00010000               -1.33856079                0.31933281                0.38007356               -0.70279989               36.36281755                0.72706764
               8.35643175                8.82182549               20.27207550                0.00010000               -2.06288272                0.29630210                0.95931043               -1.17927353               37.73475115                1.52615889
               9.33286994                8.68916464               20.45059484                0.13994212               -1.60388724               -0.25459596                1.60003082               -1.24042505               23.89217329                3.13446498
              10.32435400                8.57543899               20.33513546                0.40624019               -0.57646894               -0.46844959                1.50756232               -0.39271530                4.79425779                1.77614712
              11.32134056                8.47037145               20.13229256                0.86925963               -0.16285355               -0.18364546                0.56662814               -0.01956949                0.20444263                0.68615592
              12.32109693                8.36658035               19.92500719                0.99994721               -0.02436306                0.14329103               -0.40703499               -0.04605142               -0.01414660               -0.98771901
               2.48852286               10.57070715               20.02908425                1.00000000                0.14876166               -0.02546794               -0.06058138                0.10063263                0.54606533                0.87284215
               3.49001048               10.45805918               19.81488743                0.76798812                0.26692515                0.24604216               -0.91587657                0.13500282                1.17086403               -0.67375711
               4.49386136               10.34463553               19.61313084                0.50257542                0.89416768                0.48802476               -1.70912187               -0.63122813               20.76707414               -1.50801935
               5.50789383               10.21524018               19.79079366                0.44030656                0.78545521                0.15116945               -0.90835853               -0.49328124               39.27215892               -0.33241637
               6.50957047               10.08718418               19.95569209                0.43218538               -0.34453246                0.28490467               -0.21811050               -0.23316423               38.77936698                0.06396241
               7.50100318                9.95784189               20.12219774                0.45104660               -1.40403494                0.36635922                0.43588418               -0.30877985               39.39254735                0.40806889
               8.48148977                9.82725741               20.29976351                0.49490370               -2.74850264                0.54319162                1.10489898               -0.96052898               41.11299917                0.86395773
               9.44603313                9.68851527               20.50290834                0.57326439               -2.65264719               -0.06493745                1.86410512               -1.52220724               26.42054641                1.93348328
              10.42843682                9.57048689               20.39163283                0.70815203               -1.10342558               -0.49520953                1.79516488               -0.61392299                6.15483488                1.16865627
              11.42396462                9.46807117               20.19271376                0.94222011               -0.28316422               -0.23002860                0.87557155                0.11628989                1.12086776                0.60544260
              12.42277354                9.36756459               19.98085325                0.99996261               -0.11910762                0.09842336               -0.12084412                0.11700292                0.47711453               -0.79894615
               1.36717093                0.65925694               21.47223558                1.00000000               -0.55238003               -0.61136440                2.11044811               -0.11331672               -1.07569241                1.12377270
               2.36164713                0.51453483               21.34276174                1.00000000               -0.47166960               -0.45058102                1.60741673               -0.07197714               -1.10388964               -0.06115260
               3.35773754                0.36939069               21.21276446                0.69911517               -0.27247995               -0.30007877                1.09817740               -0.01213079               -0.78182969               -0.98643359
               4.35619753                0.22513514               21.08987227                0.52240673               -0.02175535               -0.16461777                0.60013416                0.05339997                1.05838183               -0.10354574
               5.35730243                0.08419298               20.99743995                0.45568743                0.15973175               -0.02823164                0.11265869                0.04653905                3.98066239               -0.09525049
               6.35939217               -0.05253867               20.93459396                0.46183233                0.17006422                0.11453889               -0.38566450               -0.00052826                5.31812852                0.01419683
               7.36070372               -0.18828468               20.87010542                0.53087006                0.15984628                0.25509542               -0.87748088                0.02320152                3.81074491                0.10231337
               8.36258909               -0.32655877               20.77660566                0.67659328                0.29549215                0.39238904               -1.37235112                0.02528670                1.17201611                0.15799737
               9.36661356               -0.46728687               20.65812002                0.93363702                0.51455414                0.53331129               -1.88996892               -0.01896629               -0.58517105                0.48954947
              10.37288018               -0.60869020               20.52865765                1.00000000                0.71416176                0.68617783               -2.43852135               -0.06835907               -1.00123543                0.38273377
              11.38089680               -0.74971806               20.40154144                1.00000000                0.80166200                0.85597278               -2.95367850               -0.12692075               -0.87509564               -0.92844992
               1.51075987                1.65314329               21.42562363                1.00000000               -0.48993860               -0.58263626                1.89271840               -0.03911952               -0.03603289                1.42857538
               2.50586048                1.51002902               21.29541758                0.96858934               -0.42218943               -0.41507992                1.39253304               -0.00013715                0.07042621               -0.16018639
               3.50231608                1.36638990               21.16733213                0.25413129               -0.32650474               -0.25908800                0.91404300                0.07119077                1.46101841               -1.53991956
               4.49933039                1.22348896               21.06491616                0.00410822               -0.28556764               -0.13086809                0.48017000                0.25447359                3.92554658               -1.76381259
               5.49660473                1.08391067               20.98554812                0.00861265               -0.18523358                0.03756069                0.04525457                0.45979004                6.75022865                0.58333664
               6.49562572                0.94860672               20.93830722                0.01204975                0.06705289                0.04453982               -0.38928078                0.56817356                8.32308687                0.65596015
               7.49794579                0.81426628               20.88945978                0.00918220                0.33586704                0.05296862               -0.81062975                0.47527790                6.69789334                0.63734180
               8.50234306                0.67736512               20.81020828                0.22028324                0.47719147                0.33601075               -1.23392503                0.22816987                3.96209680                1.99835616
               9.50748962                0.53804624               20.70762609                0.60623959                0.55345609                0.47942829               -1.67799669                0.07561624                1.97749132                1.62576550
              10.51341218                0.39817158               20.58917301                1.00000000                0.65829143                0.63382938               -2.14346402                0.00743787                0.69703525                0.77442280
              11.52065544                0.25884167               20.46094161                1.00000000                0.72432641                0.82273432               -2.67640369               -0.05169271                0.21386358               -0.99058697
               1.65261708                2.64760421               21.38513453                1.00000000               -0.42193043               -0.52340155                1.68887703               -0.04491889                0.19203925                1.66707431
               2.64839778                2.50623323               21.24610502                0.73654320               -0.34578315               -0.34069834                1.14289689               -0.00722349                0.37857611               -0.50930032
               3.64570142                2.36420893               21.11078338                0.09526982               -0.23157668               -0.16285081                0.63345247                0.06189466                2.12647762               -2.68052224
               4.64376624                2.22251778               21.00673198                0.00010000               -0.21604720               -0.02184907                0.26269238                0.34005012                7.91803027               -1.21878794
               5.64138047                2.08494420               20.98713622                0.00010000               -0.16831066                0.04531539                0.02331842                0.63746383               11.53192910                0.83724616
               6.64040003                1.94835213               20.95471482                0.00010000                0.00352021               -0.05135745               -0.29282612                0.73152403               10.78512300                1.42438748
               7.64145088                1.81277469               20.91936171                0.00010000                0.14862476               -0.12066967               -0.61686595                0.79322687               10.48065469                1.91817925
               8.64337253                1.68016144               20.88046932                0.07837304                0.29342760                0.01724883               -0.93862144                0.50659278                7.22804103                3.59021880
               9.64731943                1.54230169               20.77974713                0.32472689                0.44304899                0.27757030               -1.32250751                0.04337465                3.06099634                4.23043537
              10.65223351                1.40398638               20.65741137                0.78800592                0.56016605                0.51608390               -1.82688078               -0.02709862                1.18324726                1.54861735
              11.65852275                1.26673663               20.51892951                1.00000000                0.62892462                0.77916192               -2.40468393               -0.07599438                0.38194544               -0.89333739
               1.79260344                3.64267526               21.34334281                1.00000000               -0.34921523               -0.45902296                1.47417007               -0.04566245                0.04437539                1.51722960
               2.78911129                3.50321506               21.19178010                0.68411424               -0.26670063               -0.26221924                0.87789953               -0.00479696                0.15783099               -0.77443944
               3.78726943                3.36313289               21.04246236                0.07022908               -0.18575827               -0.06144170                0.29884354                0.05093965                5.23906689               -3.18405223
               4.78539613                3.22305198               20.99252689                0.00010000               -0.18748896                0.03978592                0.24765809                0.18477506               12.20563605                0.31416358
               5.78351965                3.08481697               20.98245964                0.00010000               -0.14852132               -0.02420200                0.00203238                0.34770072               14.34948365                0.66025226
               6.78242570                2.94757957               20.97490814                0.00010000               -0.07593223               -0.08959627               -0.20439010                0.42464625               14.34539286                1.73184972
               7.78200101                2.81185288               20.96425505                0.00010000                0.02611062               -0.13865408               -0.42668292                0.44408860               13.85517778                2.91271606
               8.78294791                2.67771010               20.94625926                0.08227530                0.12655800               -0.24003208               -0.68271354                0.36425823               11.18240416                4.17750568
               9.78453217                2.54359765               20.88144682                0.31561247                0.27436799                0.05754249               -0.81170073                0.10552465                4.71757387                4.94902125
              10.78843527                2.40849325               20.73335933                0.73518562                0.45514491                0.39728417               -1.44749319               -0.00760232                0.31721121                1.74197217
              11.79363507                2.27442491               20.58003319                1.00000000                0.51997936                0.73233373               -2.11451233               -0.05942639                0.06035659               -0.72767704
               1.93062424                4.63842375               21.29989711                1.00000000               -0.27800323               -0.39011602                1.25441703               -0.04445268                0.02281691                1.40994649
               2.92784421                4.50098885               21.13710827                0.65565667               -0.18704775               -0.18387361                0.61680849               -0.00175436                0.09146991               -0.80081844
               3.92688329                4.36298010               20.97566076                0.05822969               -0.10332758                0.02683469               -0.01117602               -0.02634505                7.77966298               -3.04903319
               4.92577766                4.22331349               20.96661357                0.00010000               -0.15381961                0.04642062                0.07411138                0.00402613               16.60121849               -0.51427524
               5.92380690                4.08446016               20.98163493                0.00010000               -0.19603059               -0.01973744               -0.01817790                0.07507015               17.91812089                0.75800031
               6.92185705                3.94656020               20.99858604                0.00010000               -0.18023845               -0.10644032               -0.11710799                0.08923345               18.00751041                1.96900953
               7.92020213                3.81000161               21.01487358                0.00010000               -0.14720613               -0.20454948               -0.23133871                0.09428189               17.90775899                3.37565648
               8.91891292                3.67536080               21.02907183                0.09110637               -0.07776802               -0.26502840               -0.37463568                0.08550792               14.16041038                5.15784375
               9.91864677                3.54345254               20.96926293                0.32839914                0.11706367               -0.05951221               -0.38114772                0.05847409                5.32211262                3.82957290
              10.92125420                3.41193207               20.80575748                0.75017313                0.34120730                0.29491168               -1.09123613                0.00153582                0.08178961                1.38846273
              11.92547091                3.28138330               20.64074926                1.00000000                0.42167145                0.64517992               -1.81676780               -0.04533902                0.01096896               -0.83531046
               2.06658419                5.63487294               21.25597034                1.00000000               -0.20643367               -0.32012793                1.03425074               -0.04417294                0.02030688                1.37079882
               3.06451986                5.49953758               21.08218280                0.62980956               -0.10831547               -0.10636879                0.35553518                0.00076486                0.09549820               -0.82144303
               4.06441788                5.36366958               20.90986126                0.04778540               -0.02616334                0.11136882               -0.31328152               -0.13143494               10.13902632               -2.99050077
               5.06399659                5.22398039               20.93690433                0.00010000               -0.13217690                0.10661504               -0.11184004               -0.25041043               20.89726138               -0.79835379
               6.06177435                5.08442222               20.97986193                0.00010000               -0.26638389                0.02954127               -0.06033237               -0.25121814               21.78613642                0.63110826
               7.05866891                4.94545077               21.02450132                0.00010000               -0.33441503               -0.09658725               -0.02817482               -0.29076611               21.94023503                2.06226187
               8.05508605                4.80776189               21.07007363                0.00010000               -0.37308872               -0.23456320               -0.02033953               -0.32377379               22.03641123                3.63132273
               9.05120714                4.67240953               21.11580238                0.10007337               -0.29778309               -0.33599745               -0.04794955               -0.22258431               16.52038941                5.39222517
              10.04913038                4.54240740               21.04976720                0.34214447               -0.03359547               -0.14877631                0.01834717               -0.02943306                5.53107254                3.27238696
              11.05053523                4.41439149               20.87494404                0.76899808                0.23477143                0.19736426               -0.74786201               -0.00018999                0.05629190                1.10911036
              12.05382581                4.28732851               20.69912451                1.00000000                0.32905838                0.54354070               -1.52802244               -0.04365329                0.01029894               -1.02259470
               2.20041150                6.63202119               21.21173511                1.00000000               -0.13486318               -0.25058049                0.81370722               -0.04371466                0.02143112                1.34167002
               3.19906287                6.49886147               21.02701903                0.60545559               -0.02998586               -0.02874702                0.09459654                0.00312843                0.11160661               -0.84225672
               4.19981178                6.36520747               20.84406335                0.03797286                0.04769704                0.19706515               -0.61358331               -0.24239120               12.43980606               -2.98995299
               5.20001681                6.22544580               20.90585803                0.00010000               -0.12498111                0.20299606               -0.30329725               -0.50938621               25.14669058               -0.95109058
               6.19731216                6.08505098               20.97721797                0.00010000               -0.36573749                0.11353136               -0.10587355               -0.59209281               25.74361974                0.50729288
               7.19270206                5.94462846               21.05092764                0.00010000               -0.52721351               -0.05119230                0.06380615               -0.70246047               25.99253388                2.00290846
               8.18676789                5.80531035               21.12692935                0.00010000               -0.64431650               -0.24642378                0.20582627               -0.77466646               26.23534751                3.64642638
               9.17981573                5.66864085               21.20474854                0.10914222               -0.53458711               -0.41757045                0.31094117               -0.55684882               18.62422626                5.50367745
              10.17607615                5.54047702               21.12732948                0.35616016               -0.17432166               -0.23716157                0.40496796               -0.11649270                5.49096129                3.01018278
              11.17632929                5.41587935               20.94197055                0.78858465                0.13238294                0.10071890               -0.41365974               -0.00325843                0.05562122                0.92621880
              12.17872381                5.29225412               20.75563850                1.00000000                0.23945111                0.44200868               -1.24596857               -0.04326892                0.01054774               -1.15466833
               2.33202934                7.62986133               21.16721122                1.00000000               -0.06331949               -0.18220632                0.59337462               -0.04316806                0.02206888                1.31147011
               3.33139614                7.49896264               20.97159473                0.58239233                0.04781999                0.04924998               -0.16557891                0.00566190                0.13130093               -0.86306890
               4.33298574                7.36761088               20.77811516                0.02853669                0.12846075                0.28467818               -0.91220545               -0.34484664               14.67407586               -2.99134458
               5.33396536                7.22804031               20.87328979                0.00010000               -0.11179557                0.31801284               -0.49054265               -0.73089207               29.34459507               -1.07308280
               6.33074983                7.08669285               20.97338970                0.00010000               -0.48025110                0.22134135               -0.14965343               -0.88726912               29.73006157                0.36552616
               7.32436034                6.94442692               21.07637360                0.00010000               -0.75847530                0.03703534                0.15956088               -1.07942562               30.08679156                1.78905415
               8.31558032                6.80283342               21.18346796                0.00010000               -0.97284225               -0.22104167                0.44532361               -1.24012417               30.53892156                3.42947045
               9.30490349                6.66405812               21.29499402                0.11833260               -0.80091455               -0.48175200                0.70467419               -0.91472564               20.64038535                5.47086004
              10.29956203                6.53766417               21.20323643                0.37038790               -0.31052656               -0.32457330                0.78316148               -0.20431061                5.29569398                2.85020266
              11.29869296                6.41640586               21.00763974                0.80887701                0.03244369                0.00509155               -0.08579202               -0.00731331                0.05899356                0.82126498
              12.30021090                6.29616868               20.81101061                1.00000000                0.15179437                0.34191820               -0.96889884               -0.04349440                0.01086503               -1.21946998
               2.46134551                8.62837707               21.12235382                1.00000000                0.00810380               -0.11627930                0.37367750               -0.04244419                0.02887021                1.28544078
               3.46142655                8.49984647               20.91593097                0.56050760                0.12458332                0.12862665               -0.42446226                0.00765775                0.16282975               -0.89535012
               4.46383718                8.37090104               20.71213541                0.01931579                0.24452241                0.37334552               -1.20805825               -0.44109459               16.86520892               -2.89950632
               5.46631700                8.23180605               20.83968530                0.00010000               -0.03285047                0.39541865               -0.66588515               -0.87532863               33.47597732               -1.03187876
               6.46318017                8.08947781               20.96801045                0.00010000               -0.56720091                0.29681111               -0.18965503               -0.99786922               33.64594311                0.22868455
               7.45497298                7.94536916               21.09898826                0.00010000               -1.04229816                0.19299557                0.25296776               -1.24886270               34.11917672                1.37974269
               8.44233421                7.80088951               21.23681056                0.00010000               -1.41412605               -0.06530803                0.68554154               -1.61608933               34.94326085                2.80633395
               9.42669046                7.65900581               21.38429880                0.12769656               -1.13460087               -0.47372910                1.11957341               -1.33429067               22.74904846                5.02266706
              10.41964219                7.53398555               21.27804726                0.38486385               -0.45059701               -0.40828150                1.15426759               -0.31373198                5.09845829                2.64965324
              11.41767852                7.41598118               21.07264812                0.83001446               -0.06569518               -0.08978598                0.23765360               -0.01352893                0.07977037                0.80001357
              12.41832828                7.29909248               20.86594337                1.00000000                0.06497659                0.24436934               -0.69523168               -0.04405923                0.01798399               -1.23183886
               2.58824164                9.62753574               21.07728784                1.00000000                0.07836857               -0.05400003                0.15648418               -0.04140579                0.00440544                1.08758393
               3.58902533                9.50153518               20.85977688                0.53953791                0.19813132                0.20957565               -0.68294278                0.00751059                0.28778325               -0.81355046
               4.59220427                9.37507780               20.64787759                0.00990681                0.44283444                0.45586259               -1.49345043               -0.57516444               19.15137123               -2.18992659
               5.59788202                9.23594869               20.80755597                0.00010000                0.25125313                0.26972236               -0.81965810               -0.74271812               37.47895826               -0.62976528
               6.59722933                9.09262907               20.96125176                0.00010000               -0.49553194                0.30414774               -0.22477787               -0.72135633               37.29221446                0.11383726
               7.58797138                8.94828683               21.11637922                0.00010000               -1.38037220                0.34706779                0.33225436               -0.91403166               37.85446901                0.76220420
               8.56962189                8.80152726               21.28137579                0.00010000               -2.14248679                0.33965647                0.89520627               -1.43682191               39.28929154                1.60777278
               9.54512164                8.65458354               21.46620964                0.13735000               -1.66549330               -0.21236710                1.51651848               -1.46230994               25.15878872                3.30615247
              10.53631202                8.52949854               21.35022472                0.39962278               -0.59030945               -0.47204125                1.50942341               -0.47102988                5.27336951                1.87091208
              11.53331545                8.41461015               21.13792596                0.85211997               -0.16024483               -0.18287439                0.55981885               -0.02229489                0.22058618                0.72544305
              12.53310712                8.30105607               20.92084807                0.99995791               -0.02083283                0.15047154               -0.42447397               -0.04598096               -0.01484555               -1.03493192
               2.71251853               10.62729707               21.02844708                1.00000000                0.15161779               -0.02386789               -0.06677464                0.10178124                0.55875243                0.90041544
               3.71403471               10.50403799               20.80566411                0.76371662                0.27009234                0.25028101               -0.92927590                0.13699962                1.21535047               -0.70711445
               4.71792038               10.38001829               20.59595481                0.50222867                0.99383227                0.49404947               -1.72711728               -0.77026311               21.64019188               -1.56686896
               5.73391136               10.23720050               20.78159561                0.44079193                0.92472584                0.12518139               -0.93388624               -0.61994225               40.93247694               -0.35386047
               6.73641490               10.09556076               20.95334982                0.43239116               -0.30585957                0.29316890               -0.25416695               -0.32594230               40.39986949                0.05996257
               7.72779417                9.95231052               21.12633158                0.45086975               -1.45569175                0.40236897                0.38607202               -0.41162716               41.03084383                0.42207740
               8.70730106                9.80768264               21.31050797                0.49430767               -2.91605953                0.61553878                1.03827566               -1.10968495               42.83043845                0.90450653
               9.66947297                9.65475847               21.52115364                0.57194353               -2.85530396                0.01749344                1.77842613               -1.72176252               27.82171853                2.04295024
              10.65019498                9.52454473               21.40960027                0.70478070               -1.18989395               -0.49538150                1.79749558               -0.73344255                6.70736415                1.23093634
              11.64567510                9.41232370               21.20144003                0.93348879               -0.28390811               -0.22864490                0.86952157                0.11382360                1.18595719                0.63867738
              12.64451682                9.30210191               20.97955597                0.99995691               -0.11582750                0.10458450               -0.13819779                0.11879131                0.50299751               -0.83870898
               1.48821293                0.71837369               22.49335127                1.00000000               -0.55442525               -0.61282254                2.11297831               -0.11221979               -1.11324257                1.15929821
               2.48266868                0.56231326               22.35884758                1.00000000               -0.47613686               -0.45111401                1.60950060               -0.07082904               -1.14462291               -0.06718241
               3.47869019                0.40578198               22.22375696                0.69637890               -0.29510887               -0.29752164                1.09952652               -0.02998263               -0.81988999               -1.00509894
               4.47676650                0.24964204               22.09588288                0.52198371               -0.08070020               -0.16352686                0.60079295                0.01178758                1.02937852               -0.10634034
               5.47707619                0.09545727               21.99855086                0.45581600                0.09067309               -0.02425121                0.10835995                0.00783025                3.95027859               -0.09760362
               6.47857996               -0.05607842               21.93067454                0.46171366                0.15392612                0.12060256               -0.39896515               -0.02145410                5.28691797                0.01690331
               7.48015471               -0.20691576               21.86122653                0.52990695                0.20403629                0.26208201               -0.89856870               -0.00659231                3.78467917                0.10920899
               8.48266069               -0.35923013               21.76276429                0.67387824                0.34732786                0.39954393               -1.39584768               -0.00633010                1.13689032                0.16670707
               9.48710127               -0.51289022               21.63910577                0.92741119                0.54320509                0.53863570               -1.91254098               -0.03546243               -0.64537938                0.50241669
              10.49352479               -0.66670522               21.50415414                1.00000000                0.72638982                0.69154041               -2.46172531               -0.06864265               -1.05958387                0.41358211
              11.50162906               -0.82006105               21.37189297                1.00000000                0.81042753                0.86434782               -2.97558667               -0.12612790               -0.91637678               -0.98295977
               1.64315117                1.71224547               22.44455617                1.00000000               -0.48949234               -0.58467724                1.89404487               -0.03846303               -0.02613809                1.47070072
               2.63825625                1.55780212               22.30935049                0.95350470               -0.42125968               -0.41529840                1.39376466                0.00075554                0.09176699               -0.18425078
               3.63472597                1.40280676               22.17649322                0.24993905               -0.31047591               -0.25559964                0.91744976                0.04656680                1.51556191               -1.60811289
               4.63204673                1.24800677               22.06972911                0.00424039               -0.23556267               -0.12657813                0.48136221                0.15934366                4.00375184               -1.81452962
               5.63001472                1.09521476               21.98598623                0.00877548               -0.12473945               -0.01477116                0.04122291                0.27969644                6.83241018                0.60173502
               6.62955194                0.94512760               21.93434647                0.01227470                0.08249605                0.01880978               -0.40360420                0.34746032                8.42012333                0.70659332
               7.63166464                0.79570506               21.88123738                0.00943873                0.30163386                0.05781318               -0.83406183                0.29106097                6.81036322                0.70688272
               8.63558462                0.64476531               21.79773780                0.21666292                0.44097721                0.33037127               -1.26002130                0.13052590                4.06861533                2.08498857
               9.64048419                0.49249614               21.69071596                0.59701050                0.54195824                0.47922478               -1.70375464                0.04138727                2.06439930                1.71170699
              10.64642378                0.34021019               21.56762669                1.00000000                0.66197179                0.63771350               -2.16546609                0.00321786                0.73875004                0.81553320
              11.65372362                0.18858242               21.43406399                1.00000000                0.72998423                0.83289348               -2.69880988               -0.05160295                0.22062705               -1.04794119
               1.79633037                2.70668015               22.40202008                1.00000000               -0.42078763               -0.52581348                1.68849739               -0.04545624                0.19885490                1.71027205
               2.79212250                2.55400729               22.25752101                0.72332278               -0.34567488               -0.33909470                1.13993096               -0.00795369                0.40463560               -0.55855979
               3.78941687                2.40066998               22.11711445                0.09285232               -0.22885621               -0.15564785                0.63191276                0.03206860                2.24249678               -2.82491609
               4.78754537                2.24711048               22.00938991                0.00010000               -0.19337953               -0.05966299                0.26782743                0.14579373                8.16771016               -1.21833777
               5.78554928                2.09516185               21.98733838                0.00010000               -0.12532504               -0.03784670                0.01565071                0.30385651               11.81774661                0.87424449
               6.78503887                1.94429777               21.95170735                0.00010000                0.03944710               -0.10899865               -0.30987397                0.38280600               11.04142141                1.51647280
               7.78633823                1.79424050               21.91307346                0.00010000                0.17206276               -0.14092579               -0.64155571                0.47540871               10.74676426                2.04635758
               8.78848013                1.64737729               21.87093849                0.07639091                0.30729542               -0.01247140               -0.96762322                0.31605964                7.48016724                3.73255332
               9.79248413                1.49669428               21.76640768                0.31916777                0.45113669                0.23957664               -1.34520462               -0.01629406                3.22464081                4.46696588
              10.79750286                1.34604905               21.63903476                0.77240369                0.56841983                0.50917216               -1.84828583               -0.04321326                1.24871180                1.63223907
              11.80385253                1.19659682               21.49477094                1.00000000                0.63496710                0.80032357               -2.42680454               -0.08599180                0.41022895               -0.94405615
               1.94758776                3.70172920               22.35807117                1.00000000               -0.34804277               -0.46050823                1.47182006               -0.04598553                0.04386098                1.55224638
               2.94410734                3.55102022               22.20053286                0.67215311               -0.26618026               -0.25872815                0.87239904               -0.00468791                0.16608322               -0.82839384
               3.94226416                3.39969380               22.04541585                0.06838969               -0.18183008               -0.05162082                0.29106461               -0.02546466                5.52283396               -3.34117538
               4.94047074                3.24681351               21.99501473                0.00010000               -0.16798023               -0.02844808                0.24765557               -0.03693591               12.66156786                0.32827365
               5.93890455                3.09445783               21.98242946                0.00010000               -0.11706642               -0.07733581               -0.00984966                0.04493725               14.73563646                0.69490414
               6.93812941                2.94294763               21.97276497                0.00010000               -0.04056292               -0.14374886               -0.22587859                0.10469249               14.75732506                1.81514885
               7.93809330                2.79288654               21.95984549                0.00010000                0.06613135               -0.18729064               -0.45652830                0.13698319               14.25622050                3.03633681
               8.93945203                2.64451588               21.93924828                0.08029753                0.16966250               -0.29498361               -0.72020890                0.14008302               11.64934515                4.32341186
               9.94148655                2.49728767               21.87325319                0.31039063                0.31024708               -0.00913833               -0.82736161                0.02699591                5.00691650                5.21484773
              10.94565698                2.35039363               21.71879712                0.72070579                0.47108573                0.38074971               -1.46493670               -0.01201641                0.33432931                1.84254282
              11.95090826                2.20458890               21.55878565                1.00000000                0.52512856                0.76236166               -2.13467688               -0.06199616                0.06180642               -0.76283704
               2.09682861                4.69746999               22.31242180                1.00000000               -0.27644806               -0.39044648                1.25086682               -0.04476973                0.02289180                1.44213363
               3.09406413                4.54883273               22.14323966                0.64414589               -0.18571601               -0.17985908                0.60926062               -0.00092666                0.09639374               -0.85221613
               4.09311429                4.39963757               21.97549675                0.05652057               -0.10107517                0.03611229               -0.02232413               -0.13579029                8.14765913               -3.18755581
               5.09204263                4.24654152               21.96731710                0.00010000               -0.14001921                0.00608883                0.06442022               -0.25333544               17.24653892               -0.58641696
               6.09031391                4.09361513               21.98137334                0.00010000               -0.16693120               -0.06251785               -0.03629751               -0.23227753               18.48251757                0.77941488
               7.08870401                3.94142280               21.99728706                0.00010000               -0.14021343               -0.15464312               -0.14480647               -0.23259571               18.57621255                2.04877742
               8.08750964                3.79049469               22.01238235                0.00010000               -0.09116734               -0.26074560               -0.26886612               -0.22541089               18.47025975                3.50557917
               9.08688066                3.64147762               22.02509716                0.08897587               -0.01816691               -0.33694453               -0.42192722               -0.15189507               14.80458890                5.33402984
              10.08714630                3.49651151               21.96539419                0.32285620                0.15403239               -0.11449463               -0.39323239               -0.02672317                5.69754062                4.03163033
              11.08996131                3.35366405               21.79477306                0.73529274                0.35378872                0.28063614               -1.10575986               -0.00006150                0.09044890                1.46756970
              12.09422208                3.21184405               21.62248996                1.00000000                0.42607702                0.67169918               -1.83478988               -0.04477720                0.01186463               -0.86979864
               2.24396689                5.69392027               22.26629009                1.00000000               -0.20456664               -0.31978131                1.03000377               -0.04440933                0.02023622                1.40237691
               3.24192122                5.54742304               22.08569336                0.61876625               -0.10636613               -0.10213882                0.34635124                0.00196681                0.10046582               -0.87214959
               4.24183956                5.40041605               21.90666408                0.04623628               -0.02473805                0.12005075               -0.32685738               -0.26089968               10.58478705               -3.12254711
               5.24142646                5.24693529               21.93571235                0.00010000               -0.12309209                0.08808022               -0.12864360               -0.53360108               21.71547411               -0.87788395
               6.23937772                5.09320747               21.97914644                0.00010000               -0.24142609               -0.00005386               -0.08520252               -0.57066079               22.53423967                0.63796843
               7.23659794                4.93985477               22.02405814                0.00010000               -0.29237346               -0.13843224               -0.06310479               -0.62973456               22.68378715                2.14088216
               8.23353025                4.78767163               22.06965076                0.00010000               -0.31003129               -0.29082131               -0.06695321               -0.66953327               22.76866613                3.77209525
               9.23039731                4.63777699               22.11503738                0.09780168               -0.23822980               -0.40686808               -0.10772518               -0.47974839               17.31713290                5.58799710
              10.22876566                4.49499778               22.04990810                0.33630532               -0.00370528               -0.18913772                0.00913514               -0.11922942                5.97363618                3.44736012
              11.23032321                4.35600635               21.86740451                0.75361076                0.24435281                0.18770480               -0.76024266               -0.00207795                0.06391956                1.17486744
              12.23365271                4.21802288               21.68375846                1.00000000                0.33295073                0.56440911               -1.54492613               -0.04317620                0.01077437               -1.06442962
               2.38893488                6.69107436               22.21984762                1.00000000               -0.13271940               -0.24987371                0.80904136               -0.04389955                0.02118397                1.37294825
               3.38760769                6.54678995               22.02791413                0.59489759               -0.02754146               -0.02441959                0.08414785                0.00456949                0.11701234               -0.89187196
               4.38838405                6.40203858               21.83785439                0.03658885                0.04857488                0.20536503               -0.62897670               -0.38274765               12.96005646               -3.11891685
               5.38857919                6.24830312               21.90272567                0.00010000               -0.12014206                0.20093197               -0.32528022               -0.80954773               26.13471154               -1.03016440
               6.38598121                6.09361406               21.97601880                0.00010000               -0.34670161                0.09915088               -0.13666546               -0.92612402               26.67887530                0.51159789
               7.38164515                5.93865415               22.05137088                0.00010000               -0.48922291               -0.08289208                0.02166359               -1.06142201               26.91978902                2.08137495
               8.37619675                5.78467826               22.12872482                0.00010000               -0.58428052               -0.29539609                0.14975297               -1.14714005               27.15122422                3.79698919
               9.36995954                5.63334026               22.20751178                0.10674614               -0.48322019               -0.47743583                0.23789861               -0.82777171               19.55838600                5.72838725
              10.36653235                5.49272876               22.13134925                0.35006078               -0.15324487               -0.26572306                0.39821106               -0.20392608                5.97767217                3.17134612
              11.36689465                5.35741814               21.93778099                0.77272922                0.13965750                0.09473116               -0.42449542               -0.00532756                0.06302155                0.98279782
              12.36932550                5.22313223               21.74309510                1.00000000                0.24308541                0.45838516               -1.26248720               -0.04290541                0.01084422               -1.20213012
               2.53165771                7.68892280               22.17311907                1.00000000               -0.06093271               -0.18127644                0.58839443               -0.04333595                0.02164176                1.34299390
               3.53104839                7.54693465               21.96988313                0.57233925                0.05068641                0.05360513               -0.17705061                0.00722363                0.13732303               -0.91121495
               4.53267144                7.40452335               21.76891297                0.02733032                0.13058219                0.29258704               -0.92904548               -0.48817657               15.27029113               -3.11703161
               5.53366003                7.25095393               21.86826773                0.00010000               -0.10836159                0.33001732               -0.51600938               -1.03361322               30.50221493               -1.14393498
               6.53050421                7.09519049               21.97172999                0.00010000               -0.46773693                0.22171876               -0.18526343               -1.22605249               30.85216754                0.37012192
               7.52430529                6.93819693               22.07774525                0.00010000               -0.73014330                0.01951542                0.11108753               -1.44694838               31.20383838                1.86424970
               8.51590134                6.78176371               22.18761998                0.00010000               -0.92569529               -0.25640239                0.38075880               -1.62745713               31.65430422                3.58293377
               9.50579139                6.62822827               22.30164220                0.11583093               -0.76460457               -0.52476792                0.62005075               -1.19202728               21.70035664                5.72052336
              10.50060925                6.48968332               22.21104975                0.36405130               -0.29891031               -0.34340493                0.77877296               -0.28709312                5.80417530                3.00193768
              11.49981318                6.35790098               22.00673513                0.79258230                0.03785887                0.00199931               -0.09538340               -0.00953587                0.06664338                0.87172600
              12.50136643                6.22719058               21.80123783                1.00000000                0.15532505                0.35461480               -0.98545887               -0.04323702                0.01109039               -1.27105427
               2.67204446                8.68744883               22.12606326                1.00000000                0.01071513               -0.11512705                0.36836533               -0.04263476                0.02849658                1.31840121
               3.67215161                8.54786205               21.91162600                0.55098113                0.12783949                0.13299788               -0.43685444                0.00918288                0.17009536               -0.94232414
               4.67460125                8.40789032               21.69996822                0.01827443                0.25440890                0.38069936               -1.22616926               -0.58087765               17.54244348               -3.01775374
               5.67723978                8.25490347               21.83289786                0.00010000               -0.01920412                0.41344678               -0.69378046               -1.15979823               34.80413159               -1.08734339
               6.67421716                8.09804843               21.96593356                0.00010000               -0.55534090                0.30410054               -0.22892495               -1.30696062               34.94885811                0.23334623
               7.66613297                7.93904446               22.10127142                0.00010000               -1.03004484                0.19410657                0.19955056               -1.58552817               35.42656594                1.44157068
               8.65361627                7.77955022               22.24333618                0.00010000               -1.39667879               -0.07400862                0.61457515               -1.98568721               36.27178144                2.94094148
               9.63819939                7.62284490               22.39506083                0.12509639               -1.12492405               -0.48977117                1.02690275               -1.61420811               23.93079485                5.27235677
              10.63111779                7.48586066               22.28958380                0.37830832               -0.45013635               -0.41895488                1.15229900               -0.39454759                5.61443280                2.78918065
              11.62919666                7.35745813               22.07498370                0.81327724               -0.06181185               -0.09062863                0.22922127               -0.01601850                0.08893843                0.84733944
              12.62988155                7.23022453               21.85890638                1.00000000                0.06848844                0.25392656               -0.71195611               -0.04389146                0.01861683               -1.28657791
               2.80997857                9.68662025               22.07882381                1.00000000                0.08119770               -0.05259241                0.15081238               -0.04159567                0.00158420                1.11866293
               3.81079055                9.54959461               21.85288224                0.53050669                0.20169509                0.21401906               -0.69631226                0.00876119                0.29992889               -0.85396626
               4.81401248                9.41213734               21.63285047                0.00902710                0.47577032                0.46266822               -1.51274572               -0.71196436               19.92002079               -2.27630362
               5.82030596                9.25922286               21.79922238                0.00010000                0.31057640                0.25901142               -0.84926644               -0.94781321               38.97632576               -0.65883774
               6.82022400                9.10127250               21.95881152                0.00010000               -0.46065058                0.30694339               -0.26664522               -0.92645422               38.76247048                0.11619568
               7.81109295                8.94207906               22.11943947                0.00010000               -1.39184224                0.36671270                0.27537213               -1.13300111               39.33833048                0.79696644
               8.79238716                8.78028354               22.28997963                0.00010000               -2.19480814                0.37664806                0.82010766               -1.69929989               40.83375017                1.68974099
               9.76719678                8.61843285               22.48092521                0.13465281               -1.71410427               -0.16793137                1.41992978               -1.69017559               26.47049400                3.47930862
              10.75810507                8.48130422               22.36532393                0.39283368               -0.60339216               -0.47530675                1.50969666               -0.55822564                5.80406511                1.96845259
              11.75512894                8.35608840               22.14348894                0.83486937               -0.15746336               -0.18207752                0.55258808               -0.02518559                0.23776101                0.76578721
              12.75495581                8.23226911               21.91651771                0.99996635               -0.01731335                0.15750355               -0.44134738               -0.04592649               -0.01553155               -1.08335066
               2.94526384               10.68639698               22.02774876                1.00000000                0.15459110               -0.02232726               -0.07286259                0.10307145                0.57146197                0.92839934
               3.94680975               10.55214243               21.79630192                0.75936782                0.27349332                0.25478264               -0.94352570                0.13925498                1.26115330               -0.74119356
               4.95073370               10.41714369               21.57858850                0.50184026                1.11693058                0.50063504               -1.74699047               -0.93081424               22.51384672               -1.62674757
               5.96914836               10.26008369               21.77211594                0.44125258                1.10490901                0.08608318               -0.96435477               -0.76357918               42.58935020               -0.37609101
               6.97283188               10.10418730               21.95060875                0.43259178               -0.23432260                0.29148011               -0.29757401               -0.42446108               42.01403924                0.05534614
               7.96446191                9.94637871               22.12991918                0.45068801               -1.47777027                0.42996559                0.32685827               -0.51831001               42.66035021                0.43573007
               8.94327648                9.78708318               22.32052902                0.49368775               -3.05433552                0.67996402                0.96031323               -1.25569014               44.53794081                0.94523453
               9.90337520                9.61948627               22.53847686                0.57056591               -3.04893797                0.10534248                1.67933928               -1.91859135               29.27146074                2.15396472
              10.88229772                9.47635452               22.42758274                0.70131885               -1.28235694               -0.49496973                1.79837540               -0.86422027                7.31434527                1.29504594
              11.87772806                9.35381658               22.21010419                0.92469319               -0.28480598               -0.22718245                0.86323465                0.11091563                1.25315642                0.67277341
              12.87660160                9.23337460               21.97808929                0.99995169               -0.11264591                0.11054846               -0.15477585                0.12038115                0.52946874               -0.87945161
               1.61391344                0.78003309               23.51449514                1.00000000               -0.55644625               -0.61445976                2.11597691               -0.11126907               -1.15055589                1.19447371
               2.60834898                0.61218538               23.37495175                1.00000000               -0.48044972               -0.45147960                1.61105508               -0.06986643               -1.18522041               -0.07391935
               3.60430445                0.44381619               23.23475499                0.69352456               -0.31788912               -0.29460295                1.09931399               -0.04904991               -0.85784536               -1.02212776
               4.60199120                0.27531587               23.10188813                0.52149879               -0.13940519               -0.16245420                0.59904535               -0.03017914                0.99873512               -0.10926490
               5.60151635                0.10737017               22.99960715                0.45590910                0.02318332               -0.02123162                0.10154991               -0.03109513                3.91456127               -0.10004935
               6.60245487               -0.05954447               22.92661466                0.46156606                0.13956004                0.12502458               -0.41408160               -0.04240114                5.24892337                0.01947461
               7.60430755               -0.22612220               22.85213405                0.52889582                0.24963992                0.26791937               -0.92052545               -0.03594046                3.75439348                0.11606179
               8.60744766               -0.39317164               22.74868871                0.67107694                0.40042918                0.40623268               -1.41945269               -0.03792539                1.10123630                0.17546205
               9.61231613               -0.56045894               22.61986920                0.92100161                0.57268132                0.54374055               -1.93461283               -0.05234260               -0.70550384                0.51402009
              10.61890129               -0.72736366               22.47942314                1.00000000                0.73877288                0.69652695               -2.48407061               -0.06923012               -1.11775557                0.44669320
              11.62709159               -0.89371927               22.34202970                1.00000000                0.81902974                0.87241546               -2.99658315               -0.12538246               -0.95658763               -1.03762091
               1.78064847                1.77388849               23.46350453                1.00000000               -0.48896991               -0.58692183                1.89580271               -0.03784804               -0.01493542                1.51229103
               2.77575877                1.60767058               23.32329287                0.93811541               -0.41998836               -0.41528538                1.39442825                0.00143993                0.11562670               -0.21071559
               3.77224870                1.44087016               23.18568113                0.24558922               -0.29231778               -0.25141030                0.91947229                0.01993766                1.57163527               -1.67833662
               4.76991241                1.27369133               23.07454340                0.00436278               -0.18065680               -0.12252370                0.48048272                0.05965107                4.07960342               -1.86366909
               5.76863557                1.10715786               22.98637258                0.00891801               -0.05676876               -0.06921569                0.03497737                0.09580352                6.90781681                0.61817202
               6.76877704                0.94170578               22.93023514                0.01247020                0.10630795               -0.00962231               -0.41943526                0.12188226                8.50791316                0.75635842
               7.77076172                0.77655699               22.87277854                0.00968113                0.27298694                0.06079667               -0.85799813                0.10161937                6.91731061                0.77685647
               8.77423678                0.61089069               22.78500785                0.21289976                0.40634941                0.32368305               -1.28591773                0.03077341                4.17455533                2.17149792
               9.77888871                0.44497847               22.67355100                0.58751528                0.53011902                0.47813631               -1.72902267                0.00553865                2.15402809                1.79958023
              10.78483916                0.27960161               22.54586369                1.00000000                0.66523347                0.64121935               -2.18674617               -0.00152018                0.78271309                0.85855602
              11.79219338                0.11500488               22.40696541                1.00000000                0.73542240                0.84265604               -2.72042342               -0.05150421                0.22746137               -1.10514501
               1.94559231                2.76829465               23.41890448                1.00000000               -0.41961942               -0.52850145                1.68859765               -0.04605827                0.20514798                1.75260320
               2.94139612                2.60387967               23.26890364                0.70994335               -0.34549301               -0.33710264                1.13624876               -0.00885880                0.43227464               -0.61101376
               3.93868245                2.43878798               23.12342164                0.09035709               -0.22497984               -0.14715367                0.62878177               -0.00093649                2.36492202               -2.97558671
               4.93689652                2.27286540               23.01208853                0.00010000               -0.16322401               -0.10005318                0.27102901               -0.05503306                8.41671358               -1.22020781
               5.93541797                2.10598586               22.98744923                0.00010000               -0.07015748               -0.12388808                0.00519157               -0.03778721               12.09455730                0.90732888
               6.93549337                1.94026308               22.94851734                0.00010000                0.08685240               -0.17014703               -0.32918376                0.02435054               11.29119440                1.60590835
               7.93715502                1.77509373               22.90653059                0.00010000                0.20741427               -0.16431292               -0.66767256                0.14596616               11.00876310                2.17307530
               8.93964166                1.61330202               22.86111686                0.07430395                0.32804796               -0.04355115               -0.99668677                0.11501984                7.73485332                3.87147443
               9.94371598                1.44910379               22.75284304                0.31343307                0.46014099                0.19648114               -1.36749994               -0.08041715                3.39364166                4.71024616
              10.94884448                1.28546073               22.62044566                0.75670075                0.57694970                0.50020992               -1.86922378               -0.06098525                1.31590111                1.71905126
              11.95525497                1.12313385               22.47039342                1.00000000                0.64104959                0.82221364               -2.44819741               -0.09765076                0.43921475               -0.99355440
               2.10855728                3.76331846               23.37277921                1.00000000               -0.34690084               -0.46235764                1.47005434               -0.04629170                0.04313912                1.58669593
               3.10508827                3.60092853               23.20922808                0.66004768               -0.26565180               -0.25478215                0.86637037               -0.00451801                0.17461346               -0.88447266
               4.10324424                3.43792708               23.04828365                0.06647138               -0.17371970               -0.04036115                0.28169787               -0.10808381                5.81193910               -3.50381209
               5.10161388                3.27169027               22.99748000                0.00010000               -0.13810523               -0.09889323                0.24317634               -0.26558319               13.11888720                0.33383741
               6.10048214                3.10468009               22.98226265                0.00010000               -0.07288506               -0.13271900               -0.02516035               -0.26590606               15.11475092                0.72451299
               7.10015617                2.93830283               22.97039057                0.00010000                0.00799853               -0.20102497               -0.25041173               -0.22652189               15.16343487                1.89421494
               8.10064211                2.77327074               22.95512449                0.00010000                0.11854723               -0.23929027               -0.48868420               -0.18204810               14.65210509                3.15534698
               9.10252712                2.61001967               22.93185509                0.07821941                0.22397774               -0.35248600               -0.75878118               -0.10057197               12.12556530                4.46256629
              10.10512166                2.44890809               22.86489959                0.30501177                0.35311397               -0.08367759               -0.84362576               -0.06040766                5.30863384                5.48704756
              11.10958940                2.28960581               22.70406060                0.70611787                0.48862384                0.36076686               -1.48219649               -0.01680057                0.35165443                1.94686413
              12.11489414                2.13144915               22.53733965                1.00000000                0.53047410                0.79403386               -2.15392449               -0.06469418                0.06304458               -0.79628028
               2.26944635                4.75904750               23.32491444                1.00000000               -0.27492144               -0.39119003                1.24796104               -0.04509297                0.02286165                1.47439258
               3.26669714                4.59878402               23.14929348                0.63251778               -0.18436595               -0.17542005                0.60123518                0.00000845                0.10147410               -0.90536316
               4.26575903                4.43798076               22.97521428                0.05473362               -0.09326469                0.04669566               -0.03494676               -0.25230478                8.51811930               -3.32971265
               5.26483185                4.27088753               22.96790197                0.00010000               -0.11358763               -0.03380622                0.05040947               -0.52197201               17.89242963               -0.66696433
               6.26348728                4.10333148               22.98090898                0.00010000               -0.12297774               -0.10719807               -0.05860213               -0.55068686               19.04241418                0.79484867
               7.26237229                3.93624258               22.99568991                0.00010000               -0.08450287               -0.20591184               -0.17645782               -0.56696929               19.13928960                2.12308796
               8.26179723                3.77030793               23.00949626                0.00010000               -0.01897151               -0.32047066               -0.30992409               -0.55761284               19.02654175                3.62907224
               9.26199286                3.60625230               23.02063329                0.08675442                0.05622272               -0.41324057               -0.47195206               -0.40561773               15.46463075                5.50167353
              10.26292168                3.44743024               22.96139828                0.31716950                0.19872721               -0.17542765               -0.40649123               -0.12309614                6.09299292                4.23793321
              11.26596741                3.29267607               22.78364228                0.72034551                0.36763649                0.26375489               -1.12041653               -0.00209247                0.09955621                1.54910546
              12.27027441                3.13901452               22.60405346                1.00000000                0.43070041                0.69928122               -1.85204234               -0.04419081                0.01267400               -0.90363634
               2.42818237                5.75549466               23.27657041                1.00000000               -0.20271890               -0.31981651                1.02633509               -0.04466407                0.02011998                1.43438795
               3.42615518                5.59742013               23.08910982                0.60760192               -0.10438677               -0.09748813                0.33665461                0.00327650                0.10571273               -0.92420835
               4.42609464                5.43886100               22.90332411                0.04461592               -0.01657348                0.12997432               -0.34192166               -0.39818238               11.03126001               -3.25741368
               5.42582371                5.27101414               22.93433145                0.00010000               -0.09906436                0.06997951               -0.14959192               -0.83050402               22.53285214               -0.96326266
               6.42411335                5.10253613               22.97815788                0.00010000               -0.19916881               -0.03160454               -0.11477084               -0.90361844               23.27837839                0.63935902
               7.42184034                4.93418460               23.02323922                0.00010000               -0.23166094               -0.18368693               -0.10300860               -0.98276417               23.42122585                2.21377699
               8.41948013                4.76686132               23.06873457                0.00010000               -0.22739417               -0.35135107               -0.11859699               -1.02877473               23.49273942                3.90576253
               9.41729245                4.60175486               23.11364788                0.09544572               -0.16220780               -0.48242616               -0.17225204               -0.75478154               18.13696361                5.77384451
              10.41623597                4.44539954               23.04994990                0.33034054                0.03354051               -0.23339760               -0.00149226               -0.22176224                6.44508386                3.62606969
              11.41796326                4.29488091               22.85973919                0.73818428                0.25487198                0.17643124               -0.77298717               -0.00441425                0.07214923                1.24220752
              12.42133341                4.14543478               22.66822599                1.00000000                0.33701502                0.58588106               -1.56124188               -0.04271044                0.01119770               -1.10690443
               2.58470215                6.75265117               23.22791594                1.00000000               -0.13058117               -0.24945501                0.80484472               -0.04410680                0.02094855                1.40480566
               3.58339634                6.59683426               23.02870199                0.58422321               -0.02503897               -0.01968286                0.07311338                0.00612968                0.12288136               -0.94245349
               4.58420137                6.44058024               22.83148382                0.03513906                0.05751455                0.21477139               -0.64594505               -0.53174069               13.47991843               -3.25004415
               5.58454663                6.27228712               22.89935243                0.00010000               -0.09784560                0.19876395               -0.35135436               -1.12559647               27.12041517               -1.11308395
               6.58224446                6.10269939               22.97448466                0.00010000               -0.30774058                0.08221986               -0.17266382               -1.27579845               27.60964724                0.51164801
               7.57839182                5.93256885               23.05136091                0.00010000               -0.42964928               -0.11866129               -0.02650772               -1.43558518               27.83971960                2.15481086
               8.57365147                5.76328091               23.12992441                0.00010000               -0.50164018               -0.34902927                0.08698866               -1.53378667               28.05651435                3.94096110
               9.56835901                5.59660378               23.20950651                0.10426669               -0.41455466               -0.54176600                0.15788181               -1.11651106               20.52312936                5.94397401
              10.56536038                5.44276229               23.13529370                0.34383559               -0.12575656               -0.29655782                0.38997219               -0.30412280                6.50246335                3.33608639
              11.56584388                5.29620469               22.93348064                0.75684412                0.14760439                0.08783819               -0.43580988               -0.00778257                0.07122466                1.04049714
              12.56831247                5.15073214               22.73038875                1.00000000                0.24685850                0.47507684               -1.27858401               -0.04255990                0.01114606               -1.25100440
               2.73893406                7.75050556               23.17897911                1.00000000               -0.05853500               -0.18054110                0.58378244               -0.04351934                0.02126214                1.37508275
               3.73834871                7.59702647               22.96805372                0.56216864                0.05364529                0.05833114               -0.18914538                0.00890096                0.14396455               -0.96003796
               4.74000696                7.44315642               22.75953425                0.02604561                0.14219674                0.30141121               -0.94746033               -0.64121124               15.86556330               -3.24432453
               5.74119264                7.27498942               22.86296960                0.00010000               -0.08456511                0.34087058               -0.54559302               -1.35441170               31.65632409               -1.21713937
               6.73831566                7.10418053               22.96968443                0.00010000               -0.43227633                0.21819103               -0.22657368               -1.58193669               31.96879068                0.37175254
               7.73254711                6.93181137               23.07859535                0.00010000               -0.67730986               -0.00312438                0.05556226               -1.82949624               32.31223565                1.93577760
               8.72476946                6.75988074               23.19108313                0.00010000               -0.85331302               -0.29661044                0.30787423               -2.02814418               32.75707364                3.73157193
               9.71548085                6.59091954               23.30739503                0.11324321               -0.71084282               -0.57169240                0.52588135               -1.48563169               22.79788713                5.96384014
              10.71055261                6.43946838               23.21881189                0.35759332               -0.28215491               -0.36336505                0.77293439               -0.38171333                6.35904348                3.15727750
              11.70983775                6.29663767               23.00573208                0.77624593                0.04373548               -0.00152647               -0.10548140               -0.01206232                0.07519482                0.92315089
              12.71142732                6.15493631               22.79130143                1.00000000                0.15895601                0.36744480               -1.00169539               -0.04299662                0.01135262               -1.32435534
               2.89078995                8.74904035               23.12972113                1.00000000                0.01335435               -0.11410282                0.36333455               -0.04282541                0.02817524                1.35184405
               3.89092350                8.59800088               22.90719388                0.54131352                0.13121192                0.13767354               -0.44984648                0.01083311                0.17809223               -0.98986164
               4.89341419                8.44660847               22.68761202                0.01716068                0.27553957                0.38875102               -1.24574016               -0.73193856               18.21849157               -3.13728765
               5.89643429                8.27910454               22.82580969                0.00010000                0.01847909                0.42822166               -0.72578654               -1.46452080               36.12791255               -1.14427940
               6.89378377                8.10706321               22.96343195                0.00010000               -0.51663021                0.30486337               -0.27431858               -1.63260941               36.24538737                0.23619205
               7.88610168                7.93250636               23.10297927                0.00010000               -0.99016742                0.18835121                0.13819716               -1.93458740               36.72445448                1.50133433
               8.87398043                7.75734870               23.24910206                0.00010000               -1.35214751               -0.08757540                0.53385041               -2.36473682               37.58685238                3.07321937
               9.85905873                7.58516993               23.40483685                0.12240151               -1.09862257               -0.50829292                0.92237256               -1.90736750               25.15620701                5.51955030
              10.85200797                7.43549499               23.30109324                0.37161185               -0.44620144               -0.42998652                1.14892113               -0.48593875                6.18329524                2.93219371
              11.85013471                7.29617416               23.07723254                0.79646547               -0.05763590               -0.09161392                0.22033133               -0.01874027                0.09909437                0.89565253
              12.85085526                7.15808104               22.85170425                1.00000000                0.07205509                0.26349133               -0.72837454               -0.04373085                0.01932514               -1.34302867
               3.04015648                9.74822351               23.08030409                1.00000000                0.08407732               -0.05125899                0.14531028               -0.04178201               -0.00129091                1.15013631
               4.04099725                9.59977994               22.84585064                0.52133210                0.20540313                0.21869371               -0.71022519                0.01012362                0.31287332               -0.89492609
               5.04426454                9.45093144               22.61762267                0.00806832                0.52251170                0.46994058               -1.53334384               -0.86284913               20.68753019               -2.36365268
               6.05144748                9.28355385               22.79057065                0.00010000                0.39985547                0.23935180               -0.88298188               -1.17049143               40.46882767               -0.68878840
               7.05226165                9.11027780               22.95591886                0.00010000               -0.39388044                0.30050034               -0.31495251               -1.14333983               40.22561576                0.11767441
               8.04356988                8.93557840               23.12188667                0.00010000               -1.37252491                0.37796746                0.20991925               -1.35846765               40.81231170                0.83096630
               9.02481115                8.75812923               23.29777794                0.00010000               -2.21913295                0.40699238                0.73423558               -1.96514722               42.36544518                1.77138325
               9.99918722                8.58075368               23.49460824                0.13185426               -1.74907758               -0.12177292                1.30993521               -1.92354191               27.83124266                3.65278855
              10.98982960                8.43086865               23.38041866                0.38589130               -0.61551605               -0.47834752                1.50868701               -0.65508494                6.39195665                2.06855880
              11.98687689                8.29480540               23.14897772                0.81753333               -0.15453265               -0.18127530                0.54503449               -0.02827745                0.25606659                0.80705011
              12.98673895                8.16020614               22.91202112                0.99997285               -0.01379490                0.16443373               -0.45782929               -0.04588894               -0.01618731               -1.13314023
               3.18684145               10.74801517               23.02698983                1.00000000                0.15765832               -0.02083376               -0.07892394                0.10445627                0.58415825                0.95674443
               4.18841803               10.60237476               22.78679360                0.75493717                0.27709219                0.25948198               -0.95835075                0.14168380                1.30812873               -0.77584679
               5.19238329               10.45600728               22.56101501                0.50141449                1.26300367                0.50758351               -1.76819743               -1.11228391               23.38679386               -1.68745010
               6.21367811               10.28389157               22.76230851                0.44169026                1.32545711                0.03377168               -0.99913146               -0.92364091               44.24069395               -0.39890591
               7.21889244               10.11307321               22.94739834                0.43279089               -0.12986040                0.27954175               -0.34769734               -0.52821447               43.61998782                0.05013287
               8.21108090                9.94006571               23.13286875                0.45050102               -1.46951181                0.44873109                0.25876156               -0.62813102               44.27904021                0.44889825
               9.18950220                9.76548855               23.32971424                0.49304393               -3.16162131                0.73593166                0.87120582               -1.39745667               46.23287413                0.98584941
              10.14784847                9.58273447               23.55474043                0.56914096               -3.23238217                0.19807972                1.56642713               -2.11189984               30.77404496                2.26581317
              11.12485456                9.42592804               23.44556778                0.69777801               -1.38084021               -0.49406173                1.79817442               -1.00679503                7.98171826                1.36086708
              12.12023167                9.29254866               23.21870472                0.91585171               -0.28592840               -0.22567378                0.85686525                0.10756137                1.32257768                0.70765071
              13.11913599                9.16136971               22.97646046                0.99994686               -0.10956799                0.11635746               -0.17071877                0.12180998                0.55654840               -0.92124056
               1.74428860                0.84424440               24.53567080                1.00000000               -0.55841762               -0.61624437                2.11930998               -0.11045894               -1.18780399                1.22938766
               2.73870442                0.66415263               24.39106869                1.00000000               -0.48458446               -0.45167176                1.61204335               -0.06908632               -1.22591448               -0.08142766
               3.73459691                0.48348715               24.24574324                0.69054500               -0.34076878               -0.29137723                1.09758257               -0.06919738               -0.89591054               -1.03753638
               4.73188904                0.30214620               24.10786378                0.52095136               -0.19780104               -0.16132054                0.59492224               -0.07225700                0.96659198               -0.11239878
               5.73064089                0.11992542               24.00058186                0.45597902               -0.04287552               -0.01893026                0.09197511               -0.06996054                3.87425442               -0.10266981
               6.73103153               -0.06292989               23.92239291                0.46139227                0.12638229                0.12819740               -0.43157027               -0.06317588                5.20519407                0.02183569
               7.73316853               -0.24588352               23.84281602                0.52785531                0.29593633                0.27291545               -0.94406196               -0.06450470                3.72085155                0.12280883
               8.73695026               -0.42835919               23.73437524                0.66819893                0.45441124                0.41263055               -1.44383258               -0.06919545                1.06587455                0.18420530
               9.74225676               -0.60997343               23.60041351                0.91443816                0.60294563                0.54873254               -1.95663465               -0.06944772               -0.76480753                0.52421787
              10.74900917               -0.79065245               23.45447273                1.00000000                0.75137152                0.70112451               -2.50573953               -0.07012664               -1.17519557                0.48213687
              11.75728419               -0.97068488               23.31196131                1.00000000                0.82750141                0.88006882               -3.01666911               -0.12472004               -0.99526489               -1.09188570
               1.92327577                1.83808196               24.48247222                1.00000000               -0.48835945               -0.58934358                1.89789071               -0.03728394               -0.00246736                1.55344906
               2.91839218                1.65963591               24.33723905                0.92244773               -0.41838125               -0.41504122                1.39451257                0.00189152                0.14202730               -0.23970150
               3.91490815                1.48057338               24.19488267                0.24109312               -0.27224201               -0.24657117                0.92017184               -0.00846981                1.62939486               -1.75076090
               4.91294734                1.30053299               24.07933876                0.00447782               -0.12144132               -0.11882406                0.47759094               -0.04371277                4.15363310               -1.91134711
               5.91247932                1.11973612               23.98668578                0.00904440                0.01784520               -0.12535296                0.02662761               -0.09050890                6.97742563                0.63208622
               6.91330424                0.93835209               23.92595777                0.01264058                0.13794063               -0.04048035               -0.43673264               -0.10703083                8.58761672                0.80468954
               7.91523814                0.75684564               23.86407742                0.00991242                0.24995083                0.06197887               -0.88254719               -0.09197634                7.01956902                0.84663402
               8.91830326                0.57576712               23.77201944                0.20900136                0.37353883                0.31593698               -1.31180997               -0.07086255                4.28026168                2.25762401
               9.92270891                0.39551390               23.65613551                0.57778823                0.51801876                0.47620203               -1.75386864               -0.03184584                2.24654340                1.88923344
              10.92866364                0.21635879               23.52389176                1.00000000                0.66802515                0.64428142               -2.20716081               -0.00683836                0.82901947                0.90352892
              11.93606941                0.03811581               23.37965552                1.00000000                0.74057797                0.85181840               -2.74086961               -0.05144304                0.23437695               -1.16162483
               2.10043500                2.83245753               24.43579203                1.00000000               -0.41841752               -0.53144023                1.68911639               -0.04671987                0.21078589                1.79422941
               3.09625083                2.65585181               24.28024599                0.69642320               -0.34522845               -0.33474913                1.13187091               -0.00994035                0.46150791               -0.66668183
               4.09353043                2.47855573               24.12969009                0.08779556               -0.21993876               -0.13742269                0.62416403               -0.03696130                2.49422346               -3.13276952
               5.09185205                2.29976972               24.01481049                0.00010000               -0.12594091               -0.14280905                0.27257717               -0.26076143                8.66556239               -1.22601951
               6.09101161                2.11741836               23.98744221                0.00010000               -0.00353263               -0.21238902               -0.00774414               -0.38497630               12.36287669                0.93557230
               7.09178140                1.93626051               23.94512367                0.00010000                0.14511809               -0.23463622               -0.35038611               -0.34151394               11.53541521                1.69156653
               8.09391397                1.75535606               23.89972001                0.00010000                0.25416748               -0.19089102               -0.69484792               -0.19341043               11.26765155                2.29704712
               9.09686475                1.57795955               23.85100476                0.07211436                0.35570953               -0.07581718               -1.02563095               -0.09602324                7.99250215                4.00604966
              10.10102817                1.39955062               23.73905768                0.30753790                0.47028768                0.14797387               -1.38904799               -0.14907871                3.56777995                4.95948227
              11.10627050                1.22223317               23.60165029                0.74089658                0.58565655                0.48877496               -1.88924937               -0.08063833                1.38454753                1.80890864
              12.11274130                1.04635148               23.44580699                1.00000000                0.64707961                0.84437225               -2.46816210               -0.11108758                0.46866506               -1.04125658
               2.27555282                3.82745315               24.38747225                1.00000000               -0.34576470               -0.46454449                1.46880167               -0.04658344                0.04223874                1.62071656
               3.27209517                3.65294093               24.21786027                0.64779369               -0.26509024               -0.25040437                0.85977924               -0.00426335                0.18345328               -0.94260515
               4.27025101                3.47782493               24.05104981                0.06446059               -0.16128467               -0.02764404                0.27072286               -0.19631821                6.10550823               -3.67200732
               5.26886948                3.29767681               23.99987826                0.00010000               -0.09810030               -0.17094694                0.23430392               -0.49960614               13.57763231                0.32953714
               6.26828901                3.11548834               23.98192626                0.00010000               -0.01666061               -0.19007411               -0.04353876               -0.58274028               15.48820022                0.74810404
               7.26853627                2.93365936               23.96775674                0.00010000                0.06909372               -0.26123016               -0.27744592               -0.56696987               15.56459125                1.96784363
               8.26967088                2.75302782               23.95007181                0.00010000                0.18259876               -0.29450052               -0.52246453               -0.51127334               15.04375959                3.26829510
               9.27218824                2.57425077               23.92407266                0.07604211                0.28914163               -0.41206265               -0.79752239               -0.35739690               12.61130374                4.59323110
              10.27545371                2.39847338               23.85638067                0.29947151                0.40308791               -0.16653799               -0.86016551               -0.15737402                5.62239444                5.76444422
              11.28025000                2.22613429               23.68915319                0.69142296                0.50786634                0.33671957               -1.49883779               -0.02216874                0.36913771                2.05446618
              12.28561104                2.05500325               23.51570716                1.00000000                0.53610422                0.82667503               -2.17156473               -0.06750911                0.06403430               -0.82795296
               2.44852777                4.82316664               24.33738102                1.00000000               -0.27339883               -0.39233081                1.24562310               -0.04540933                0.02275641                1.50674321
               3.44579378                4.65084372               24.15526437                0.62074582               -0.18297920               -0.17052837                0.59264028                0.00114060                0.10679098               -0.96027331
               4.44486819                4.47800285               23.97479781                0.05286439               -0.07986338                0.05866532               -0.04916346               -0.37504126                8.89029196               -3.47550827
               5.44419652                4.29635078               23.96832529                0.00010000               -0.07469652               -0.07286165                0.03215442               -0.80028532               18.53858342               -0.75577422
               6.44337426                4.11361688               23.98020130                0.00010000               -0.06469973               -0.15346809               -0.08471825               -0.87831802               19.59867858                0.80346223
               7.44290252                3.93103590               23.99375791                0.00010000               -0.01385796               -0.26000262               -0.21140550               -0.91206670               19.69739779                2.19064189
               8.44309710                3.74946605               24.00618386                0.00010000                0.06843643               -0.38345431               -0.35360556               -0.90060511               19.57715726                3.74434543
               9.44427125                3.56971830               24.01565812                0.08443869                0.14500357               -0.49350595               -0.52352907               -0.67565928               16.14088241                5.65846488
              10.44599717                3.39621986               23.95726436                0.31134461                0.25130022               -0.24248100               -0.42070200               -0.23142089                6.50856804                4.44768994
              11.44929725                3.22896757               23.77236473                0.70532455                0.38280125                0.24389250               -1.13492557               -0.00473806                0.10907453                1.63246629
              12.45365319                3.06288499               23.58544911                1.00000000                0.43559403                0.72731250               -1.86807458               -0.04365677                0.01333428               -0.93730691
               2.61929047                5.81960654               24.28681679                1.00000000               -0.20086955               -0.32024305                1.02317660               -0.04491839                0.01998340                1.46674195
               3.61728177                5.64953036               24.09242645                0.59631956               -0.10236692               -0.09233679                0.32633015                0.00476749                0.11132141               -0.97764366
               4.61724313                5.47899823               23.89982565                0.04291334               -0.00160166                0.14123557               -0.35861636               -0.54234937               11.47779178               -3.39511342
               5.61724974                5.29621958               23.93272051                0.00010000               -0.06028038                0.05262593               -0.17461019               -1.13945596               23.34879865               -1.05434890
               6.61603752                5.11241898               23.97685102                0.00010000               -0.14019895               -0.06482078               -0.14860078               -1.24844233               24.01883858                0.63463219
               7.61444576                4.92845931               24.02199797                0.00010000               -0.15305689               -0.23208308               -0.14717051               -1.34814854               24.15269845                2.27961948
               8.61297638                4.74535873               24.06727882                0.00010000               -0.12622551               -0.41585646               -0.17428126               -1.39971585               24.20862129                4.03032124
               9.61192125                4.56438065               24.11159234                0.09300178               -0.07001776               -0.56228546               -0.24032952               -1.04766904               18.98059991                5.94715081
              10.61157603                4.39362376               24.04987825                0.32424058                0.07844287               -0.28156779               -0.01344245               -0.33790980                6.94635703                3.80807857
              11.61349011                4.23101214               23.85194477                0.72270053                0.26635181                0.16338146               -0.78597466               -0.00737126                0.08099942                1.31061120
              12.61690307                4.06954950               23.65253362                1.00000000                0.34129575                0.60758578               -1.57681680               -0.04231338                0.01152897               -1.15065825
               2.78778175                6.81676178               24.23594451                1.00000000               -0.12843105               -0.24936378                0.80105063               -0.04431595                0.02073860                1.43713312
               3.78649743                6.64899698               24.02937640                0.57342406               -0.02248800               -0.01441825                0.06139710                0.00782699                0.12926440               -0.99396110
               4.78733199                6.48082756               23.82493549                0.03361027                0.07446088                0.22552123               -0.66457330               -0.68849959               13.99878247               -3.38321241
               5.78798665                6.29740330               23.89569858                0.00010000               -0.05831532                0.19671506               -0.38132308               -1.45602492               28.10298526               -1.19973529
               6.78616568                6.11232046               23.97256552                0.00010000               -0.24934288                0.06296349               -0.21339104               -1.63961530               28.53561631                0.50687417
               7.78299979                5.92639424               24.05084072                0.00010000               -0.34921212               -0.15825994               -0.07998088               -1.82330016               28.75185174                2.22195215
               8.77918144                5.74114892               24.13046459                0.00010000               -0.39734762               -0.40706187                0.01847285               -1.93274505               28.95058592                4.07639269
               9.77505284                5.55847259               24.21066941                0.10170253               -0.32869745               -0.61029604                0.07191825               -1.42306486               21.51977301                6.14743965
              10.77260749                5.39058850               24.13914870                0.33748354               -0.09143781               -0.32972169                0.38039982               -0.41801733                7.06738177                3.50415927
              11.77322409                5.23223519               23.92906479                0.74091325                0.15623591                0.07999758               -0.44757390               -0.01071862                0.08022502                1.09891814
              12.77573221                5.07503670               23.71752342                1.00000000                0.25081194                0.49192384               -1.29432890               -0.04226362                0.01141768               -1.30192649
               2.95393374                7.81461926               24.18479472                1.00000000               -0.05612054               -0.18005227                0.57947155               -0.04369080                0.02093517                1.40765073
               3.95337253                7.64924200               23.96610023                0.55186267                0.05665450                0.06354563               -0.20189893                0.01072610                0.15126467               -1.00936667
               4.95506683                7.48350866               23.74996377                0.02468378                0.16319033                0.31142965               -0.96742054               -0.80324165               16.45919697               -3.37290207
               5.95663634                7.30015388               23.85735587                0.00010000               -0.04062769                0.35067673               -0.57897408               -1.69194780               32.80569828               -1.29249589
               6.95425427                7.11367825               23.96719852                0.00010000               -0.37425180                0.21086913               -0.27306361               -1.95350617               33.07902839                0.36998649
               7.94915130                6.92529411               24.07885650                0.00010000               -0.60055678               -0.03072047               -0.00633628               -2.22543014               33.41089813                2.00252523
               8.94224314                6.73721749               24.19377747                0.00010000               -0.75654626               -0.34145643                0.22749625               -2.44025400               33.84577204                3.87364353
               9.93402038                6.55217473               24.31215982                0.11055916               -0.63950295               -0.62249437                0.42286400               -1.79543300               23.93538455                6.19782961
              10.92945308                6.38702932               24.22650844                0.35099277               -0.25964204               -0.38453693                0.76578967               -0.48910648                6.96392695                3.31604392
              11.92882753                6.23261209               24.00462550                0.75985849                0.05008514               -0.00548303               -0.11607408               -0.01489456                0.08471950                0.97524667
              12.93045478                6.07938798               23.78120392                1.00000000                0.16272455                0.38037798               -1.01780378               -0.04278959                0.01164796               -1.37991828
               3.11766245                8.81316073               24.13332995                1.00000000                0.01601084               -0.11324887                0.35852752               -0.04298793                0.02790746                1.38568408
               4.11782256                8.65026790               23.90262908                0.53151498                0.13464105                0.14271849               -0.46336380                0.01261612                0.18682713               -1.03765791
               5.12035527                8.48705615               23.67505342                0.01596348                0.30777744                0.39763208               -1.26655460               -0.89374088               18.89248729               -3.25751944
               6.12397811                8.30441683               23.81838213                0.00010000                0.08000264                0.43971943               -0.76145433               -1.78841580               37.44569205               -1.20234070
               7.12195532                8.11653785               23.96044719                0.00010000               -0.45130817                0.29906733               -0.32527159               -1.97354862               37.53405698                0.23698234
               8.11495194                7.92577983               24.10403536                0.00010000               -0.92297948                0.17574001                0.06952543               -2.29446315               38.01116491                1.55819393
               9.10349573                7.73431979               24.25401318                0.00010000               -1.28097956               -0.10592343                0.44396857               -2.75128882               38.88623018                3.20169033
              10.08933235                7.54602270               24.41350828                0.11961095               -1.05538673               -0.52948425                0.80629436               -2.21307420               26.42885388                5.76198140
              11.08238800                7.38289776               24.31256222                0.36477087               -0.43824054               -0.44142351                1.14443582               -0.58877618                6.81012717                3.07863195
              12.08056754                7.23212553               24.07939032                0.77959632               -0.05316784               -0.09274313                0.21102449               -0.02166146                0.11035098                0.94475399
              13.08132464                7.08264426               23.84433889                1.00000000                0.07571009                0.27310619               -0.74474088               -0.04360312                0.02009544               -1.40159457
               3.27885965                9.81235428               24.08173002                1.00000000                0.08697843               -0.05001716                0.13993003               -0.04194107               -0.00420252                1.18188839
               4.27972943                9.65209637               23.83867773                0.51200830                0.20917131                0.22358407               -0.72445515                0.01158007                0.32659306               -0.93611463
               5.28304307                9.49146130               23.60218359                0.00702618                0.58284474                0.47769320               -1.55474743               -1.02743533               21.45276622               -2.45130881
               6.29138633                9.30894827               23.78156274                0.00010000                0.51886127                0.21065034               -0.92023142               -1.41004565               41.95440033               -0.71929831
               7.29342030                9.11965959               23.95251247                0.00010000               -0.29531172                0.28465673               -0.36908664               -1.37116374               41.67976409                0.11820796
               8.28548009                8.92880891               24.12363786                0.00010000               -1.32229042                0.38063415                0.13648212               -1.58928467               42.27429604                0.86376078
               9.26697449                8.73509903               24.30466434                0.00010000               -2.21495844                0.43038922                0.63797991               -2.23286577               43.88155731                1.85177165
              10.24118092                8.54158505               24.50712392                0.12896609               -1.76998847               -0.07422705                1.18640890               -2.16139865               29.24517322                3.82534156
              11.23157472                8.37820085               24.39549767                0.37880502               -0.62665584               -0.48120741                1.50677017               -0.76240153                7.04309420                2.17119161
              12.22864781                8.23075723               24.15438963                0.80012319               -0.15147285               -0.18049689                0.53724990               -0.03156796                0.27564207                0.84912138
              13.22854526                8.08485010               23.90736112                0.99997790               -0.01025422                0.17134272               -0.47417488               -0.04589015               -0.01680885               -1.18451276
               3.43733946               10.81216039               24.02617028                1.00000000                0.16076877               -0.01938933               -0.08498363                0.10589971                0.59675559                0.98530834
               4.43894714               10.65473958               23.77713490                0.75042892                0.28076050                0.26432092               -0.97342655                0.14425254                1.35610539               -0.81081091
               5.44295467               10.49661002               23.54322455                0.50094746                1.43158789                0.51487177               -1.79020672               -1.31432784               24.25753193               -1.74837515
               6.46757890               10.30862984               23.75213331                0.44210622                1.58583707               -0.03184303               -1.03758966               -1.09969433               45.88425713               -0.42208501
               7.47467141               10.12223098               23.94365480                0.43298184                0.00739587                0.25713888               -0.40386179               -0.63675543               45.21584484                0.04434578
               8.46772682                9.93339252               24.13509441                0.45031141               -1.43045622                0.45836034                0.18241601               -0.74049762               45.88479784                0.46139627
               9.44606228                9.74292758               24.33795314                0.49237976               -3.23621329                0.78285516                0.77131701               -1.53393860               47.91240077                1.02592906
              10.40300255                9.54453816               24.56980540                0.56766889               -3.40472467                0.29531119                1.43940122               -2.30053533               32.33368922                2.37765244
              11.37796779                9.37327361               24.46354623                0.69416769               -1.48578082               -0.49272406                1.79728453               -1.16182148                8.71591854                1.42833035
              12.37328694                9.22851560               24.22724149                0.90697729               -0.28733461               -0.22416330                0.85056109                0.10378803                1.39444501                0.74324658
              13.37222110                9.08607111               23.97467492                0.99994237               -0.10658394                0.12210142               -0.18626276                0.12313512                0.58430335               -0.96417333
               1.87936160                0.91101800               25.55688134                1.00000000               -0.56033425               -0.61817563                2.12297612               -0.10980548               -1.22514064                1.26414993
               2.87375826                0.71821609               25.40719262                1.00000000               -0.48852289               -0.45168379                1.61243914               -0.06850882               -1.26689155               -0.08974647
               3.86959114                0.52478660               25.25670664                0.68746364               -0.36369210               -0.28785063                1.09429212               -0.09033203               -0.93422201               -1.05130761
               4.86648441                0.33011794               25.11378657                0.52035562               -0.25594145               -0.16002657                0.58845606               -0.11412805                0.93296278               -0.11577593
               5.86447231                0.13310894               25.00144665                0.45602038               -0.10799119               -0.01697030                0.07960881               -0.10849515                3.82959267               -0.10550068
               6.86432459               -0.06623748               24.91798325                0.46120036                0.11349654                0.13062766               -0.45185689               -0.08357284                5.15613266                0.02388560
               7.86674224               -0.26618882               24.83325281                0.52677609                0.34215370                0.27744975               -0.97009645               -0.09200422                3.68459263                0.12934690
               8.87116766               -0.46477594               24.71981205                0.66524950                0.50901251                0.41895875               -1.47003617               -0.09986322                1.03154242                0.19287952
               9.87692249               -0.66141858               24.58073651                0.90772720                0.63409554                0.55375518               -1.97943759               -0.08667577               -0.82248910                0.53287677
              10.88384958               -0.85655899               24.42930835                1.00000000                0.76433121                0.70536206               -2.52723649               -0.07134434               -1.23132197                0.51999329
              11.89220912               -1.05094540               24.28169632                1.00000000                0.83595419                0.88721018               -3.03611709               -0.12421194               -1.03194147               -1.14502507
               2.07106546                1.90483625               25.50146234                1.00000000               -0.48765904               -0.59193951                1.90031857               -0.03677398                0.01121576                1.59430454
               3.06618887                1.71369925               25.35118312                0.90651866               -0.41642845               -0.41456340                1.39399177                0.00209048                0.17098827               -0.27129405
               4.06273689                1.52190809               25.20408456                0.23646341               -0.25034536               -0.24105757                0.91947126               -0.03851496                1.68900605               -1.82549764
               5.06118196                1.32851768               25.08409522                0.00458779               -0.05859102               -0.11562149                0.47265030               -0.14988123                4.22638452               -1.95751371
               6.06156507                1.13293924               24.98690513                0.00915856                0.09778878               -0.18260543                0.01638560               -0.27794339                7.04234005                0.64299499
               7.06313774                0.93506880               24.92150048                0.01278922                0.17631787               -0.07335393               -0.45521337               -0.33771371                8.66022571                0.85083915
               8.06509143                0.73658568               24.85512760                0.01013435                0.23230883                0.06145512               -0.90767975               -0.28852119                7.11754114                0.91544100
               9.06778392                0.53941365               24.75877166                0.20497984                0.34279162                0.30728682               -1.33785625               -0.17401722                4.38582196                2.34297725
              10.07194726                0.34411897               24.63847363                0.56783585                0.50578124                0.47334294               -1.77837642               -0.07077321                2.34203329                1.98061311
              11.07789954                0.15049463               24.50172048                1.00000000                0.67030735                0.64682334               -2.22653072               -0.01278659                0.87771766                0.95050281
              12.08535341               -0.04207330               24.35214802                1.00000000                0.74538681                0.86012380               -2.75968531               -0.05150585                0.24134054               -1.21664852
               2.26090012                2.89917921               25.45268680                1.00000000               -0.41718956               -0.53462215                1.69007570               -0.04741137                0.21562926                1.83530524
               3.25672822                2.70992482               25.29154106                0.68276084               -0.34488520               -0.33206027                1.12680224               -0.01114307                0.49233812               -0.72559490
               4.25400241                2.51996545               25.13590492                0.08516526               -0.21362876               -0.12644413                0.61802675               -0.07598902                2.63092783               -3.29671292
               5.25245565                2.32780551               25.01754007                0.00010000               -0.08200441               -0.18757311                0.27259683               -0.47002519                8.91491132               -1.23726964
               6.25236233                2.12945683               24.98729435                0.00010000                0.07341120               -0.30280749               -0.02270856               -0.73537431               12.62332721                0.95794512
               7.25392387                1.93229544               24.94150962                0.00010000                0.21323203               -0.30216615               -0.37294148               -0.71259173               11.77509725                1.77205319
               8.25662697                1.73504029               24.89263364                0.00010000                0.31150815               -0.22064477               -0.72251516               -0.54078470               11.52418497                2.41679444
               9.26015403                1.54136980               24.84060424                0.06982545                0.38995416               -0.10913612               -1.05394559               -0.31657998                8.25334749                4.13533772
              10.26442605                1.34804828               24.72506208                0.30147318                0.48160390                0.09356619               -1.40919380               -0.22252814                3.74685325                5.21374519
              11.26978611                1.15637748               24.58266067                0.72499080                0.59444057                0.47430315               -1.90754760               -0.10225375                1.45420667                1.90142911
              12.27631486                0.96625708               24.42103018                1.00000000                0.65287489                0.86606375               -2.48558047               -0.12636616                0.49824001               -1.08673527
               2.44862602                3.89414380               25.40215525                1.00000000               -0.34462481               -0.46706922                1.46806436               -0.04684241                0.04118026                1.65440747
               3.44517978                3.70705804               25.22642366                0.63539743               -0.26448037               -0.24562233                0.85261326               -0.00383237                0.19262438               -1.00279656
               4.44333642                3.51937921               25.05369810                0.06236896               -0.14448498               -0.01353451                0.25812599               -0.28951442                6.40273604               -3.84593220
               5.44229008                3.32476622               25.00216608                0.00010000               -0.04843798               -0.24378602                0.22124005               -0.73758700               14.03799504                0.31393838
               6.44236766                3.12688309               24.98139187                0.00010000                0.05061858               -0.24904368               -0.06448066               -0.90374158               15.85764459                0.76452232
               7.44330245                2.92902547               24.96484165                0.00010000                0.14168600               -0.32406252               -0.30628665               -0.91482454               15.96185256                2.03461013
               8.44520138                2.73217279               24.94467520                0.00010000                0.25709395               -0.35262303               -0.55699782               -0.84906766               15.43232646                3.37357060
               9.44844433                2.53723093               24.91590464                0.07376462                0.36438220               -0.47339380               -0.83529332               -0.63032585               13.10663142                4.71375417
              10.45248902                2.34599029               24.84769628                0.29377458                0.46006694               -0.25809104               -0.87635379               -0.26449265                5.94743738                6.04543858
              11.45764567                2.15998069               24.67408384                0.67660771                0.52889338                0.30781691               -1.51413260               -0.02821404                0.38658697                2.16438205
              12.46306689                1.97524798               24.49390836                1.00000000                0.54212231                0.85924246               -2.18659743               -0.07039825                0.06466983               -0.85840958
               2.63413479                4.88983783               25.34982690                1.00000000               -0.27186224               -0.39388948                1.24381083               -0.04571133                0.02261219                1.53916507
               3.63141617                4.70501237               25.16114629                0.60884989               -0.18154195               -0.16514104                0.58341068                0.00249531                0.11242888               -1.01704691
               4.63050395                4.51969476               24.97423101                0.05091155               -0.06080697                0.07209200               -0.06503778               -0.50312913                9.26352245               -3.62503235
               5.63020003                4.32292979               24.96854506                0.00010000               -0.02378590               -0.11061721                0.00981642               -1.08672832               19.18491760               -0.85280366
               6.63002823                4.12447596               24.97921462                0.00010000                0.00688244               -0.20092686               -0.11408799               -1.21352976               20.15253434                0.80426574
               7.63033768                3.92581419               24.99146180                0.00010000                0.07059617               -0.31656499               -0.24886272               -1.26620342               20.25155425                2.24998236
               8.63144016                3.72798783               25.00242415                0.00010000                0.16961657               -0.44928841               -0.39884089               -1.25277292               20.12307953                3.84952694
               9.63373001                3.53190192               25.01016271                0.08202284                0.24731359               -0.57721743               -0.57516533               -0.96203418               16.83351277                5.80199246
              10.63638643                3.34288645               24.95298424                0.30537252                0.31170683               -0.31567584               -0.43548802               -0.35232228                6.94378227                4.65975385
              11.63996415                3.16253382               24.76094377                0.69020781                0.39929505                0.22061910               -1.14889612               -0.00811540                0.11894138                1.71656749
              12.64437233                2.98344192               24.56669197                1.00000000                0.44081841                0.75496655               -1.88237246               -0.04321876                0.01377726               -0.97207486
               2.81736271                5.88626602               25.29703394                1.00000000               -0.19899575               -0.32109640                1.02044718               -0.04516149                0.01985968                1.49930747
               3.81537276                5.70375522               25.09563642                0.58489966               -0.10031497               -0.08655520                0.31526294                0.00647554                0.11740134               -1.03254540
               4.81535641                5.52082105               24.89615179                0.04113527                0.02007776                0.15415586               -0.37706652               -0.69252347               11.92386926               -3.53567828
               5.81577431                5.32255387               24.93083925                0.00010000               -0.00718749                0.03636320               -0.20353106               -1.45901155               24.16301870               -1.15103932
               6.81521266                5.12286455               24.97518586                0.00010000               -0.06539001               -0.09932908               -0.18613499               -1.60366434               24.75631967                0.62303557
               7.81446651                4.92269417               25.02029581                0.00010000               -0.05772384               -0.28324160               -0.19474539               -1.72427137               24.87882869                2.33694990
               8.81405819                4.72318702               25.06524894                0.00010000               -0.00807478               -0.48388572               -0.23282001               -1.78066262               24.91682758                4.14369155
               9.81430502                4.52568658               25.10884129                0.09045955                0.03762486               -0.64584178               -0.31045859               -1.35849416               19.84887205                6.10519192
              10.81481068                4.33967678               25.04968105                0.31800107                0.13114368               -0.33355850               -0.02638998               -0.46836474                7.47791031                3.99276597
              11.81692789                4.16439308               24.84401969                0.70715166                0.27878058                0.14842550               -0.79903550               -0.01099757                0.09045324                1.37921655
              12.82038630                3.99034731               24.63668965                1.00000000                0.34584074                0.62906944               -1.59154895               -0.04201523                0.01171784               -1.19700597
               2.99825315                6.88341590               25.24393695                1.00000000               -0.12625013               -0.24964388                0.79755503               -0.04451138                0.02057850                1.46975677
               3.99699065                6.70328127               25.02992993                0.56250448               -0.01991563               -0.00843828                0.04886062                0.00970858                0.13626154               -1.04636672
               4.99785483                6.52277787               24.81819235                0.03199887                0.09928271                0.23797029               -0.68498092               -0.85226858               14.51621317               -3.51822525
               5.99897630                6.32365706               24.89172597                0.00010000               -0.00200947                0.19510424               -0.41500842               -1.79954772               29.08189011               -1.28995223
               6.99781465                6.12248937               24.97021684                0.00010000               -0.17232592                0.04170225               -0.25829220               -2.01623798               29.45687887                0.49661308
               7.99552978                5.92014936               25.04976129                0.00010000               -0.24900725               -0.20134687               -0.13792096               -2.22298236               29.65624263                2.28137501
               8.99283450                5.71831011               25.13029387                0.00010000               -0.27297062               -0.46909999               -0.05455368               -2.34204410               29.83325980                4.20110929
               9.99007037                5.51898509               25.21094488                0.09904080               -0.22609308               -0.68246588               -0.01885794               -1.74711363               22.55008164                6.33587968
              10.98831264                5.33621528               25.14290169                0.33099753               -0.04983526               -0.36505180                0.36967085               -0.54639894                7.67428856                3.67531099
              11.98907366                5.16550233               24.92452917                0.72492854                0.16554629                0.07119984               -0.45973606               -0.01415967                0.09003903                1.15749637
              12.99162356                4.99602331               24.70450217                1.00000000                0.25499002                0.50875846               -1.30988319               -0.04204422                0.01163547               -1.35596632
               3.17674175                7.88127314               25.19056854                1.00000000               -0.05367977               -0.17985836                0.57536069               -0.04383269                0.02068387                1.44053255
               4.17620496                7.70358646               24.96401574                0.54142789                0.05967503                0.06944749               -0.21542209                0.01266231                0.15929419               -1.05896154
               5.17793525                7.52558046               24.74018584                0.02323910                0.19334503                0.32301896               -0.98899166               -0.97372259               17.05067551               -3.50216232
               6.18007186                7.32645596               24.85139012                0.00010000                0.02301744                0.35968965               -0.61590905               -2.04519026               33.94947011               -1.36973233
               7.17839560                7.12369859               24.96422316                0.00010000               -0.29428643                0.19997653               -0.32420400               -2.33958411               34.18231837                0.36432079
               8.17418613                6.91866724               25.07846863                0.00010000               -0.50070126               -0.06302419               -0.07383260               -2.63321843               34.49919958                2.06320046
               9.16838158                6.71380502               25.19563306                0.00010000               -0.63642787               -0.39072398                0.14060132               -2.86161814               34.91937320                4.00699683
              10.16145757                6.51203726               25.31585231                0.10778027               -0.55080542               -0.67698103                0.31238831               -2.12064362               25.11579725                6.41955463
              11.15736547                6.33237574               25.23412768                0.34425777               -0.23104512               -0.40684461                0.75767514               -0.61021778                7.62233609                3.47821954
              12.15683667                6.16581707               25.00341060                0.74341828                0.05689839               -0.00986039               -0.12713650               -0.01809355                0.09530190                1.02766732
              13.15850344                6.00052248               24.77094535                1.00000000                0.16667691                0.39343151               -1.03409758               -0.04263612                0.01197202               -1.43850952
               3.35274985                8.87981873               25.13689168                1.00000000                0.01867197               -0.11260938                0.35388110               -0.04308946                0.02771270                1.41974343
               4.35293657                8.70467022               24.89792661                0.52156785                0.13805145                0.14826818               -0.47739298                0.01450513                0.19634109               -1.08524001
               5.35551088                8.52923825               24.66228093                0.01468036                0.35088912                0.40768394               -1.28851240               -1.06598837               19.56364939               -3.37746109
               6.35995436                8.33085085               24.81058060                0.00010000                0.16503995                0.44803774               -0.80045748               -2.13072932               38.75601839               -1.26106654
               7.35881168                8.12648891               24.95692652                0.00010000               -0.35976841                0.28678734               -0.38127080               -2.32878799               38.81363978                0.23543982
               8.35275899                7.91888888               25.10436978                0.00010000               -0.82897851                0.15636616               -0.00578458               -2.66377390               39.28532896                1.61115108
               9.34223211                7.71049563               25.25798143                0.00010000               -1.18361064               -0.12901555                0.34566273               -3.14343734               40.16796514                3.32449701
              10.32908678                7.50544547               25.42096274                0.11672755               -0.99518200               -0.55369388                0.67961570               -2.53087310               27.75263965                5.99697958
              11.32232847                7.32807839               25.32398196                0.35779402               -0.42608595               -0.45336310                1.13919137               -0.70400224                7.50006002                3.22854688
              12.32056506                7.16530512               25.08145303                0.76266199               -0.04842187               -0.09402108                0.20133966               -0.02484157                0.12280346                0.99444335
              13.32136004                7.00389194               24.83680943                1.00000000                0.07949784                0.28286895               -0.76141732               -0.04350055                0.02095548               -1.46278419
               3.52617700                9.87902095               25.08310269                1.00000000                0.08985423               -0.04889555                0.13465247               -0.04204003               -0.00711672                1.21370574
               4.52707554                9.70655182               24.83136154                0.50253753                0.21289286                0.22869950               -0.73874333                0.01312388                0.34107995               -0.97701635
               5.53043485                9.53373413               24.58652772                0.00590309                0.65655390                0.48598035               -1.57657785               -1.20552333               22.21449349               -2.53836979
               6.54020662                9.33541671               24.77216602                0.00010000                0.66734815                0.17289482               -0.96056857               -1.66605781               43.43094342               -0.74988068
               7.54378182                9.12943434               24.94853712                0.00010000               -0.16513472                0.25932731               -0.42851079               -1.60928031               43.12317496                0.11770536
               8.53690392                8.92179456               25.12461631                0.00010000               -1.24127892                0.37458247                0.05568791               -1.82450495               43.72238048                0.89479710
               9.51895624                8.71122471               25.31053754                0.00010000               -2.18232878                0.44669487                0.53193743               -2.50120307               45.37926691                1.92980846
              10.49325735                8.50096338               25.51833642                0.12598681               -1.77652324               -0.02604563                1.04947340               -2.40369183               30.71679109                3.99521231
              11.48342577                8.32330848               25.41055406                0.37158626               -0.63655309               -0.48404289                1.50434497               -0.88091858                7.76399800                2.27632107
              12.48052628                8.16393665               25.15972272                0.78265097               -0.14830001               -0.17976323                0.52931366               -0.03509005                0.29666215                0.89193165
              13.48045977                8.00617986               24.90253762                0.99998216               -0.00665117                0.17833593               -0.49074595               -0.04592082               -0.01736071               -1.23775503
               3.69684731               10.87884082               25.02529015                1.00000000                0.16385551               -0.01801267               -0.09099100                0.10737008                0.60909541                1.01385745
               4.69848587               10.70924421               24.76732507                0.74584832                0.28441070                0.26923871               -0.98831928                0.14688475                1.40463600               -0.84567556
               5.70253553               10.53895786               24.52521087                0.50044033                1.62235633                0.52237258               -1.81255594               -1.53670576               25.12426002               -1.80885093
               6.73093299               10.33430875               24.74155672                0.44250151                1.88563505               -0.11079646               -1.07918602               -1.29148264               47.51785448               -0.44529461
               7.74024823               10.13167545               24.93932111                0.43317201                0.17727641                0.22411112               -0.46543517               -0.74976997               46.79988232                0.03798019
               8.73447852                9.92638052               25.13651707                0.45011878               -1.36045006                0.45859650                0.09852489               -0.85483609               47.47570971                0.47295558
               9.71303923                9.71942953               25.34514058                0.49169257               -3.27746769                0.82048219                0.66125021               -1.66449969               49.57349291                1.06493530
              10.66892917                9.50492455               25.58352845                0.56615476               -3.56511963                0.39611704                1.29809464               -2.48441751               33.95518212                2.48832769
              11.64173683                9.31839753               25.48151347                0.69048853               -1.59686455               -0.49109428                1.79613712               -1.32962905                9.52407917                1.49738876
              12.63699188                9.16170985               25.23571594                0.89807216               -0.28908117               -0.22267984                0.84444297                0.09961566                1.46904276                0.77956559
              13.63595521                9.00745866               24.97273520                0.99993825               -0.10366674                0.12788065               -0.20174300                0.12442463                0.61279631               -1.00841010
               2.01916323                0.98036540               26.57813033                1.00000000               -0.56219449               -0.62028154                2.12707864               -0.10934085               -1.26270135                1.29884945
               3.01354129                0.77437669               26.42331747                1.00000000               -0.49223613               -0.45151041                1.61216364               -0.06816840               -1.30828424               -0.09888388
               4.00931851                0.56770516               26.26762908                0.68426862               -0.38664982               -0.28400099                1.08926326               -0.11239911               -0.97274975               -1.06333483
               5.00580829                0.35921339               26.11963291                0.51970585               -0.31412241               -0.15841645                0.57971919               -0.15571914                0.89804262               -0.11933466
               6.00303606                0.14689844               26.00217404                0.45604443               -0.17301291               -0.01501221                0.06472172               -0.14652135                3.78043138               -0.10850255
               7.00234803               -0.06948664               25.91335577                0.46098404                0.09977600                0.13291391               -0.47516906               -0.10340377                5.10122420                0.02546342
               8.00503158               -0.28704616               25.82341409                0.52567482                0.38746883                0.28197871               -0.99967015               -0.11808776                3.64540014                0.13549061
               9.01009741               -0.50242080               25.70497452                0.66223098                0.56395485                0.42552808               -1.49956413               -0.12957318                0.99869346                0.20141344
              10.01631068               -0.71479014               25.56082476                0.90089741                0.66627542                0.55907251               -2.00440011               -0.10379389               -0.87772780                0.53987064
              11.02342292               -0.92507684               25.40392800                1.00000000                0.77793686                0.70933655               -2.54955902               -0.07286352               -1.28543443                0.56040780
              12.03186942               -1.13448878               25.25123897                1.00000000                0.84464980                0.89377512               -3.05564809               -0.12402099               -1.06600905               -1.19611295
               2.22405853                1.97416259               26.52047860                1.00000000               -0.48688062               -0.59473360                1.90322367               -0.03630734                0.02604019                1.63495488
               3.21918972                1.76986159               26.36511889                0.89035180               -0.41411787               -0.41386629                1.39282335                0.00203750                0.20249321               -0.30553000
               4.21577617                1.56486515               26.21327209                0.23170520               -0.22676323               -0.23486154                0.91714916               -0.07004486                1.75068390               -1.90250523
               5.21465446                1.35762922               26.08879177                0.00469599                0.00723444               -0.11299635                0.46567335               -0.25821372                4.29881702               -2.00194266
               6.21592086                1.14674832               25.98701349                0.00926485                0.18159187               -0.24039582                0.00488920               -0.46570883                7.10411513                0.65039706
               7.21828630                0.93184250               25.91685350                0.01291803                0.21984625               -0.10764808               -0.47424365               -0.56893345                8.72673442                0.89369094
               8.22031779                0.71577363               25.84592382                0.01034641                0.21936854                0.05952548               -0.93310603               -0.48682726                7.21117119                0.98208954
               9.22267367                0.50183448               25.74526232                0.20083786                0.31414864                0.29770615               -1.36406119               -0.27835985                4.49082838                2.42704629
              10.22660076                0.29080059               25.62056798                0.55768668                0.49349673                0.46965053               -1.80259661               -0.11099171                2.44040884                2.07361990
              11.23254360                0.08201653               25.47936115                1.00000000                0.67201922                0.64876150               -2.24460255               -0.01939971                0.92887819                0.99959858
              12.24004114               -0.12555102               25.32446181                1.00000000                0.74975415                0.86726075               -2.77630074               -0.05187206                0.24835337               -1.26931402
               2.42703907                2.96847073               26.46959355                1.00000000               -0.41596023               -0.53806924                1.69161472               -0.04808279                0.21955197                1.87593378
               3.42287947                2.76609937               26.30278203                0.66898511               -0.34445471               -0.32909082                1.12106851               -0.01238603                0.52475372               -0.78776130
               4.42014998                2.56300793               26.14205062                0.08246429               -0.20593124               -0.11424768                0.61025274               -0.11793832                2.77561551               -3.46744185
               5.41876085                2.35695346               26.02026243                0.00010000               -0.03206864               -0.23393183                0.27134384               -0.68181261                9.16554599               -1.25507389
               6.41950861                2.14209053               25.98698804                0.00010000                0.15916049               -0.39449012               -0.03908700               -1.08737951               12.87677934                0.97314133
               7.42194406                1.92836040               25.93766484                0.00010000                0.28972258               -0.37215580               -0.39616613               -1.08712390               12.01124473                1.84553150
               8.42530306                1.71414435               25.88526971                0.00010000                0.37795982               -0.25324547               -0.75003176               -0.89452199               11.77911198                2.53037606
               9.42950325                1.50353332               25.82992585                0.06743672                0.43028694               -0.14335467               -1.08084646               -0.54576769                8.51753627                4.25807590
              10.43390880                1.29460287               25.71087380                0.29525595                0.49416411                0.03296994               -1.42671456               -0.30062136                3.93048980                5.47156279
              11.43938653                1.08789839               25.56349934                0.70896497                0.60291400                0.45611525               -1.92270751               -0.12601883                1.52443024                1.99574479
              12.44596708                0.88285644               25.39609538                1.00000000                0.65805422                0.88621464               -2.49871456               -0.14348214                0.52752169               -1.13000500
               2.62783959                3.96340120               26.41683354                1.00000000               -0.34347916               -0.46997427                1.46791674               -0.04703364                0.04000200                1.68778345
               3.62440480                3.76327977               26.23491253                0.62286721               -0.26381396               -0.24046742                0.84489974               -0.00311073                0.20218068               -1.06510604
               4.62256331                3.56258020               26.05621233                0.06019150               -0.12345954                0.00202949                0.24396379               -0.38696527                6.70299152               -4.02567702
               5.62193561                3.35295059               26.00430306                0.00010000                0.01015088               -0.31659622                0.20441903               -0.97856346               14.50057300                0.28553184
               6.62276633                3.13885852               25.98063664                0.00010000                0.12771920               -0.30911593               -0.08735859               -1.22758010               16.22498665                0.77238789
               7.62448999                2.92439939               25.96163101                0.00010000                0.22440470               -0.38895060               -0.33618589               -1.26848906               16.35647808                2.09277297
               8.62725442                2.71070872               25.93893185                0.00010000                0.34048983               -0.41307546               -0.59138238               -1.19386381               15.81918792                3.46921108
               9.63129979                2.49896739               25.90736679                0.07139308                0.44844185               -0.53559133               -0.87083166               -0.91852882               13.61156331                4.82215958
              10.63622326                2.29145999               25.83885360                0.28792085                0.52349338               -0.35863598               -0.89121438               -0.38227997                6.28269194                6.32763204
              11.64176966                2.09113883               25.65887054                0.66167708                0.55160712                0.27323350               -1.52695439               -0.03524486                0.40373039                2.27459531
              12.64725540                1.89217327               25.47197521                0.99019677                0.54857462                0.89028770               -2.19767376               -0.07329337                0.06477055               -0.88949176
               2.82634125                4.95907124               26.36225724                1.00000000               -0.27029929               -0.39592799                1.24250104               -0.04596676                0.02245944                1.57155090
               3.82363826                4.76129002               26.16693258                0.59681202               -0.18006956               -0.15919825                0.57350387                0.00422163                0.11849648               -1.07586067
               4.82273986                4.56304852               25.97349706                0.04888126               -0.03635015                0.08715619               -0.08255834               -0.63570547                9.63732718               -3.77843520
               5.82291126                4.35062154               25.96852162                0.00010000                0.03841722               -0.14663502               -0.01618277               -1.37999412               19.83153036               -0.95817467
               6.82350821                4.13590821               25.97791954                0.00010000                0.09064092               -0.24905243               -0.14610503               -1.55495621               20.70553550                0.79609168
               7.82472407                3.92058139               25.98878065                0.00010000                0.16747879               -0.37502841               -0.28799838               -1.62780548               20.80311375                2.29944725
               8.82685778                3.70588284               25.99820705                0.00010000                0.28286669               -0.51729367               -0.44453666               -1.61234293               20.66578193                3.94251539
               9.83038141                3.49282150               26.00415481                0.07951511                0.36169854               -0.66325326               -0.62524744               -1.26429482               17.54235932                5.92957434
              10.83409175                3.28743015               25.94855460                0.29924549                0.37934734               -0.39491795               -0.45023557               -0.48629312                7.39751283                4.87259755
              11.83796836                3.09336306               25.74938681                0.67499891                0.41702923                0.19361210               -1.16186404               -0.01235203                0.12896922                1.79951504
              12.84243234                2.90066219               25.54780166                0.99779335                0.44639813                0.78129542               -1.89447000               -0.04298169                0.01383702               -1.01042501
               3.02248270                5.95548264               26.30722573                1.00000000               -0.19707454               -0.32244620                1.01804355               -0.04537833                0.01977521                1.53188830
               4.02051196                5.76009581               26.09873171                0.57335773               -0.09825073               -0.07998427                0.30334327                0.00848420                0.12406869               -1.08906720
               5.02051769                5.56432332               25.89228432                0.03927714                0.04820415                0.16902394               -0.39736621               -0.84787845               12.36919261               -3.67922231
               6.02147604                5.35001789               25.92864989                0.00010000                0.05948335                0.02159246               -0.23600380               -1.78785681               24.97557551               -1.25336111
               7.02170735                5.13387747               25.97312832                0.00010000                0.02416056               -0.13463888               -0.22679187               -1.96796706               25.49193274                0.60362296
               8.02195925                4.91689882               26.01810306                0.00010000                0.05300525               -0.33662299               -0.24485374               -2.10955407               25.60072103                2.38413351
               9.02276746                4.70036285               26.06262242                0.00010000                0.12536656               -0.55479236               -0.29298764               -2.16956164               25.61854053                4.24367650
              10.02446658                4.48570232               26.10538317                0.08782106                0.15941869               -0.73211675               -0.38067415               -1.68679900               20.74227249                6.24477855
              11.02595583                4.28356163               26.04935045                0.31161922                0.19119976               -0.38910296               -0.03994381               -0.61370142                8.03955640                4.17945536
              12.02829058                4.09501107               25.83596406                0.69153112                0.29208366                0.13155786               -0.81204070               -0.01532090                0.10041604                1.44679350
              13.03179751                3.90779918               25.62070264                1.00000000                0.35069294                0.64997395               -1.60557622               -0.04186159                0.01168751               -1.24802095
               3.21620735                6.95262232               26.25189561                1.00000000               -0.12400848               -0.25037292                0.79421569               -0.04468292                0.02050107                1.50245829
               4.21496726                6.75969034               26.03035361                0.55144086               -0.01735662               -0.00148573                0.03533663                0.01179156                0.14401063               -1.09971292
               5.21586021                6.56642900               25.81123587                0.03030911                0.13163545                0.25267570               -0.70733278               -1.02243399               15.03200822               -3.65500831
               6.21759997                6.35105339               25.88739841                0.00010000                0.07038593                0.19433561               -0.45216837               -2.15505916               30.05701173               -1.38369431
               7.21726793                6.13321543               25.96739968                0.00010000               -0.07761769                0.01887554               -0.30682871               -2.40448398               30.37401561                0.48002039
               8.21604762                5.91384893               26.04808230                0.00010000               -0.13024443               -0.24745954               -0.19945150               -2.63311478               30.55354449                2.33145745
               9.21466304                5.69478699               26.12937352                0.00010000               -0.13004854               -0.53464908               -0.13082827               -2.75951571               30.70501996                4.31260713
              10.21344665                5.47817916               26.21029225                0.09628013               -0.10770369               -0.75771798               -0.11232039               -2.08818915               23.61574704                6.50610846
              11.21250897                5.27964809               26.14654211                0.32436177               -0.00111297               -0.40240874                0.35815660               -0.68996297                8.32467486                3.84941775
              12.21342439                5.09599422               25.91987007                0.70887573                0.17549639                0.06152470               -0.47228126               -0.01805493                0.10079182                1.21553379
              13.21601890                4.91366167               25.69132575                1.00000000                0.25945114                0.52556755               -1.32569591               -0.04189467                0.01181468               -1.41461457
               3.40745301                7.95047518               26.19630194                1.00000000               -0.05119031               -0.18004337                0.57129466               -0.04393371                0.02055191                1.47349098
               4.40694111                7.76006610               25.96179178                0.53085005                0.06264726                0.07634813               -0.22991767                0.01472604                0.16820847               -1.10858121
               5.40870596                7.56937684               25.73018393                0.02171496                0.23236583                0.33680265               -1.01244168               -1.15237234               17.63972257               -3.63162032
               6.41158842                7.35390460               25.84503769                0.00010000                0.10580876                0.36831074               -0.65624344               -2.41344697               35.08715204               -1.44864925
               7.41082213                7.13425498               25.96071444                0.00010000               -0.19315168                0.18586241               -0.37952909               -2.73919839               35.27861919                0.35404510
               8.40772539                6.91194963               26.07737985                0.00010000               -0.37876088               -0.09968791               -0.14612419               -3.05145634               35.57704011                2.11626291
               9.40324691                6.68966986               26.19658949                0.00010000               -0.49418462               -0.44408717                0.04838959               -3.29013153               35.97766955                4.12905207
              10.39784170                6.47054796               26.31840759                0.10491643               -0.44526992               -0.73504858                0.19621825               -2.46092177               26.34148034                6.62547841
              11.39434152                6.27551345               26.24166194                0.33739025               -0.19628993               -0.43028872                0.74898202               -0.74582289                8.33722687                3.64381956
              12.39391590                6.09624157               26.00208277                0.72691778                0.06415951               -0.01459719               -0.13866516               -0.02155880                0.10707703                1.08003564
              13.39562471                5.91831053               25.76052197                1.00000000                0.17088057                0.40673168               -1.05111203               -0.04250097                0.01236268               -1.50110790
               3.59614685                8.94902145               26.14040757                1.00000000                0.02132830               -0.11226302                0.34929391               -0.04308534                0.02763736                1.45375219
               4.59636013                8.76121730               25.89308122                0.51147828                0.14137086                0.15457427               -0.49202772                0.01642429                0.20672381               -1.13194052
               5.59897426                8.57316505               25.64928317                0.01331565                0.40463784                0.41935629               -1.31183179               -1.24875952               20.23131950               -3.49598055
               6.60445289                8.35841960               25.80237298                0.00010000                0.27323368                0.45349683               -0.84271179               -2.49125016               40.05779085               -1.32001585
               7.60443894                8.13693268               25.95282177                0.00010000               -0.24246394                0.26820649               -0.44194773               -2.69765271               40.08338560                0.23109248
               8.59960361                7.91185517               26.10391967                0.00010000               -0.70884293                0.13039712               -0.08704861               -3.04127679               40.54609064                1.65893497
               9.59026208                7.68590525               26.26092644                0.00010000               -1.06094926               -0.15669065                0.23991603               -3.53920873               41.43072051                3.43956946
              10.57838462                7.46347819               26.42710059                0.11375182               -0.91815860               -0.58121880                0.54359344               -2.86022012               29.13099969                6.22071544
              11.57189891                7.27104232               26.33534605                0.35067935               -0.40942435               -0.46588464                1.13356120               -0.83245267                8.25805490                3.38189399
              12.57019614                7.09570228               26.08341712                0.74568558               -0.04339739               -0.09543072                0.19129733               -0.02822140                0.13668285                1.04451770
              13.57103096                6.92179631               25.82911054                1.00000000                0.08348236                0.29293509               -0.77890412               -0.04341990                0.02192396               -1.52717169
               3.78219961                9.94822992               26.08442307                1.00000000                0.09263823               -0.04794245                0.12950534               -0.04199978               -0.00995901                1.24523120
               4.78312599                9.76315758               25.82390287                0.49290629                0.21644255                0.23408527               -0.75281901                0.01465274                0.35620990               -1.01678912
               5.78652846                9.57776396               25.57065203                0.00470159                0.74349004                0.49508248               -1.59874373               -1.39745481               22.97125755               -2.62344429
               6.79799579                9.36297454               25.76235137                0.00010000                0.84525223                0.12614684               -1.00392627               -1.93859916               44.89644615               -0.78001175
               7.80343351                9.13961911               25.94394225                0.00010000               -0.00342559                0.22449690               -0.49291353               -1.85735989               44.55454644                0.11594906
               8.79792728                8.91455757               26.12475162                0.00010000               -1.12968931                0.35974678               -0.03184575               -2.06325624               45.15516915                0.92334447
               9.78083972                8.68653605               26.31530309                0.00010000               -2.12135280                0.45574807                0.41688478               -2.76876525               46.85610545                2.00422424
              10.75550023                8.45892359               26.52811339                0.12292174               -1.76856726                0.02212274                0.89968441               -2.64958068               32.25105763                4.15996997
              11.74546838                8.26619576               26.42558457                0.36423250               -0.64513707               -0.48698777                1.50187255               -1.01138300                8.56154257                2.38398672
              12.74259749                8.09433295               26.16497590                0.76513987               -0.14500653               -0.17909060                0.52125991               -0.03883022                0.31938135                0.93539257
              13.74256825                7.92416923               25.89754621                0.99998637               -0.00292402                0.18557251               -0.50800090               -0.04599502               -0.01784046               -1.29312363
               3.96545153               10.94806260               26.02435046                1.00000000                0.16676115               -0.01673190               -0.09682428                0.10883228                0.62087554                1.04196309
               4.96711915               10.76589900               25.75736852                0.74118686                0.28783394                0.27414229               -1.00232113                0.14952006                1.45297205               -0.87965951
               5.97120821               10.58306670               25.50697343                0.49989079                1.83533044                0.53027402               -1.83493757               -1.77984829               25.98448118               -1.86753472
               7.00382575               10.36094254               25.73054959                0.44287376                2.22502467               -0.20319978               -1.12368999               -1.49920832               49.13925911               -0.46816889
               8.01570871               10.14142262               25.93434610                0.43335845                0.37978943                0.18035058               -0.53200138               -0.86710169               48.37088365                0.03093888
               9.01142154                9.91905011               26.13706491                0.44992352               -1.25939743                0.44925373                0.00782125               -0.97069425               49.05032257                0.48320365
               9.99052076                9.69502021               26.35117814                0.49098385               -3.28441212                0.84841611                0.54179901               -1.78836951               51.21332041                1.10213544
              10.94573330                9.46392064               26.59576729                0.56459762               -3.71294390                0.49970581                1.14279800               -2.66257506               35.64369484                2.59632577
              11.91626188                9.26130256               26.49946897                0.68675113               -1.71436196               -0.48931953                1.79526433               -1.51065869               10.41386740                1.56807704
              12.91144606                9.09212046               26.24413035                0.88914835               -0.29116866               -0.22124904                0.83855819                0.09511715                1.54671690                0.81657485
              13.91043851                8.92550776               25.97064006                0.99993449               -0.10075548                0.13385265               -0.21759268                0.12575542                0.64207436               -1.05405167
               2.16373329                1.05229845               27.59942292                1.00000000               -0.56394695               -0.62263280                2.13203786               -0.10904954               -1.30052962                1.33341310
               3.15809382                0.83263557               27.43943589                1.00000000               -0.49562879               -0.45114820                1.61097818               -0.06808687               -1.35019752               -0.10882672
               4.15382071                0.61223388               27.27849191                0.68096898               -0.40967537               -0.27974277                1.08198899               -0.13540372               -1.01101347               -1.07350517
               5.14990031                0.38941353               27.12538096                0.51900768               -0.37313166               -0.15642285                0.56907405               -0.19703530                0.86249450               -0.12283298
               6.14635808                0.16125998               27.00274109                0.45604932               -0.23956427               -0.01267993                0.04818881               -0.18410362                3.72599388               -0.11168549
               7.14510902               -0.07272367               26.90847987                0.46075105                0.08367101                0.13572133               -0.50113819               -0.12261454                5.03856115                0.02635834
               8.14803150               -0.30849847               26.81325940                0.52452972                0.43109215                0.28703186               -1.03353445               -0.14252606                3.60167713                0.14094453
               9.15373087               -0.54132327               26.68982077                0.65915660                0.61914801                0.43265165               -1.53423940               -0.15791235                0.96706353                0.20961438
              10.16041446               -0.77010762               26.54064850                0.89396649                0.69979034                0.56499429               -2.03360584               -0.12047815               -0.92977723                0.54506217
              11.16772667               -0.99621714               26.37831717                1.00000000                0.79262652                0.71323997               -2.57440839               -0.07462588               -1.33680154                0.60355955
              12.17626699               -1.22131334               26.22058336                1.00000000                0.85403142                0.89973490               -3.07668154               -0.12440463               -1.09683849               -1.24401607
               2.38230568                2.04607213               27.53952681                1.00000000               -0.48604403               -0.59777551                1.90693382               -0.03575921                0.04182010                1.67530356
               3.37744524                1.82812409               27.37903959                0.87394333               -0.41139918               -0.41298090                1.39086445                0.00183634                0.23641827               -0.34232416
               4.37407769                1.60943645               27.22242755                0.22680571               -0.20141660               -0.22787517                0.91265630               -0.10305868                1.81500954               -1.98141134
               5.37341691                1.38784930               27.09340869                0.00480868                0.07539741               -0.11103907                0.45728701               -0.36872140                4.37280329               -2.04427664
               6.37558564                1.16113318               26.98700292                0.00936734                0.26725979               -0.29817356               -0.00650763               -0.65391695                7.16456532                0.65346198
               7.37876210                0.92863354               26.91201561                0.01302578                0.26601966               -0.14238800               -0.49285752               -0.80016293                8.78767477                0.93150566
               8.38090604                0.69437185               26.83646548                0.01054477                0.20971104                0.05691222               -0.95845772               -0.68567939                7.29988035                1.04454670
               9.38295632                0.46300325               26.73149043                0.19658796                0.28752869                0.28750562               -1.39027119               -0.38298669                4.59429568                2.50855293
              10.38665661                0.23554232               26.60242170                0.54734148                0.48134770                0.46507701               -1.82645623               -0.15200419                2.54125894                2.16815095
              11.39258328                0.01091526               26.45682842                1.00000000                0.67312694                0.65000598               -2.26100764               -0.02659276                0.98252340                1.05098366
              12.40011915               -0.21231599               26.29662200                1.00000000                0.75358722                0.87284607               -2.78997169               -0.05281531                0.25533895               -1.31856029
               2.59891418                3.04034294               27.48651910                1.00000000               -0.41479619               -0.54181733                1.69395738               -0.04857922                0.22242149                1.91603632
               3.59476622                2.82437595               27.31396243                0.65510319               -0.34399293               -0.32593563                1.11484074               -0.01336043                0.55870285               -0.85314085
               4.59203432                2.60767637               27.14810998                0.07970062               -0.19685354               -0.10086080                0.60101698               -0.16275874                2.92908092               -3.64455264
               5.59082915                2.38719275               27.02296695                0.00010000                0.02305868               -0.28158162                0.26968835               -0.89597722                9.41912047               -1.28093940
               6.59249550                2.15529651               26.98651261                0.00010000                0.25189707               -0.48669184               -0.05602632               -1.44051904               13.12422771                0.97944680
               7.59586709                1.92442857               26.93358630                0.00010000                0.37263525               -0.44342069               -0.41940773               -1.46410133               12.24474140                1.90951405
               8.59994820                1.69263978               26.87763300                0.00010000                0.45167867               -0.28760914               -0.77704845               -1.25292054               12.03295220                2.63517065
               9.60490067                1.46442684               26.81898731                0.06495915                0.47570768               -0.17790459               -1.10556537               -0.78241674                8.78527391                4.37177476
              10.60946236                1.23919392               26.69652779                0.28887899                0.50762343               -0.03400939               -1.43991240               -0.38306754                4.11863306                5.73046795
              11.61505313                1.01678298               26.54420652                0.69277219                0.61054195                0.43349328               -1.93237335               -0.15174773                1.59473584                2.09004554
              12.62167320                0.79614358               26.37105589                1.00000000                0.66200617                0.90339286               -2.50493301               -0.16224991                0.55593078               -1.17214121
               2.81326808                4.03523578               27.43151358                1.00000000               -0.34234816               -0.47331451                1.46844308               -0.04708499                0.03876801                1.72068676
               3.80984460                3.82160537               27.24332166                0.61020859               -0.26311790               -0.23499860                0.83674438               -0.00182433                0.21225333               -1.12965181
               4.80800572                3.60741923               27.05857738                0.05792528               -0.09836870                0.01888477                0.22858729               -0.48802858                7.00593356               -4.21130384
               5.80787723                3.38221767               27.00625446                0.00010000                0.07668590               -0.38866402                0.18452311               -1.22204415               14.96605027                0.24256610
               6.80953944                3.15139934               26.97964470                0.00010000                0.21297886               -0.36951986               -0.11145987               -1.55340652               16.59218122                0.77001232
               7.81213680                2.91976513               26.95811793                0.00010000                0.31549534               -0.45487421               -0.36649789               -1.62671603               16.74984671                2.14032804
               8.81584935                2.68861967               26.93284755                0.00010000                0.43085222               -0.47461064               -0.62494393               -1.54432686               16.20613128                3.55300606
               9.82075385                2.45944515               26.89848801                0.06892461                0.53948844               -0.59749019               -0.90313423               -1.22142810               14.12642040                4.91610665
              10.82663912                2.23486213               26.82987199                0.28190540                0.59224068               -0.46761857               -0.90343837               -0.51088447                6.62702543                6.60714079
              11.83259866                2.01958513               26.64354475                0.64661765                0.57569207                0.23238058               -1.53597425               -0.04334663                0.42022645                2.38136458
              12.83815296                1.80575186               26.44995488                0.97836159                0.55542972                0.91812078               -2.20336794               -0.07601822                0.06408485               -0.92515563
               3.02523330                5.03087665               27.37467693                1.00000000               -0.26870147               -0.39851853                1.24162199               -0.04615868                0.02234523                1.60369411
               4.02254628                4.81967598               27.17261636                0.58464829               -0.17859181               -0.15262618                0.56289601                0.00641812                0.12516500               -1.13693582
               5.02166146                4.60805407               26.97257984                0.04675897               -0.00690622                0.10392776               -0.10162750               -0.77200744               10.01154331               -3.93607924
               6.02240816                4.37941947               26.96822141                0.00010000                0.11092243               -0.18039067               -0.04528250               -1.67916845               20.47909044               -1.07225480
               7.02387991                4.14790611               26.97629252                0.00010000                0.18521433               -0.29712393               -0.18015929               -1.90148386               21.25945532                0.77751728
               8.02611244                3.91533108               26.98570183                0.00010000                0.27508641               -0.43449646               -0.32806507               -1.99542555               21.35384179                2.33723080
               9.02938164                3.68314757               26.99353341                0.00010000                0.40585983               -0.58627981               -0.48966962               -1.97772496               21.20736620                4.02109325
              10.03422964                3.45247704               26.99765776                0.07691302                0.48615278               -0.75002214               -0.67243241               -1.58187197               18.26743957                6.03852534
              11.03910469                3.22984155               26.94397953                0.29297389                0.45334154               -0.47918814               -0.46420894               -0.63323201                7.86831724                5.08392140
              12.04329647                3.02143059               26.73770649                0.65968521                0.43573345                0.16302792               -1.17352553               -0.01750946                0.13888457                1.87833203
              13.04781936                2.81450599               26.52880257                0.98591752                0.45228901                0.80554673               -1.90442023               -0.04296363                0.01334476               -1.05657281
               3.23474626                6.02726541               27.31739481                1.00000000               -0.19507121               -0.32438950                1.01581144               -0.04556222                0.01975748                1.56428255
               4.23279555                5.81855285               27.10170329                0.56168764               -0.09620862               -0.07245201                0.29047069                0.01083474                0.13145848               -1.14738039
               5.23282209                5.60949779               26.88820446                0.03733270                0.08231334                0.18620104               -0.41952429               -1.00771312               12.81371713               -3.82599053
               6.23444181                5.37860985               26.92611918                0.00010000                0.13880304                0.00879520               -0.27164519               -2.12481771               25.78704411               -1.36161140
               7.23559815                5.14545686               26.97065002                0.00010000                0.12725108               -0.17012217               -0.27000127               -2.34017482               26.22719637                0.57528284
               8.23698684                4.91107520               27.01539874                0.00010000                0.17753721               -0.39146788               -0.29666470               -2.50242015               26.32005951                2.41939398
               9.23914889                4.67689407               27.05938919                0.00010000                0.27177955               -0.62761942               -0.35352255               -2.56435867               26.31581533                4.32790626
              10.24242243                4.44444471               27.10122781                0.08508801                0.29360138               -0.81971021               -0.44903287               -2.03143145               21.66118309                6.36286612
              11.24502092                4.22527837               27.04888218                0.30509651                0.25807989               -0.44746985               -0.05362699               -0.77376973                8.63054587                4.36719956
              12.24758403                4.02284569               26.82777888                0.67584026                0.30609833                0.11318477               -0.82505316               -0.02030906                0.11089748                1.51175485
              13.25114289                3.82186280               26.60457813                0.99585978                0.35588616                0.67028495               -1.61969283               -0.04183263                0.01143178               -1.30665293
               3.44174717                7.02438886               27.25982126                1.00000000               -0.12165731               -0.25172074                0.79084668               -0.04485081                0.02050036                1.53503729
               4.44053060                6.81822694               27.03063667                0.54026483               -0.01484879                0.00671883                0.02068933                0.01404022                0.15263235               -1.15408297
               5.44145020                6.61177809               26.80404570                0.02853352                0.17110645                0.27014818               -0.73179646               -1.19849300               15.54620254               -3.79358581
               6.44395273                6.37959537               26.88268260                0.00010000                0.15804371                0.19492760               -0.49256548               -2.52159220               31.02879313               -1.48122693
               7.44461107                6.14450367               26.96408026                0.00010000                0.03370522               -0.00497314               -0.35849639               -2.80329812               31.28815012                0.45602524
               8.44462683                5.90750172               27.04577226                0.00010000                0.00569396               -0.29600341               -0.26371274               -3.05217261               31.44509412                2.37036754
               9.44472495                5.67059518               27.12767730                0.00010000                0.02949421               -0.60304663               -0.20904378               -3.18302793               31.56755686                4.40834776
              10.44521672                5.43608283               27.20869847                0.09342401                0.02516868               -0.83531096               -0.20583345               -2.44553651               24.71814970                6.65430610
              11.44522832                5.22089215               27.15006483                0.31759306                0.05445737               -0.44150859                0.34642150               -0.84873190                9.01924041                4.02618059
              12.44630586                5.02369429               26.91508354                0.69276880                0.18600823                0.05125247               -0.48526939               -0.02231492                0.11265454                1.27228153
              13.44894849                4.82791169               26.67798825                1.00000000                0.26426238                0.54263657               -1.34264600               -0.04178929                0.01198453               -1.47958959
               3.64617310                8.02223099               27.20199443                1.00000000               -0.04859689               -0.18081094                0.56712111               -0.04396953                0.02060256                1.50631056
               4.64568713                7.81868723               26.95941738                0.52014689                0.06553500                0.08466926               -0.24563858                0.01673071                0.17813510               -1.15813150
               5.64748380                7.61490075               26.71993701                0.02010929                0.27986327                0.35362256               -1.03811061               -1.33917538               18.22631607               -3.76094264
               6.65128439                7.38250840               26.83826525                0.00010000                0.20710177                0.37707411               -0.69994548               -2.79622539               36.21892093               -1.52946572
               7.65162583                7.14535740               26.95663258                0.00010000               -0.07162597                0.16896374               -0.43866522               -3.15158203               36.36854006                0.33811667
               8.64985187                6.90515513               27.07554614                0.00010000               -0.23593039               -0.14029597               -0.22242223               -3.47874773               36.64522546                2.15986471
               9.64690722                6.66483314               27.19660085                0.00010000               -0.33185741               -0.50108761               -0.04773992               -3.72379922               37.02145994                4.23703645
              10.64321473                6.42773849               27.31977668                0.10195194               -0.32361991               -0.79644264                0.07633247               -2.81572489               27.61553564                6.81140867
              11.64043483                6.21644820               27.24910732                0.33038832               -0.15482705               -0.45492531                0.74008078               -0.89615159                9.11140138                3.81274251
              12.64011818                6.02387074               27.00063729                0.71036755                0.07187346               -0.01959743               -0.15069250               -0.02521567                0.12030333                1.13195627
              13.64187230                5.83271553               26.74992311                1.00000000                0.17541109                0.42062892               -1.06960781               -0.04236184                0.01284450               -1.56861446
               3.84795532                9.02077265               27.14387756                1.00000000                0.02401384               -0.11241520                0.34461075               -0.04297610                0.02782777                1.48717078
               4.84819546                8.81992032               26.88808605                0.50125235                0.14450963                0.16207559               -0.50760694                0.01807692                0.21808840               -1.17690350
               5.85084551                8.61885054               26.63604429                0.01187232                0.46880570                0.43371170               -1.33717213               -1.44278844               20.89510932               -3.61198848
               6.85757157                8.38713685               26.79372637                0.00010000                0.40435982                0.45657323               -0.88849801               -2.87033333               41.35058825               -1.37924761
               7.85893271                8.14788294               26.94808756                0.00010000               -0.09977162                0.24357957               -0.50712559               -3.07971886               41.34337593                0.22303381
               8.85557614                7.90469580               27.10262881                0.00010000               -0.56335527                0.09805402               -0.17359031               -3.42574609               41.79354228                1.69993199
               9.84766560                7.66057343               27.26277975                0.00010000               -0.91444880               -0.18878270                0.12790444               -3.93662341               42.67408278                3.54426589
              10.83728716                7.42015398               27.43183461                0.11068628               -0.82462772               -0.61212054                0.39986574               -3.19987459               30.56836679                6.42895958
              11.83117305                7.21179364               27.34665318                0.34343909               -0.38764709               -0.47914543                1.12802488               -0.97461775                9.08906335                3.53864442
              12.82953422                7.02330234               27.08527898                0.72864596               -0.03806911               -0.09697359                0.18088295               -0.03176390                0.15228996                1.09474047
              13.83041166                6.83632427               26.82123135                1.00000000                0.08774446                0.30361687               -0.79786071               -0.04330411                0.02307544               -1.59522601
               4.04701822               10.01998269               27.08569279                1.00000000                0.09525520               -0.04736675                0.12445688               -0.04172580               -0.01253678                1.27569860
               5.04797077                9.82192874               26.81630516                0.48313300                0.21966403                0.23996994               -0.76629667                0.01595871                0.37167100               -1.05391747
               6.05141150                9.62357499               26.55455285                0.00341052                0.84372770                0.50569167               -1.62217149               -1.60451495               23.72109216               -2.70496535
               7.06484532                9.39163987               26.75208749                0.00010000                1.05305014                0.07060453               -1.05104974               -2.22860279               46.34961218               -0.80952782
               8.07247250                9.15022899               26.93867885                0.00010000                0.19005714                0.18017920               -0.56224871               -2.11528949               45.97362374                0.11233117
               9.06864647                8.90711621               27.12397939                0.00010000               -0.98779615                0.33611037               -0.12551437               -2.30473544               46.57217656                0.94843988
              10.05271658                8.66105749               27.31887524                0.00010000               -2.03247263                0.45743516                0.29375552               -3.03412384               48.31018419                2.07331908
              11.02799702                8.41549608               27.53633010                0.11976876               -1.74612344                0.06946355                0.73817151               -2.89835598               33.85327467                4.31660910
              12.01779411                8.20686529               27.44059151                0.35675833               -0.65223681               -0.49016810                1.49974888               -1.15433702                9.44276212                2.49420083
              13.01495228                8.02193126               27.17014792                0.74757746               -0.14158787               -0.17849503                0.51309116               -0.04282575                0.34409527                0.97939853
              14.01496235                7.83878787               26.89237761                0.99999128                0.00100740                0.19328264               -0.52652418               -0.04605838               -0.01815487               -1.35086337
               4.24322871               11.01982531               27.02335367                1.00000000                0.16936288               -0.01573802               -0.10208119                0.11048983                0.63165658                1.06881124
               5.24492233               10.82471972               26.74727865                0.73643945                0.29076870                0.27909838               -1.01404055                0.15210951                1.49889183               -0.91160247
               6.24904408               10.62896437               26.48851212                0.49930150                2.07115860                0.53893879               -1.85797500               -2.04528100               26.83420162               -1.92231807
               7.28634551               10.38854894               26.71908292                0.44322040                2.60532490               -0.30909272               -1.17193478               -1.72387426               50.74733130               -0.49072209
               8.30115058               10.15148653               26.92868108                0.43354536                0.61537136                0.12575329               -0.60333593               -0.98873903               49.92863979                0.02291275
               9.29865293                9.91141801               27.13667349                0.44972634               -1.12736633                0.43018032               -0.08897269               -1.08757327               50.60806171                0.49164188
              10.27860325                9.66972213               27.35597656                0.49025713               -3.25703472                0.86646414                0.41397007               -1.90507081               52.82937836                1.13660406
              11.23351224                9.42154325               27.60638441                0.56299781               -3.84760644                0.60471710                0.97439388               -2.83506996               37.40461934                2.69958338
              12.20165112                9.20199028               27.51741876                0.68294998               -1.83785558               -0.48750079                1.79513492               -1.70483939               11.39320039                1.64044079
              13.19675513                9.01973244               27.25248711                0.88019636               -0.29369153               -0.21988236                0.83293134                0.09026697                1.62779593                0.85424356
              14.19577729                8.84018992               26.96838335                0.99993118               -0.09778360                0.14020576               -0.23435005                0.12724220                0.67224091               -1.10123259
               2.31312669                1.12682586               28.62077108                1.00000000               -0.56583456               -0.62533904                2.13888257               -0.10904042               -1.33847917                1.36708731
               3.30746834                0.89299276               28.45553703                1.00000000               -0.49867582               -0.45041964                1.60886493               -0.06820276               -1.39235240               -0.11917111
               4.30315317                0.65836378               28.28926886                0.67756673               -0.43296703               -0.27449239                1.07125783               -0.15916551               -1.04774787               -1.08071206
               5.29880900                0.42070127               28.13101439                0.51827391               -0.43480732               -0.15435676                0.55813135               -0.23852074                0.82649923               -0.12620293
               6.29445703                0.17614107               28.00313782                0.45603759               -0.31040317               -0.00950318                0.03162756               -0.22178924                3.66460958               -0.11527326
               7.29260094               -0.07603095               27.90333300                0.46048944                0.06335983                0.13971375               -0.52847702               -0.14139469                4.96506029                0.02650589
               8.29572422               -0.33063941               27.80274340                0.52335152                0.47243201                0.29303786               -1.07112804               -0.16520940                3.54980716                0.14542175
               9.30204958               -0.58156783               27.67428973                0.65603046                0.67472564                0.44068364               -1.57522500               -0.18441539                0.93457686                0.21711785
              10.30921874               -0.82743528               27.52015264                0.88696310                0.73512256                0.57196021               -2.06996902               -0.13609520               -0.97866119                0.54802157
              11.31675203               -1.07002816               27.35243983                1.00000000                0.80907656                0.71750059               -2.60465058               -0.07638158               -1.38479459                0.64986473
              12.32540027               -1.31144638               27.18970534                1.00000000                0.86482362                0.90516223               -3.10158176               -0.12577268               -1.12371547               -1.28717965
               2.54586938                2.12057247               28.55861727                1.00000000               -0.48520270               -0.60105872                1.91209213               -0.03468291                0.05815065                1.71473161
               3.54101736                1.88848857               28.39293618                0.85732209               -0.40810597               -0.41191401                1.38780806                0.00203467                0.27219358               -0.38147986
               4.53770726                1.65561886               28.23152522                0.22177616               -0.17411024               -0.21983690                0.90508066               -0.13784775                1.88290923               -2.06086453
               5.53753515                1.41915770               28.09793751                0.00493503                0.14489898               -0.11061871                0.45007606               -0.48206013                4.45061396               -2.08441729
               6.54060524                1.17604604               27.98688334                0.00946530                0.35210410               -0.35516943               -0.01608013               -0.84373660                7.22427820                0.65047828
               7.54457723                0.92536619               27.90699635                0.01310625                0.31176635               -0.17603464               -0.51037472               -1.03187593                8.84250968                0.96219042
               8.54684057                0.67229096               27.82675467                0.01072216                0.20130627                0.05525528               -0.98364423               -0.88451577                7.38276056                1.10022883
               9.54860336                0.42283900               27.71745689                0.19221720                0.26236871                0.27695385               -1.41683254               -0.48711403                4.69505029                2.58518582
              10.55208794                0.17828432               27.58403886                0.53683942                0.46952027                0.45986115               -1.84987846               -0.19243215                2.64398858                2.26337152
              11.55799376               -0.06285315               27.43414099                1.00000000                0.67364106                0.65055652               -2.27506275               -0.03389787                1.03857620                1.10489084
              12.56556077               -0.30239476               27.26866238                1.00000000                0.75670015                0.87635588               -2.79976642               -0.05482656                0.26235587               -1.36327917
               2.77660084                3.11480469               28.50347269                1.00000000               -0.41381884               -0.54576822                1.69714745               -0.04854959                0.22428334                1.95522648
               3.77246265                2.88475448               28.32507885                0.64112730               -0.34368790               -0.32278815                1.10875514               -0.01344670                0.59434617               -0.92172575
               4.76972708                2.65396704               28.15407096                0.07686866               -0.18610155               -0.08673005                0.59187817               -0.21118374                3.09259848               -3.82771109
               5.76874062                2.41848890               28.02565620                0.00010000                0.08233634               -0.33051272                0.26915580               -1.11376107                9.67696582               -1.31705317
               6.77137381                2.16903768               27.98586751                0.00010000                0.34889362               -0.57835890               -0.07259262               -1.79496488               13.36604855                0.97438466
               7.77571849                1.92044836               27.92927669                0.00010000                0.45936416               -0.51378880               -0.44225799               -1.84325711               12.47593644                1.96116967
               8.78056109                1.67046569               27.86972874                0.00010000                0.52977246               -0.32112686               -0.80394919               -1.61553530               12.28606888                2.72843106
               9.78631394                1.42397124               27.80781454                0.06238722                0.52505766               -0.21099669               -1.12937056               -1.02516749                9.05770457                4.47290817
              10.79106225                1.18176194               27.68207555                0.28233324                0.52196050               -0.10666306               -1.44719270               -0.46845950                4.31253104                5.98659258
              11.79675315                0.94298298               27.52485187                0.67636601                0.61623546                0.40596527               -1.93307452               -0.17918378                1.66504609                2.18034912
              12.80338695                0.70608074               27.34599672                1.00000000                0.66338023                0.91591170               -2.50024290               -0.18242009                0.58323871               -1.21632699
               3.00499880                4.10965711               28.44620240                1.00000000               -0.34127332               -0.47703983                1.46956055               -0.04700831                0.03762584                1.75283178
               4.00158607                3.88203280               28.25164742                0.59744321               -0.26248120               -0.22924059                0.82828330                0.00015711                0.22322196               -1.19670243
               4.99974918                3.65388426               28.06078408                0.05557990               -0.06983869                0.03664048                0.21265823               -0.59233766                7.31143767               -4.40349077
               6.00018929                3.41254745               28.00799352                0.00010000                0.14986537               -0.45885836                0.16243719               -1.46828154               15.43497279                0.18261685
               7.00274648                3.16447886               27.97840744                0.00010000                0.30473933               -0.42922242               -0.13619480               -1.88069797               16.96100877                0.75545155
               8.00628408                2.91509041               27.95430105                0.00010000                0.41302472               -0.52015785               -0.39686168               -1.98844565               17.14334175                2.17537566
               9.01100698                2.66586843               27.92643297                0.00010000                0.52598393               -0.53513139               -0.65756358               -1.89916279               16.59535695                3.62315543
              10.01680376                2.41861907               27.88930411                0.06635810                0.63500225               -0.65595215               -0.93188532               -1.53736140               14.65247292                4.99323211
              11.02370702                2.17615106               27.82078483                0.27572972                0.66437674               -0.58317752               -0.91209788               -0.65028962                6.98000071                6.87932088
              12.03009129                1.94526616               27.62815105                0.63141805                0.60049091                0.18563001               -1.54023452               -0.05288635                0.43551294                2.47817538
              13.03571684                1.71592347               27.42790785                0.96650319                0.56255483                0.94133780               -2.20301941               -0.07826244                0.06203441               -0.97328534
               3.23090928                5.10526389               28.38708968                1.00000000               -0.26706352               -0.40165772                1.24095300               -0.04631691                0.02232142                1.63541255
               4.22823865                4.88016967               28.17819050                0.57237561               -0.17717980               -0.14524526                0.55153965                0.00906854                0.13263527               -1.20044515
               5.22736569                4.65469985               27.97146451                0.04456102                0.02708710                0.12266983               -0.12212318               -0.91154885               10.38613303               -4.09836875
               6.22878039                4.40931173               27.96761597                0.00010000                0.19256005               -0.21114919               -0.07703023               -1.98322775               21.12826259               -1.19571397
               7.23121689                4.16045323               27.97431635                0.00010000                0.28898122               -0.34417386               -0.21573266               -2.25206471               21.81620049                0.74703208
               8.23456001                3.91004520               27.98221935                0.00010000                0.39161467               -0.49370716               -0.36854484               -2.36764885               21.90595503                2.36166563
               9.23904918                3.65976306               27.98841365                0.00010000                0.53620349               -0.65456707               -0.53354671               -2.34726409               21.75076146                4.08341727
              10.24528408                3.41085220               27.99070616                0.07421674                0.61800935               -0.83500689               -0.71563291               -1.91355873               19.00965674                6.12675619
              11.25140937                3.17009839               27.93927042                0.28655260                0.53194637               -0.56653669               -0.47680701               -0.79239853                8.35492933                5.29121400
              12.25592301                2.94669558               27.72591630                0.64428232                0.45488506                0.13014816               -1.18428416               -0.02348068                0.14833319                1.94919861
              13.26050707                2.72490749               27.50971326                0.97405471                0.45840582                0.82784791               -1.91415032               -0.04326812                0.01219714               -1.11655962
               3.45426090                6.10162395               28.32754196                1.00000000               -0.19294247               -0.32702217                1.01350363               -0.04574203                0.01980398                1.59644849
               4.45233148                5.87912790               28.10454113                0.54988668               -0.09423797               -0.06375462                0.27655564                0.01352645                0.13970012               -1.20749918
               5.45237614                5.65633765               27.88389383                0.03531176                0.12199414                0.20624411               -0.44354407               -1.17153939               13.25751357               -3.97619150
               6.45477136                5.40832447               27.92321699                0.00010000                0.22977878               -0.00144775               -0.31014205               -2.46906950               26.59820880               -1.47625377
               7.45697172                5.15759538               27.96772830                0.00010000                0.24249558               -0.20499242               -0.31527783               -2.71919033               26.96401586                0.53678492
               8.45962127                4.90521627               28.01216977                0.00010000                0.31414892               -0.44681621               -0.34948090               -2.90129236               27.03923831                2.44098155
               9.46325470                4.65277709               28.05555197                0.00010000                0.42879923               -0.70103860               -0.41330144               -2.96292725               27.01182786                4.39409599
              10.46819726                4.40191893               28.09640251                0.08226110                0.43804908               -0.90678940               -0.51385677               -2.39093636               22.60677685                6.45707793
              11.47201568                4.16482033               28.04827791                0.29842328                0.33076611               -0.50759132               -0.06681215               -0.94752351                9.25024132                4.55522174
              12.47481258                3.94786912               27.81946300                0.66007376                0.32059837                0.09429303               -0.83848019               -0.02544262                0.12213621                1.57275186
              13.47842765                3.73248043               27.58830878                0.98380489                0.36150674                0.69087014               -1.63581032               -0.04176401                0.01103099               -1.37587844
               3.67498655                7.09872345               28.26771254                1.00000000               -0.11910733               -0.25394271                0.78726523               -0.04497432                0.02060381                1.56756939
               4.67379548                6.87889458               28.03076740                0.52894870               -0.01241086                0.01630894                0.00479566                0.01655199                0.16218818               -1.20947266
               5.67473833                6.65882474               27.79659994                0.02668914                0.21728969                0.29108666               -0.75847752               -1.38017675               16.05891110               -3.93417963
               6.67814127                6.40928277               27.87754710                0.00010000                0.26014718                0.19735266               -0.53599391               -2.89857178               31.99801726               -1.58309000
               7.67994128                6.15635338               27.96022975                0.00010000                0.16055961               -0.02926844               -0.41285831               -3.21167881               32.20098707                0.42329945
               8.68135246                5.90110888               28.04280805                0.00010000                0.15733483               -0.34629499               -0.32991480               -3.47853695               32.33307560                2.39613166
               9.68308797                5.64574229               28.12519264                0.00010000                0.20348268               -0.67344729               -0.28780181               -3.61007920               32.42393077                4.48562264
              10.68542212                5.39271641               28.20617558                0.09048005                0.17103685               -0.91394685               -0.29726133               -2.81735213               25.85904658                6.77670341
              11.68650871                5.15994656               28.15347054                0.31068175                0.11659670               -0.48201884                0.33502608               -1.02208641                9.75835184                4.20530562
              12.68775405                4.94858144               27.91016468                0.67660415                0.19702252                0.04080665               -0.49883861               -0.02640367                0.12602555                1.32714155
              13.69044916                4.73872489               27.66447283                0.99388906                0.26951102                0.56073558               -1.36208729               -0.04153864                0.01228896               -1.55215753
               3.89301915                8.09654510               28.20764436                1.00000000               -0.04579228               -0.18284722                0.56263161               -0.04410908                0.02067015                1.53897452
               4.89256123                7.87945408               27.95687901                0.50931487                0.06826299                0.09484381               -0.26257114                0.01869861                0.18908980               -1.20756084
               5.89438441                7.66215939               27.70942172                0.01841275                0.33550232                0.37423539               -1.06640080               -1.53423775               18.81065176               -3.89047220
               6.89927128                7.41227152               27.83103878                0.00010000                0.32638132                0.38648157               -0.74705982               -3.19346304               37.34551232               -1.61303155
               7.90091204                7.15701001               27.95194113                0.00010000                0.06951739                0.14968473               -0.50131804               -3.57592069               37.45352820                0.31501416
               8.90066163                6.89829037               28.07293140                0.00010000               -0.07332313               -0.18441588               -0.30193085               -3.91360361               37.70556221                2.19185926
               9.89944558                6.63930814               28.19563469                0.00010000               -0.15078420               -0.56130546               -0.14645100               -4.16002056               38.05283419                4.32785380
              10.89764594                6.38363999               28.31993424                0.09889784               -0.18683248               -0.86062296               -0.04472465               -3.18358872               28.94101669                6.97241124
              11.89570893                6.15517995               28.25646356                0.32324206               -0.10698831               -0.48077728                0.73150411               -1.06138242                9.94727550                3.98476713
              12.89550618                5.94868525               27.99906892                0.69376349                0.08005141               -0.02474892               -0.16329816               -0.02875434                0.13549986                1.18303305
              13.89730996                5.74369514               27.73912981                1.00000000                0.18037808                0.43561991               -1.09055062               -0.04208205                0.01353629               -1.64162223
               4.10828641                9.09506650               28.14729979                1.00000000                0.02687513               -0.11386590                0.34018074               -0.04225507                0.02847631                1.51980759
               5.10855516                8.88079146               27.88292908                0.49088199                0.14748635                0.17162796               -0.52494773                0.01905333                0.23065196               -1.21964324
               6.11123614                8.66630944               27.62253973                0.01033812                0.54331103                0.45187204               -1.36539670               -1.64977466               21.55495053               -3.72596155
               7.11942138                8.41701241               27.78460302                0.00010000                0.55839368                0.45779528               -0.93846673               -3.26858042               42.63518629               -1.44005282
               8.12240401                8.15934708               27.94267926                0.00010000                0.06804403                0.21311019               -0.57672625               -3.47449026               42.59495021                0.20975145
               9.12078226                7.89742056               28.10044786                0.00010000               -0.39330374                0.05956581               -0.26470669               -3.81590459               43.02889771                1.73216705
              10.11453794                7.63451618               28.26348453                0.00010000               -0.74518654               -0.22512555                0.01091352               -4.33347444               43.89884473                3.63550283
              11.10587853                7.37550395               28.43509791                0.10753563               -0.71510663               -0.64670135                0.25051052               -3.54908287               32.06911070                6.61662852
              12.10023580                7.15033102               28.35790654                0.33607389               -0.36073829               -0.49328750                1.12293806               -1.13103104                9.99767262                3.69857528
              13.09866377                6.94808646               28.08703478                0.71156394               -0.03240351               -0.09862266                0.17003333               -0.03533022                0.17002623                1.14485217
              14.09958773                6.74743729               27.81315333                1.00000000                0.09239670                0.31524096               -0.81907196               -0.04312544                0.02445839               -1.66727506
               4.32072415               10.09426778               28.08691221                1.00000000                0.09752098               -0.04747138                0.11861665               -0.04069946               -0.01394405                1.30330312
               5.32169936                9.88288664               27.80857693                0.47317779                0.22219108                0.24642592               -0.77856307                0.01562070                0.38720397               -1.08616574
               6.32516797                9.67119683               27.53820861                0.00204291                0.95813377                0.51961764               -1.65054391               -1.83036906               24.46308031               -2.78323380
               7.34086203                9.42142742               27.74133038                0.00010000                1.29230552                0.00624153               -1.10309095               -2.53712862               47.79165583               -0.83993565
               8.35101408                9.16127222               27.93269728                0.00010000                0.41561974                0.12646690               -0.63660965               -2.38294092               47.38195207                0.10592956
               9.34917443                8.89948169               28.12224133                0.00010000               -0.81606934                0.30370923               -0.22467551               -2.54807758               47.97407800                0.96883500
              10.33469269                8.63480563               28.32117820                0.00010000               -1.91624912                0.45167353                0.16374912               -3.29581234               49.74055640                2.13510538
              11.31084945                8.37070597               28.54287682                0.11653440               -1.70934456                0.11498721                0.56648045               -3.14932379               35.52852343                4.46136056
              12.30050580                8.14531420               28.45557955                0.34916429               -0.65780755               -0.49370670                1.49826528               -1.31028906               10.41451130                2.60672057
              13.29769330                7.94671280               28.17523772                0.72997762               -0.13800135               -0.17797493                0.50474151               -0.04703053                0.37125114                1.02382443
              14.29774578                7.74999996               27.88701572                0.99999755                0.00524799                0.20171633               -0.54697741               -0.04612799               -0.01829684               -1.41111788
               4.53023471               11.09411708               28.02230883                0.99703389                0.17038205               -0.01507050               -0.10524880                0.11134582                0.63868212                1.09087284
               5.53193853               10.88571997               27.73708770                0.73159175                0.29266299                0.28333370               -1.02286710                0.15315308                1.53852475               -0.93613385
               6.53608797               10.67670180               27.46981393                0.49867077                2.33324450                0.55049689               -1.88724381               -2.33713702               27.67386891               -1.97459825
               7.57860342               10.41713724               27.70711089                0.44355139                3.03014804               -0.42901875               -1.22484906               -1.96713045               52.34338933               -0.51381122
               8.59669093               10.16187642               27.92227938                0.43372281                0.88419396                0.06041991               -0.67942380               -1.11443967               51.47496917                0.01348522
               9.59628730                9.90349474               28.13528546                0.44952632               -0.96467617                0.40130585               -0.19108783               -1.20505117               52.14941591                0.49761745
              10.57739741                9.64354965               28.35945754                0.48950709               -3.19519065                0.87440239                0.27901160               -2.01408103               54.41992508                1.16729746
              11.53238349                9.37780370               28.61525517                0.56136443               -3.96871081                0.70977302                0.79432594               -3.00123446               39.24326396                2.79552419
              12.49802319                9.14045688               28.53537167                0.67909471               -1.96730482               -0.48573136                1.79602915               -1.91209815               12.46984879                1.71439719
              13.49303739                8.94452696               28.26078898                0.87123486               -0.29661740               -0.21858397                0.82751242                0.08514613                1.71273201                0.89252419
              14.49209084                8.75147162               27.96595306                0.99992835               -0.09465470                0.14716558               -0.25262619                0.12897276                0.70334048               -1.15000076
               2.46743180                1.20394782               29.64220057                1.00000000               -0.56828132               -0.62826742                2.14764985               -0.10948970               -1.37880279                1.39947241
               3.46174899                0.95545385               29.47161319                1.00000000               -0.50217023               -0.45011791                1.61050358               -0.06882834               -1.43729606               -0.12991589
               4.45738840                0.70610692               29.29991707                0.67407595               -0.45938257               -0.26898582                1.06068738               -0.18591628               -1.08391406               -1.08394823
               5.45256134                0.45304323               29.13654358                0.51750546               -0.50283742               -0.15240865                0.54974644               -0.28120037                0.78889603               -0.13045585
               6.44733165                0.19146346               29.00337364                0.45600196               -0.38783478               -0.00504119                0.01655494               -0.26010244                3.59456982               -0.11926343
               7.44480464               -0.07952025               28.89791033                0.46018538                0.03696327                0.14539076               -0.55483136               -0.16016871                4.87853798                0.02613424
               8.44807092               -0.35361256               28.79183684                0.52212145                0.51042604                0.30036517               -1.10962945               -0.18677144                3.48544366                0.14900084
               9.45501316               -0.62331525               28.65831627                0.65285426                0.73101088                0.44973958               -1.62088302               -0.20935620                0.89552826                0.22347068
              10.46269113               -0.88691963               28.49924912                0.87992907                0.77324590                0.58064635               -2.11469089               -0.14923190               -1.02749435                0.54832125
              11.47047808               -1.14662218               28.32622416                1.00000000                0.82852610                0.72232145               -2.64544254               -0.07724963               -1.43062238                0.69931305
              12.47926166               -1.40497101               28.15855172                1.00000000                0.87835731                0.90980506               -3.13572798               -0.12869952               -1.14619673               -1.32459532
               2.71483088                2.19766515               29.57776866                1.00000000               -0.48497162               -0.60427399                1.91898893               -0.03346057                0.07310942                1.75283514
               3.70998116                1.95095268               29.40679575                0.84053977               -0.40481634               -0.41118301                1.38546083                0.00288982                0.30778253               -0.42320663
               4.70673455                1.70341706               29.24052916                0.21664723               -0.14550486               -0.21218117                0.89746903               -0.17564956                1.95549272               -2.14035260
               5.70707106                1.45151914               29.10241021                0.00508085                0.21389068               -0.11237784                0.44731496               -0.59967156                4.53289595               -2.12450523
               6.71101236                1.19141305               28.98668132                0.00955033                0.43349527               -0.41016828               -0.02334180               -1.03605772                7.28091661                0.63915664
               7.71574097                0.92193366               28.90180812                0.01315233                0.35441688               -0.20662467               -0.52682591               -1.26510071                8.89013921                0.98458380
               8.71810070                0.64939109               28.81679259                0.01087052                0.19160833                0.05713285               -1.00905698               -1.08453480                7.45936402                1.14752483
               9.71957314                0.38118215               28.70315378                0.18773744                0.23757893                0.26765176               -1.44530924               -0.59047381                4.79249418                2.65354066
              10.72285228                0.11888684               28.56542413                0.52618702                0.45790722                0.45497132               -1.87514723               -0.22982984                2.74887008                2.35684572
              11.72873128               -0.13939896               28.41132717                1.00000000                0.67356094                0.65010414               -2.28529420               -0.04024986                1.09867906                1.16168910
              12.73632350               -0.39587296               28.24062667                1.00000000                0.75922187                0.87712900               -2.80276188               -0.05807008                0.26857742               -1.40222512
               2.96018754                3.19186234               29.52046205                1.00000000               -0.41326645               -0.54948599                1.70086620               -0.04823070                0.22583637                1.99320587
               3.95605488                2.94723019               29.33613753                0.62710243               -0.34392997               -0.31965023                1.10356592               -0.01264230                0.63282676               -0.99349025
               4.95330894                2.70186329               29.15994754                0.07397616               -0.17414802               -0.07305943                0.58504992               -0.26403478                3.26764568               -4.01815535
               5.95257192                2.45079567               29.02835006                0.00010000                0.14435170               -0.38044535                0.27121911               -1.33604735                9.93854828               -1.36791486
               6.95619598                2.18326010               28.98506076                0.00010000                0.44763366               -0.66767590               -0.08835053               -2.15043436               13.60165968                0.95523627
               7.96152459                1.91634726               28.92474114                0.00010000                0.54678772               -0.58018421               -0.46482142               -2.22464291               12.70463757                1.99859307
               8.96713173                1.64753010               28.86155402                0.00010000                0.60916760               -0.34966128               -0.83116143               -1.98283728               12.53765506                2.80874950
               9.97370794                1.38203779               28.79639990                0.05973145                0.57719587               -0.23819898               -1.15699409               -1.27359916                9.33513582                4.55896721
              10.97867565                1.12217980               28.66758394                0.27563916                0.53624716               -0.18165777               -1.45234071               -0.55589870                4.51724439                6.23355488
              11.98443289                0.86637991               28.50554503                0.65966037                0.61863047                0.37415844               -1.91912095               -0.20768073                1.73818196                2.25956449
              12.99104826                0.61257157               28.32105103                0.99579733                0.66153724                0.92212930               -2.47815422               -0.20300639                0.60686687               -1.27204500
               3.20313056                4.18667543               29.46090479                1.00000000               -0.34031986               -0.48084995                1.47085564               -0.04704906                0.03671699                1.78427659
               4.19972736                3.94455967               29.25988732                0.58455660               -0.26210924               -0.22284127                0.81953907                0.00248615                0.23560263               -1.26666597
               5.19788838                3.70195587               29.06283054                0.05315954               -0.03870254                0.05568233                0.19634017               -0.69998624                7.61939123               -4.60414499
               6.19895331                3.44391023               29.00950321                0.00010000                0.22818546               -0.52569765                0.13872747               -1.71733450               15.90781177                0.10263900
               7.20245209                3.17805953               28.97692081                0.00010000                0.40123992               -0.48670982               -0.16131340               -2.20878500               17.33294976                0.72687284
               8.20697811                2.91032998               28.95018070                0.00010000                0.51506694               -0.58257926               -0.42725835               -2.35260086               17.53839414                2.19669665
               9.21275343                2.64239787               28.91969628                0.00010000                0.62366681               -0.59165896               -0.68976670               -2.25667419               16.98943961                3.67939132
              10.21945145                2.37641817               28.87985030                0.06370197                0.73193810               -0.70620139               -0.95767705               -1.86430601               15.19233581                5.05366140
              11.22739219                2.11525368               28.81163003                0.26939271                0.73672252               -0.70035297               -0.91730510               -0.80082321                7.34204451                7.13980482
              12.23418590                1.86808421               28.61274006                0.61606127                0.62439320                0.13613580               -1.54065446               -0.06483214                0.44862477                2.55574742
              13.23988005                1.62256962               28.40589449                0.95463258                0.56941535                0.96011511               -2.20216964               -0.08040222                0.05872674               -1.04660376
               3.44347808                5.18224535               29.39949599                1.00000000               -0.26539202               -0.40519581                1.24008367               -0.04652520                0.02239810                1.66690244
               4.44082416                4.94277337               29.18364716                0.55997065               -0.17597125               -0.13668495                0.53935798                0.01209575                0.14105196               -1.26634008
               5.43995865                4.70297694               28.97013738                0.04228009                0.06487027                0.14413256               -0.14392850               -1.05417655               10.76109476               -4.26611030
               6.44212156                4.44028172               28.96668080                0.00010000                0.28209396               -0.23782965               -0.11111077               -2.29164148               21.77974171               -1.32929456
               7.44560053                4.17352590               28.97197786                0.00010000                0.40063382               -0.38901857               -0.25261600               -2.60562226               22.37783960                0.70335690
               8.45013424                3.90469567               28.97833094                0.00010000                0.51547597               -0.55119223               -0.40925396               -2.74295816               22.46211629                2.37164935
               9.45591005                3.63569692               28.98286248                0.00010000                0.67158822               -0.72004307               -0.57596878               -2.71913155               22.30002967                4.12865593
              10.46356601                3.36791376               28.98334510                0.07142367                0.75415470               -0.91506600               -0.75425895               -2.25718045               19.77105323                6.19327405
              11.47099315                3.10817274               28.93444339                0.27997862                0.61271477               -0.65354988               -0.48774149               -0.96190332                8.85731327                5.49301961
              12.47582030                2.86910262               28.71402080                0.62880347                0.47381177                0.09840670               -1.19607717               -0.02944443                0.15781824                2.00971749
              13.48046938                2.63177387               28.49051956                0.96222875                0.46490815                0.85080154               -1.92879187               -0.04328136                0.01041327               -1.19583159
               3.68114401                6.17857151               29.33766489                1.00000000               -0.19063284               -0.33037447                1.01078547               -0.04598102                0.01992456                1.62877892
               4.67923768                5.94182597               29.10723440                0.53796594               -0.09237567               -0.05368850                0.26148311                0.01649061                0.14884206               -1.26915788
               5.67929650                5.70483852               28.87933358                0.03320309                0.16669203                0.22948317               -0.46949506               -1.33911381               13.70066387               -4.13002713
               6.68257152                5.43915364               28.91991633                0.00010000                0.33145934               -0.00849718               -0.35122100               -2.81988313               27.41003295               -1.59771637
               7.68592569                5.17027916               28.96434447                0.00010000                0.36882045               -0.23845406               -0.36234712               -3.10390876               27.70465003                0.48699040
               8.68994793                4.89930613               29.00840912                0.00010000                0.46135114               -0.50164761               -0.40285252               -3.30454744               27.76142388                2.44744154
               9.69515271                4.62799700               29.05112316                0.00010000                0.59420413               -0.77360074               -0.47155441               -3.36316538               27.71111716                4.44059629
              10.70183202                4.35811685               29.09095067                0.07933852                0.59062760               -0.99142952               -0.57368881               -2.76302894               23.58128590                6.52540855
              11.70696526                4.10218268               29.04754594                0.29161816                0.40819332               -0.56800617               -0.07891768               -1.13256963                9.89859462                4.74284213
              12.70999588                3.87005234               28.81100927                0.64424743                0.33533369                0.07642866               -0.85269165               -0.02966225                0.13483273                1.62916056
              13.71367193                3.63958565               28.57186192                0.97180762                0.36760520                0.71368220               -1.65657536               -0.04123996                0.01092299               -1.45682618
               3.91604954                7.17563786               29.27556657                1.00000000               -0.11625804               -0.25741361                0.78318265               -0.04516668                0.02068656                1.60057169
               4.91488696                6.94169960               29.03073258                0.51750723               -0.01004172                0.02741787               -0.01237966                0.01913131                0.17262100               -1.26537684
               5.91584871                6.70756660               28.78887615                0.02475857                0.26981497                0.31565010               -0.78746126               -1.56736310               16.57027131               -4.07714204
               6.92028326                6.44011177               28.87196272                0.00010000                0.37605792                0.20191085               -0.58227365               -3.28530404               32.96581709               -1.69003002
               7.92336987                6.16875682               28.95582310                0.00010000                0.30210940               -0.05354934               -0.46961243               -3.62854799               33.11477853                0.38039846
               8.92632545                5.89466272               29.03917396                0.00010000                0.32330797               -0.39768174               -0.39739952               -3.91051473               33.22070759                2.40682178
               9.92983603                5.62022490               29.12192126                0.00010000                0.38971481               -0.74493343               -0.36586195               -4.03845947               33.27856319                4.54175159
              10.93411975                5.34808517               29.20275324                0.08744008                0.32851183               -0.99262283               -0.38478205               -3.20190534               27.04135540                6.86997040
              11.93640626                5.09681262               29.15676535                0.30363867                0.18521697               -0.52375713                0.32450995               -1.20867899               10.54271227                4.38607582
              12.93782409                4.87063120               28.90510677                0.66039147                0.20858475                0.03044796               -0.51320321               -0.02995283                0.14164380                1.37969225
              13.94057796                4.64604751               28.65074651                0.98165284                0.27538725                0.58084678               -1.38558468               -0.04090312                0.01285032               -1.63240225
               4.14811719                8.17342324               29.21324706                1.00000000               -0.04256312               -0.18684532                0.55798073               -0.04405519                0.02110705                1.57257617
               5.14769156                7.94237433               28.95416596                0.49835519                0.07099345                0.10649688               -0.28106380                0.02049377                0.20084099               -1.25681203
               6.14953706                7.71115152               28.69860899                0.01664649                0.39918335                0.39889105               -1.09746495               -1.73803018               19.39264942               -4.02112436
               7.15567523                7.44319186               28.82332405                0.00010000                0.46333578                0.39662126               -0.79768455               -3.60454262               38.46829555               -1.70094860
               8.15880378                7.16920818               28.94660621                0.00010000                0.22971640                0.12825039               -0.56726347               -4.01111808               38.53589066                0.28287837
               9.16026956                6.89135250               29.06950752                0.00010000                0.10786465               -0.23167528               -0.38389602               -4.35432325               38.76096247                2.20993218
              10.16096107                6.61309834               29.19367183                0.00010000                0.04683188               -0.62424619               -0.24625018               -4.59658394               39.07545536                4.39817012
              11.16120619                6.33826439               29.31888218                0.09575168               -0.03577073               -0.92705981               -0.16473389               -3.56315916               30.32105546                7.10328541
              12.16024566                6.09170754               29.26373740                0.31596432               -0.05221319               -0.50817291                0.72370408               -1.24098639               10.84674467                4.15917751
              13.16016193                5.87066130               28.99737133                0.67710984                0.08877916               -0.03003075               -0.17662237               -0.03205386                0.15324006                1.23279156
              14.16202124                5.65120259               28.72811210                0.99171036                0.18593087                0.45226732               -1.11498846               -0.04158269                0.01452181               -1.72014363
               4.37726627                9.17190095               29.15068117                1.00000000                0.03022911               -0.11917665                0.33490850               -0.04250680                0.02755723                1.55195226
               5.37756856                8.94382954               28.87758710                0.48040101                0.15021559                0.18362334               -0.54252931                0.01851832                0.24345332               -1.25861792
               6.38027058                8.71554443               28.60873636                0.00872974                0.62836016                0.47422903               -1.39821094               -1.87013687               22.21151423               -3.84187433
               7.39013576                8.44804420               28.77495703                0.00010000                0.73581450                0.45707137               -0.99318976               -3.68540275               43.91367144               -1.50478433
               8.39498687                8.17132183               28.93655304                0.00010000                0.26065332                0.17696438               -0.65065588               -3.88090833               43.84083039                0.18927816
               9.39534883                7.89002922               29.09733468                0.00010000               -0.19972078                0.01514087               -0.35964334               -4.21021501               44.25462524                1.75338459
              10.39099245                7.60773998               29.26299802                0.00010000               -0.55507343               -0.26558784               -0.10954762               -4.72770452               45.10712224                3.71004636
              11.38424736                7.32954398               29.43684482                0.10429209               -0.59014111               -0.68491839                0.09776298               -3.90654403               33.63760996                6.77768103
              12.37918963                7.08664916               29.36911194                0.32856887               -0.32796982               -0.50864816                1.11851017               -1.30178101               10.98805856                3.86118439
              13.37768796                6.87003058               29.08867965                0.69444612               -0.02629510               -0.10038769                0.15858379               -0.03885500                0.19047272                1.19447416
              14.37866373                6.65509286               28.80484991                1.00000000                0.09757664                0.32815949               -0.84332324               -0.04281321                0.02612050               -1.74334517
               4.60340988               10.17103971               29.08806513                0.99315210                0.10085693               -0.05257170                0.11326820               -0.04037435               -0.00807682                1.33373185
               5.60441845                9.94604680               28.80073389                0.46312441                0.22548896                0.25729842               -0.79504136                0.01077853                0.40289067               -1.11389380
               6.60791966                9.72063610               28.52154197                0.00126949                1.08856597                0.53586659               -1.68670355               -2.07429081               25.19969895               -2.86512085
               7.62618977                9.45233329               28.73002567                0.00010000                1.56404656               -0.06662531               -1.16102590               -2.86382802               49.22776096               -0.87296252
               8.63920059                9.17274746               28.92594666                0.00010000                0.67286672                0.06350942               -0.71598454               -2.65947212               48.78266593                0.09540220
               9.63964711                8.89165531               29.11948588                0.00010000               -0.61541856                0.26264449               -0.32860635               -2.79233096               49.36289160                0.98311043
              10.62689222                8.60778658               29.32215022                0.00010000               -1.77404866                0.43847045                0.02829626               -3.55248514               51.14740118                2.18730370
              11.60416613                8.32456603               29.54765971                0.11321479               -1.65843964                0.15765238                0.38659916               -3.40179814               37.28252868                4.59001202
              12.59372343                8.08153458               29.47055682                0.34145111               -0.66125012               -0.49775843                1.49766157               -1.47939100               11.48337760                2.72134229
              13.59094113                7.86865355               29.18024275                0.71234320               -0.13415050               -0.17750865                0.49601917               -0.05141905                0.40137562                1.06844500
              14.59104042                7.65776578               28.88143806                1.00000000                0.00992889                0.21111900               -0.57003992               -0.04616560               -0.01817655               -1.47389580
               4.82644460               11.17084952               29.02124869                0.99228651                0.17431270               -0.01901932               -0.10731925                0.11607109                0.65425209                1.12117226
               5.82818773               10.94897550               28.72682130                0.72670326                0.30268338                0.29287090               -1.04448266                0.14754001                1.57850785               -0.95684437
               6.83249827               10.72626176               28.45076724                0.49801228                2.62800551                0.56256524               -1.92470025               -2.65532962               28.50877157               -2.03070757
               7.88074784               10.44671169               28.69458594                0.44385195                3.49885621               -0.56215925               -1.28349208               -2.22768007               53.93472571               -0.53789596
               8.90247540               10.17259202               28.91509260                0.43389790                1.18576251               -0.01554468               -0.76018192               -1.24399903               53.01292895                0.00193782
               9.90446309                9.89528211               29.13285174                0.44931834               -0.77216793                0.36267923               -0.29773925               -1.32253285               53.67624055                0.50041682
              10.88703204                9.61650939               29.36155679                0.48873416               -3.09998483                0.87228090                0.13841001               -2.11527265               55.98422457                1.19286367
              11.84246339                9.33269702               29.62227093                0.55968493               -4.07588741                0.81309965                0.60446605               -3.16104359               41.16487271                2.88135210
              12.80551429                9.07669399               29.55333934                0.67517653               -2.10175080               -0.48405876                1.79809231               -2.13174470               13.65130290                1.78985054
              13.80042838                8.86648041               29.26903736                0.86225875               -0.29991693               -0.21731384                0.82211427                0.07978732                1.80200043                0.93132035
              14.79951595                8.65931524               28.96333082                0.99992601               -0.09124285                0.15494599               -0.27307842                0.13103623                0.73540039               -1.20036342
               2.62672539                1.28367913               30.66372408                1.00000000               -0.57194644               -0.63114351                2.15725783               -0.10978045               -1.42111983                1.43446896
               3.62100592                1.02002933               30.48774710                1.00000000               -0.50904463               -0.45292341                1.62496608               -0.07026699               -1.49140756               -0.14767999
               4.61654450                0.75546063               30.31048261                0.67057308               -0.49377866               -0.26792953                1.06349594               -0.21770440               -1.12942527               -1.09154989
               5.61113035                0.48635891               30.14200932                0.51671037               -0.57814091               -0.14977858                0.54435321               -0.32495282                0.74831205               -0.13542385
               6.60498168                0.20714044               30.00346891                0.45594040               -0.47109281                0.00016063                0.00439932               -0.29873803                3.51644208               -0.12334861
               7.60170849               -0.08330384               29.89223638                0.45985716                0.00227386                0.15308922               -0.57755892               -0.17954216                4.78046096                0.02546030
               8.60502715               -0.37757090               29.78055081                0.52084445                0.54196848                0.30951820               -1.14439079               -0.20797699                3.40747652                0.15239271
               9.61254786               -0.66677344               29.64187207                0.64960060                0.78669039                0.45996300               -1.66557929               -0.23501424                0.84431219                0.22896985
              10.62076096               -0.94881887               29.47785882                0.87285502                0.81445588                0.59052889               -2.16299057               -0.16062427               -1.08565809                0.54396898
              11.62883698               -1.22624792               29.29953098                1.00000000                0.85301191                0.73076771               -2.69943764               -0.07068409               -1.47962220                0.75439819
              12.63782120               -1.50208819               29.12699078                1.00000000                0.89842187                0.91496180               -3.19194652               -0.13281645               -1.16841522               -1.35892817
               2.88927739                2.27736769               30.59699705                1.00000000               -0.48648828               -0.60732289                1.92669068               -0.03469987                0.08546825                1.79204563
               3.88441250                2.01550009               30.42064540                0.82370968               -0.40373637               -0.41181096                1.38909490                0.00207052                0.34265525               -0.47046964
               4.88120266                1.75278133               30.24947460                0.21150308               -0.11857952               -0.20790379                0.89919902               -0.21579987                2.03327378               -2.22583590
               5.88204091                1.48486112               30.10688381                0.00524227                0.28115041               -0.11606539                0.44779425               -0.71856328                4.61651980               -2.16720828
               6.88682567                1.20714205               29.98641650                0.00961745                0.51139142               -0.46187636               -0.02936505               -1.22999077                7.33215176                0.61920498
               7.89226874                0.91822706               29.89645983                0.01316468                0.39282588               -0.23242652               -0.54266888               -1.50041367                8.93039845                0.99910835
               8.89468219                0.62552429               29.80657353                0.01098773                0.17764819                0.06539460               -1.03534613               -1.28862919                7.52975207                1.18804854
               9.89582171                0.33782619               29.68855071                0.18315534                0.21048863                0.26137540               -1.47678392               -0.69994931                4.88725288                2.71228487
              10.89889196                0.05708642               29.54653591                0.51545445                0.44715468                0.45230013               -1.90913500               -0.26326966                2.85806250                2.44639993
              11.90476480               -0.21894024               29.38843511                1.00000000                0.67206737                0.65046441               -2.29665402               -0.04061376                1.16635934                1.21926627
              12.91233331               -0.49293857               29.21260714                1.00000000                0.75685057                0.87301011               -2.79482413               -0.06527846                0.28359374               -1.43434474
               3.14976660                3.27153267               30.53749002                1.00000000               -0.41329005               -0.55294961                1.70499128               -0.04942197                0.22748733                2.03098064
               4.14563370                3.01179311               30.34715017                0.61303541               -0.34495647               -0.31551147                1.09902305               -0.01351288                0.67536180               -1.06900828
               5.14286747                2.75130255               30.16577196                0.07106134               -0.16176645               -0.05849062                0.57932729               -0.32185249                3.45509791               -4.21875319
               6.14239837                2.48403760               30.03108058                0.00010000                0.20742297               -0.42958164                0.27631494               -1.55926406               10.20253745               -1.43806897
               7.14701593                2.19790292               29.98410050                0.00010000                0.54598089               -0.75214197               -0.10372298               -2.50438236               13.83011561                0.92111706
               8.15331799                1.91204763               29.91998026                0.00010000                0.63197543               -0.63962545               -0.48746638               -2.60790857               12.93175713                2.02206142
               9.15965544                1.62373700               29.85310551                0.00010000                0.68343779               -0.36882477               -0.85907803               -2.35747888               12.78632038                2.87757916
              10.16698674                1.33845407               29.78467466                0.05699468                0.63032823               -0.25395490               -1.18814008               -1.53074221                9.61550081                4.63285623
              11.17226200                1.06022714               29.65302874                0.26881824                0.55314778               -0.24993618               -1.46934480               -0.64632521                4.73354636                6.47219664
              12.17804970                0.78676137               29.48646945                0.64260031                0.61251449                0.34227839               -1.88283385               -0.24102964                1.81256967                2.31356400
              13.18451229                0.51537202               29.29643364                0.98253510                0.64625931                0.92307175               -2.44008679               -0.22647523                0.63317437               -1.34161418
               3.40776808                4.26630870               30.47561951                1.00000000               -0.33957119               -0.48454127                1.47176543               -0.04746880                0.03595905                1.81599713
               4.40437237                4.00918986               30.26803820                0.57159728               -0.26234813               -0.21486571                0.81052461                0.00437082                0.24933701               -1.33956186
               5.40252112                3.75161152               30.06471088                0.05065716               -0.00585493                0.07860298                0.17938201               -0.81169523                7.92939618               -4.81479948
               6.40425527                3.47626949               30.01076807                0.00010000                0.31034349               -0.58624443                0.11309665               -1.96879710               16.38515342                0.00017124
               7.40872799                3.19209921               29.97518118                0.00010000                0.50106115               -0.54031038               -0.18695127               -2.53636616               17.70970280                0.68332722
               8.41427649                2.90543455               29.94575588                0.00010000                0.61990930               -0.63989330               -0.45800957               -2.71758421               17.93683560                2.20433570
               9.42112617                2.61814779               29.91263764                0.00010000                0.72201150               -0.64138500               -0.72200408               -2.61536400               17.39181528                3.72296950
              10.42871672                2.33274709               29.87015057                0.06096036                0.82659896               -0.74183805               -0.98297899               -2.19612985               15.75012245                5.10332945
              11.43765815                2.05208770               29.80243873                0.26291884                0.80413025               -0.80921291               -0.91999251               -0.96119192                7.71807316                7.39034797
              12.44479933                1.78790533               29.59733796                0.60060900                0.64621809                0.09296693               -1.54691076               -0.08056623                0.46193851                2.61067422
              13.45058251                1.52552287               29.38386446                0.94285261                0.57831867                0.98257083               -2.21859156               -0.07796991                0.05294791               -1.15499506
               3.66305490                5.26184185               30.41189135                1.00000000               -0.26366060               -0.40898759                1.23855201               -0.04699117                0.02256560                1.69899622
               4.66041830                5.00749579               30.18897766                0.54745509               -0.17504828               -0.12652710                0.52623934                0.01500112                0.15045723               -1.33417855
               5.65955394                4.75287461               29.96858594                0.03991566                0.10582197                0.16934101               -0.16716212               -1.19983550               11.13627637               -4.43926748
               6.66253473                4.47231271               29.96539375                0.00010000                0.37848045               -0.25906357               -0.14746711               -2.60360189               22.43446909               -1.47323815
               7.66712354                4.18709671               29.96926403                0.00010000                0.51914932               -0.43046261               -0.29089561               -2.96094979               22.94664987                0.64575021
               8.67291772                3.89924977               29.97403427                0.00010000                0.64560322               -0.60562385               -0.45034773               -3.11964257               23.02551930                2.36681539
               9.68003561                3.61090930               29.97689428                0.00010000                0.81032570               -0.78087811               -0.61726739               -3.09115714               22.86022100                4.15737704
              10.68912424                3.32361731               29.97562099                0.06853635                0.89221589               -0.98640680               -0.78849104               -2.60914686               20.55580631                6.23880893
              11.69787993                3.04404288               29.92951559                0.27326608                0.69394842               -0.73662430               -0.49763365               -1.13628910                9.37702912                5.68847276
              12.70300320                2.78862071               29.70199475                0.61325921                0.49189444                0.07305189               -1.20969249               -0.03127611                0.16874618                2.05969729
              13.70771782                2.53502343               29.47113742                0.95047613                0.47146121                0.87970483               -1.95331320               -0.04181270                0.00982625               -1.29265115
               3.91552036                6.25812895               30.34775767                1.00000000               -0.18807396               -0.33445696                1.00728068               -0.04629522                0.02009912                1.66219058
               4.91363962                6.00665932               30.10977079                0.52592622               -0.09064385               -0.04201546                0.24508455                0.01947056                0.15885519               -1.33175154
               5.91370749                5.75499834               29.87450393                0.03102310                0.21607545                0.25659356               -0.49738831               -1.51057112               14.14317117               -4.28745572
               6.91796113                5.47108822               29.91619257                0.00010000                0.44322230               -0.01191275               -0.39477795               -3.17662270               28.22370279               -1.72628769
               7.92257193                5.18348996               29.96048135                0.00010000                0.50549598               -0.26985519               -0.41116343               -3.49320439               28.45163785                0.42509053
               8.92807105                4.89332207               30.00411272                0.00010000                0.61817777               -0.55514300               -0.45668782               -3.71045032               28.49047522                2.43784856
               9.93493549                4.60253023               30.04612088                0.00010000                0.76645745               -0.84403197               -0.52794756               -3.76293823               28.41956801                4.46644585
              10.94340020                4.31301896               30.08492873                0.07632384                0.74967394               -1.07165004               -0.62768333               -3.14470552               24.58827369                6.56656781
              11.94992897                4.03735521               30.04669956                0.28466031                0.48965234               -0.62831321               -0.08959548               -1.32615442               10.57702374                4.92884052
              12.95319325                3.78936637               29.80240916                0.62838205                0.35059241                0.05962577               -0.86814797               -0.03178446                0.15057547                1.68117608
              13.95694082                3.54311696               29.55517727                0.95984968                0.37475668                0.74016185               -1.68443722               -0.03949695                0.01132315               -1.54691637
               4.16506826                7.25515271               30.28337620                1.00000000               -0.11299408               -0.26234653                0.77829198               -0.04556583                0.02090183                1.63522749
               5.16393832                7.00665548               30.03051980                0.50594264               -0.00773212                0.04019995               -0.03098476                0.02151352                0.18375013               -1.32114140
               6.16491362                6.75800648               29.78085072                0.02274039                0.32861727                0.34391734               -0.81890191               -1.76046013               17.08035254               -4.22247853
               7.17051066                6.47207446               29.86590163                0.00010000                0.50559941                0.20850092               -0.63133319               -3.68140222               33.93351325               -1.80295383
               8.17502560                6.18169960               29.95083750                0.00010000                0.45788912               -0.07761601               -0.52865156               -4.05265501               34.03227678                0.32594206
               9.17966844                5.88814691               30.03486006                0.00010000                0.50271766               -0.44968859               -0.46578248               -4.34633716               34.11211490                2.40076153
              10.18507996                5.59402866               30.11787541                0.00010000                0.58683475               -0.81677230               -0.44230399               -4.46590320               34.13736932                4.57463761
              11.19140514                5.30218431               30.19847994                0.08430587                0.49647366               -1.07024167               -0.46671335               -3.59753836               28.26836128                6.93061313
              12.19500943                5.03147661               30.15996074                0.29645203                0.26003118               -0.56691540                0.31507356               -1.40726869               11.37323826                4.56700458
              13.19660576                4.78981323               29.89990061                0.64412496                0.22086265                0.02009178               -0.52863586               -0.03234566                0.16050670                1.42910231
              14.19942668                4.54982667               29.63676114                0.96947059                0.28209196                0.60359538               -1.41438626               -0.03975394                0.01379848               -1.71923403
               4.41160350                8.25288202               30.21880397                1.00000000               -0.03873762               -0.19326104                0.55259523               -0.04399790                0.02068812                1.60792211
               5.41121612                8.00746332               29.95125774                0.48727577                0.07379076                0.11978408               -0.30099514                0.02126950                0.21286766               -1.30363009
               6.41307931                7.76187669               29.68747242                0.01479746                0.47119236                0.42662489               -1.13146204               -1.95111051               19.97228415               -4.15478691
               7.42063997                7.47525824               29.81508509                0.00010000                0.61835348                0.40703213               -0.85210197               -4.02857896               39.58898425               -1.79512403
               8.42544638                7.18193764               29.94059586                0.00010000                0.40876458                0.10462959               -0.63635037               -4.45562843               39.61873536                0.23977031
               9.42881526                6.88432830               30.06525348                0.00010000                0.30668219               -0.28185077               -0.46771420               -4.79907596               39.81553179                2.21183419
              10.43158002                6.58619478               30.19070969                0.00010000                0.25931095               -0.68949679               -0.34571232               -5.03119467               40.09443366                4.44479842
              11.43400148                6.29161413               30.31663956                0.09250348                0.12873254               -0.99521316               -0.28145356               -3.95331015               31.75986895                7.19904103
              12.43415468                6.02601690               30.27093764                0.30855604                0.00974009               -0.53706601                0.71661647               -1.43466027               11.81155900                4.33455814
              13.43419628                5.78976820               29.99553647                0.66042643                0.09820874               -0.03543531               -0.19095662               -0.03492725                0.17428976                1.28052500
              14.43611885                5.55518887               29.71683004                0.97926238                0.19225713                0.47088812               -1.14379133               -0.04078630                0.01582445               -1.80371655
               4.65502570                9.25128749               30.15399796                0.99730591                0.03433387               -0.12535608                0.32779746               -0.04255323                0.03065382                1.58848267
               5.65536904                9.00905116               29.87207849                0.46978648                0.15353932                0.19556182               -0.56032535                0.01578513                0.25586116               -1.29740514
               6.65809649                8.76653898               29.59457551                0.00705766                0.72545460                0.49934195               -1.43726252               -2.10226025               22.86431413               -3.96336105
               7.66987813                8.48021510               29.76473922                0.00010000                0.93732420                0.45405141               -1.05304558               -4.11870933               45.18984970               -1.57614538
               8.67684297                8.18379220               29.92966614                0.00010000                0.47758246                0.13515284               -0.72875370               -4.29721987               45.08467912                0.15960397
               9.67942978                7.88250989               30.09325500                0.00010000                0.01636328               -0.03507319               -0.45764277               -4.60700169               45.47441047                1.76127859
              10.67717024                7.58023872               30.26129357                0.00010000               -0.34564839               -0.31009223               -0.23188808               -5.11714924               46.30247444                3.76432130
              11.67251681                7.28228005               30.43705317                0.10096226               -0.45040453               -0.72670128               -0.05575157               -4.27057404               35.27854900                6.90617269
              12.66816215                7.02073529               30.38027675                0.32093613               -0.28907809               -0.52516302                1.11467031               -1.48699410               12.06366566                4.02554663
              13.66673525                6.78910452               30.09020645                0.67729341               -0.01962637               -0.10221055                0.14622084               -0.04237864                0.21428908                1.24306958
              14.66776962                6.55924443               29.79628686                0.98924490                0.10343679                0.34261312               -0.87132425               -0.04236986                0.02811395               -1.82329425
               4.89522507               10.25037490               30.08917757                0.98336453                0.10552537               -0.05570482                0.11153535               -0.04259298               -0.00036444                1.37331785
               5.89628033               10.01137456               29.79267611                0.45297711                0.23225486                0.26785522               -0.82134703                0.00548616                0.41966822               -1.15121726
               6.89987017                9.77186353               29.50447453                0.00123724                1.23661179                0.55490586               -1.73163361               -2.33165071               25.93775561               -2.95279325
               7.92101256                9.48433926               29.71810986                0.00010000                1.86685088               -0.14781586               -1.22528504               -3.20641947               50.66336722               -0.91087884
               8.93720719                9.18464069               29.91837759                0.00010000                0.96080684               -0.00844569               -0.80022662               -2.94358438               50.18015596                0.07943133
               9.94022870                8.88362684               30.11566920                0.00010000               -0.38701510                0.21307400               -0.43648454               -3.03648069               50.74174430                0.98974017
              10.92946689                8.57999294               30.32174412                0.00010000               -1.60676386                0.41775330               -0.11108312               -3.80271342               52.53208948                2.22747683
              11.90809342                8.27708010               30.55060880                0.10981373               -1.59382845                0.19641305                0.20112953               -3.65488590               39.12047468                4.69785549
              12.89759032                8.01551364               30.48553278                0.33361788               -0.66269283               -0.50232239                1.49775058               -1.66177161               12.65508798                2.83760820
              13.89483957                7.78772399               30.18515811                0.69467998               -0.12993444               -0.17701833                0.48659929               -0.05609235                0.43502417                1.11298070
              14.89499163                7.56204113               29.87561492                0.99920782                0.01520623                0.22171924               -0.59643132               -0.04617110               -0.01773490               -1.53918381
               5.13217453               11.25017339               30.02016245                0.98749199                0.18156083               -0.02015084               -0.11173760                0.11843319                0.66884326                1.16334137
               6.13399014               11.01440827               29.71619805                0.72178548                0.31621186                0.30337136               -1.08068942                0.14416610                1.63005550               -0.99458509
               7.13849876               10.77763710               29.43131993                0.49732927                2.94912192                0.57735716               -1.97136871               -2.99461508               29.35475145               -2.08944402
               8.19297257               10.47725878               29.68144105                0.44413953                4.00924744               -0.70804826               -1.34845119               -2.50468975               55.52613059               -0.56479346
               9.21868371               10.18362328               29.90707574                0.43406482                1.51876754               -0.10174118               -0.84549991               -1.37671805               54.54730903               -0.01228117
              10.22334792                9.88677137               30.12933067                0.44911238               -0.55105041                0.31445375               -0.40813183               -1.43955245               55.19144685                0.49922698
              11.20766271                9.58859379               30.36222574                0.48794585               -2.97247682                0.86008488               -0.00634420               -2.20857156               57.52261044                1.21194994
              12.16389839                9.28620831               30.62734449                0.55796732               -4.16899412                0.91282070                0.40726762               -3.31475056               43.17462966                2.95389272
              13.12428282                9.01068885               30.57133351                0.67121028               -2.24062365               -0.48247990                1.80122282               -2.36295718               14.94430456                1.86655330
              14.11908592                8.78556415               30.27723127                0.85327264               -0.30354547               -0.21598374                0.81640457                0.07413343                1.89616901                0.97050408
              15.11821191                8.56367882               29.96049149                0.99992420               -0.08740021                0.16376838               -0.29640563                0.13349472                0.76844191               -1.25231412
               2.79096336                1.36609126               31.68534572                1.00000000               -0.58010482               -0.63511367                2.17085309               -0.11073975               -1.45374090                1.47448212
               3.78516231                1.08670367               31.50411251                0.99931359               -0.52128382               -0.45634510                1.64550869               -0.07052589               -1.54620127               -0.17939484
               4.78053768                0.80629194               31.32118698                0.66702985               -0.53105182               -0.26809442                1.07650271               -0.24350204               -1.18791110               -1.10802814
               5.77454128                0.52058577               31.14743065                0.51587962               -0.65521262               -0.14820585                0.54309847               -0.36770334                0.70010021               -0.13935520
               6.76743343                0.22310131               31.00346162                0.45586319               -0.56046550                0.00642562               -0.00410482               -0.33759158                3.43490832               -0.12804214
               7.76333197               -0.08745795               30.88635915                0.45950971               -0.04243376                0.16298918               -0.59509996               -0.19957722                4.67649956                0.02486172
               8.76658476               -0.40261014               30.76894903                0.51950763                0.56297165                0.32074983               -1.17212142               -0.22974824                3.32210456                0.15578447
               9.77459140               -0.71209313               30.62500469                0.64625849                0.83671535                0.47183887               -1.70275723               -0.26277387                0.78538774                0.23618669
              10.78331906               -1.01339443               30.45598931                0.86574081                0.85811415                0.60393471               -2.21035972               -0.18146077               -1.15514346                0.53338479
              11.79175368               -1.30934248               30.27223541                1.00000000                0.88273418                0.73903703               -2.75453923               -0.07603757               -1.54492168                0.82828100
              12.80097375               -1.60338230               30.09471279                1.00000000                0.92200651                0.93795799               -3.26052295               -0.13622522               -1.21013436               -1.35189415
               3.06924355                2.35974013               31.61630247                1.00000000               -0.48868366               -0.61158851                1.93598979               -0.03730884                0.10096899                1.83478099
               4.06435672                2.08214022               31.43457765                0.80683731               -0.40409687               -0.41232249                1.39748867               -0.00056366                0.38165505               -0.52857001
               5.06116162                1.80361099               31.25851314                0.20632998               -0.09485803               -0.20199927                0.90863557               -0.25468547                2.11243317               -2.32284308
               6.06245956                1.51910371               31.11136609                0.00540835                0.34588794               -0.12178697                0.44916352               -0.83462882                4.69835101               -2.20908553
               7.06807937                1.22316557               30.98609402                0.00967674                0.58661803               -0.50917714               -0.03525700               -1.42332954                7.38029470                0.59185135
               8.07419192                0.91417194               30.89095474                0.01315535                0.42627453               -0.25248064               -0.55839179               -1.73727242                8.96489814                1.00782863
               9.07660486                0.60059736               30.79608567                0.01108565                0.15819451                0.08138528               -1.06232537               -1.49838493                7.59645746                1.22542381
              10.07735581                0.29262526               30.67361810                0.17845315                0.17621320                0.25940932               -1.51275799               -0.82245564                4.98015611                2.76944497
              11.08012913               -0.00735508               30.52724143                0.50476995                0.43157169                0.45576748               -1.95065897               -0.31723223                2.97817559                2.53236221
              12.08598724               -0.30195211               30.36539409                1.00000000                0.67610926                0.65454065               -2.34592535               -0.05609691                1.26318305                1.30956044
              13.09365131               -0.59400272               30.18473019                1.00000000                0.76640738                0.89321324               -2.83125468               -0.06458011                0.34038024               -1.45063255
               3.34541699                3.35385949               31.55456187                1.00000000               -0.41368198               -0.55730443                1.70967513               -0.05178605                0.22738665                2.07061442
               4.34128017                3.07845722               31.35811799                0.59894462               -0.34682532               -0.30996419                1.09511480               -0.01707592                0.71992791               -1.15038858
               5.33848049                2.80225195               31.17153408                0.06812443               -0.14930234               -0.03825444                0.57356559               -0.38611869                3.65552422               -4.43226847
               6.33829413                2.51815003               31.03387636                0.00010000                0.27090609               -0.47516115                0.28293810               -1.78038270               10.47006569               -1.52586999
               7.34389861                2.21291777               30.98298630                0.00010000                0.64302976               -0.83015098               -0.11933311               -2.85393174               14.05153018                0.87345268
               8.35115472                1.90749244               30.91499181                0.00010000                0.71325676               -0.69046316               -0.51066622               -2.99168747               13.15963972                2.03383660
               9.35816374                1.59901757               30.84437246                0.00010000                0.74700046               -0.37644369               -0.88761183               -2.74036016               13.03774314                2.93886172
              10.36609473                1.29309506               30.77263709                0.05415866                0.66940206               -0.25434130               -1.22236771               -1.79998238                9.90149487                4.70550400
              11.37155178                0.99572092               30.63819704                0.26193836                0.55923246               -0.30355652               -1.49210261               -0.74547965                4.98498324                6.71572413
              12.37727938                0.70374833               30.46788835                0.62601756                0.61157903                0.33622482               -1.89118338               -0.26136276                1.93241587                2.35943685
              13.38378336                0.41448197               30.27224929                0.96986866                0.65039853                0.93843299               -2.47516069               -0.21490131                0.68522523               -1.45639618
               3.61901237                4.34859404               31.49034010                1.00000000               -0.33896320               -0.48861900                1.47214405               -0.04832086                0.03529137                1.84917939
               4.61562274                4.07594094               31.27609781                0.55849895               -0.26329682               -0.20500062                0.80117642                0.00552068                0.26405787               -1.41453329
               5.61374644                3.80284590               31.06641819                0.04809513                0.02816731                0.10732964                0.16151054               -0.92764228                8.24057055               -5.03411778
               6.61618609                3.50960049               31.01176514                0.00010000                0.39559477               -0.63787868                0.08530552               -2.22223151               16.86758351               -0.12563750
               7.62165833                3.20656255               30.97318178                0.00010000                0.60361392               -0.58885193               -0.21361511               -2.86217024               18.09360972                0.62521085
               8.62825836                2.90036268               30.94102051                0.00010000                0.72683571               -0.69086459               -0.48962915               -3.08171995               18.34156954                2.19921617
               9.63619504                2.59306849               30.90525620                0.00010000                0.81972219               -0.68281762               -0.75500487               -2.97301153               17.80622622                3.75623388
              10.64465281                2.28753843               30.86019072                0.05813146                0.91856059               -0.75916398               -1.00942463               -2.52643072               16.33355159                5.14713378
              11.65456626                1.98657379               30.79323018                0.25628987                0.86730652               -0.90197795               -0.92980637               -1.10789325                8.11417708                7.64337061
              12.66199894                1.70477239               30.58180185                0.58516863                0.66598836                0.07385176               -1.56292577               -0.07569132                0.47962602                2.63057271
              13.66788602                1.42476594               30.36152266                0.93126754                0.58870852                1.00630306               -2.25599530               -0.07078420                0.04843207               -1.30253969
               3.88975677                5.34408711               31.42426703                1.00000000               -0.26180544               -0.41317786                1.23612087               -0.04762076                0.02280263                1.73300333
               4.88713872                5.07435721               31.19417194                0.53483491               -0.17443417               -0.11460696                0.51201060                0.01786113                0.16070581               -1.40346060
               5.88626809                4.80439854               30.96679413                0.03747871                0.14970663                0.19893618               -0.19196714               -1.34865233               11.51122904               -4.61740104
               6.89013285                4.50539246               30.96373146                0.00010000                0.48124597               -0.27402395               -0.18621568               -2.91878735               23.09318546               -1.62694683
               7.89589301                4.20114073               30.96615995                0.00010000                0.64407635               -0.46775232               -0.33086048               -3.31686736               23.52503383                0.57403145
               8.90301438                3.89367515               30.96932398                0.00010000                0.78173750               -0.65626801               -0.49232590               -3.49599808               23.59966473                2.34740418
               9.91152776                3.58536122               30.97051713                0.00010000                0.95232184               -0.83618473               -0.65822153               -3.46151815               23.43714294                4.17071250
              10.92206082                3.27791178               30.96757528                0.06556541                1.03161009               -1.04745908               -0.81997026               -2.96569289               21.36933969                6.26650171
              11.93215996                2.97768136               30.92449072                0.26641685                0.77562909               -0.81297214               -0.50813250               -1.31136784                9.92073650                5.87498683
              12.93757340                2.70522537               30.68982695                0.59768682                0.51103059                0.04988068               -1.22649651               -0.02712971                0.18556688                2.10251277
              13.94238057                2.43460803               30.45145330                0.93879965                0.48071756                0.91288332               -1.99072472               -0.03792676                0.01090172               -1.39475064
               4.15751976                6.34033048               31.35781050                1.00000000               -0.18512298               -0.33955043                1.00242649               -0.04698843                0.02023248                1.69762853
               5.15566853                6.07364880               31.11213609                0.51376748               -0.08908088               -0.02836938                0.22731378                0.02214364                0.16954995               -1.39438875
               6.15573814                5.80682463               30.86938581                0.02875673                0.26998115                0.28749979               -0.52740408               -1.68614747               14.58503871               -4.44827747
               7.16106815                5.50412001               30.91202078                0.00010000                0.56500745               -0.01161414               -0.44079583               -3.53916192               29.04023700               -1.86210336
               8.16703829                5.19720750               30.95612120                0.00010000                0.65248797               -0.29897884               -0.46195337               -3.88593608               29.20765047                0.35049585
               9.17411791                4.88723732               30.99927536                0.00010000                0.78448800               -0.60689787               -0.51127892               -4.11736197               29.23061679                2.41171135
              10.18272805                4.57634479               31.04056421                0.00010000                0.94504461               -0.91161880               -0.58281848               -4.16061512               29.14383137                4.47154401
              11.19301881                4.26658925               31.07839700                0.07320616                0.91486264               -1.14625852               -0.67585051               -3.53448158               25.63261310                6.57985585
              12.20102531                3.97031434               31.04575403                0.27757548                0.57554357               -0.68833664               -0.09973333               -1.52644265               11.28800910                5.11075183
              13.20452968                3.70577000               30.79364632                0.61247362                0.36684336                0.04302814               -0.88566497               -0.03151549                0.17121158                1.72669944
              14.20836217                3.44302361               30.53817318                0.94796318                0.38324950                0.77010186               -1.72037020               -0.03702409                0.01213395               -1.64311667
               4.42218037                7.33729610               31.29113241                1.00000000               -0.10929229               -0.26852786                0.77254622               -0.04544474                0.02112389                1.67286298
               5.42108745                7.07378982               31.03011288                0.49425547               -0.00532184                0.05471204               -0.05165303                0.02321848                0.19556010               -1.37575754
               6.42207393                6.81014854               30.77249811                0.02064998                0.39396477                0.37531845               -0.85262304               -1.96062021               17.58889904               -4.37072458
               7.42896674                6.50516017               30.85933606                0.00010000                0.64915227                0.21658877               -0.68343038               -4.08620351               34.90270712               -1.92305007
               8.43505698                6.19516115               30.94525006                0.00010000                0.62815525               -0.10162796               -0.59009431               -4.48255908               34.95656554                0.25869565
               9.44152985                5.88153719               31.02985831                0.00010000                0.69532748               -0.50215388               -0.53504381               -4.78419298               35.01203219                2.37669230
              10.44896353                5.56712884               31.11307518                0.00010000                0.79358938               -0.88843296               -0.51678383               -4.89074869               35.00722814                4.58266131
              11.45740163                5.25498661               31.19341898                0.08106942                0.67434150               -1.14586291               -0.54176514               -4.00286983               29.54418385                6.95594176
              12.46245036                4.96391463               31.16306682                0.28912953                0.34160955               -0.61158222                0.30590876               -1.61730267               12.25068600                4.74567285
              13.46423383                4.70608593               30.89453405                0.62782909                0.23412615                0.00979813               -0.54575679               -0.03394582                0.18382269                1.47415001
              14.46713288                4.45001007               30.62245878                0.95732970                0.28990550                0.62894636               -1.44922801               -0.03816594                0.01512332               -1.81108471
               4.68362343                8.33495992               31.22429897                1.00000000               -0.03429633               -0.19995493                0.54368871               -0.04479302                0.02058619                1.64630235
               5.68328047                8.07474304               30.94814606                0.47606562                0.07659803                0.13366199               -0.32013566                0.01959284                0.22454448               -1.34757924
               6.68515539                7.81433100               30.67597975                0.01288556                0.55255034                0.45632764               -1.17018424               -2.17345313               20.54961947               -4.29432014
               7.69433147                7.50845178               30.80628201                0.00010000                0.79273527                0.41681748               -0.91059493               -4.46403403               40.71008360               -1.89767144
               8.70101009                7.19517494               30.93387921                0.00010000                0.60674462                0.07855167               -0.70856559               -4.90749207               40.70587406                0.18397456
               9.70646636                6.87719424               31.06015324                0.00010000                0.52267839               -0.33490609               -0.55298364               -5.24595240               40.87413062                2.19569281
              10.71146366                6.55857613               31.18675758                0.00010000                0.48546287               -0.75684349               -0.44399287               -5.46210035               41.11615520                4.46494222
              11.71617562                6.24367199               31.31325311                0.08915942                0.30581309               -1.06442067               -0.39196240               -4.35299523               33.26116733                7.25491675
              12.71757992                5.95808270               31.27806973                0.30100740                0.07898512               -0.56748384                0.70956052               -1.64233635               12.84230745                4.50935479
              13.71775532                5.70596596               30.99355220                0.64369009                0.10853322               -0.04077968               -0.20685337               -0.03751812                0.19957764                1.32529612
              14.71975059                5.45560254               30.70523627                0.96685446                0.19952643                0.49160138               -1.17759373               -0.03972781                0.01746370               -1.89182034
               4.94171828                9.33329701               31.15723712                0.98708153                0.03899541               -0.13091737                0.32344009               -0.04428970                0.04022246                1.63475229
               5.94210823                9.07646306               30.86638059                0.45906588                0.15889248                0.20799251               -0.58348563                0.01062368                0.26825229               -1.34022090
               6.94489613                8.81927509               30.57999111                0.00533505                0.83669432                0.52524123               -1.48334565               -2.34404546               23.51583876               -4.09471054
               7.95884212                8.51349652               30.75389612                0.00010000                1.16342763                0.44810501               -1.11830007               -4.56601575               46.46821727               -1.65626559
               8.96816468                8.19673219               30.92197796                0.00010000                0.71837441                0.08757740               -0.81084201               -4.72115901               46.33102705                0.11888748
               9.97320960                7.87483907               31.08818182                0.00010000                0.25395461               -0.09098997               -0.55799619               -5.00455627               46.69285234                1.75388819
              10.97324377                7.55199197               31.25836026                0.00010000               -0.11872204               -0.35860945               -0.35463003               -5.50050615               47.48977268                3.79499729
              11.97083516                7.23369819               31.43572979                0.09753677               -0.29670565               -0.77200913               -0.20691807               -4.64078368               36.99600775                6.99607747
              12.96730966                6.95256495               31.39140535                0.31318592               -0.24357681               -0.54263618                1.11074178               -1.68659483               13.22656740                4.19055452
              13.96596363                6.70527034               31.09160406                0.66009695               -0.01222373               -0.10388096                0.13243285               -0.04593561                0.24226005                1.29006101
              14.96706518                6.45984209               30.78742342                0.97653814                0.11015551                0.35874713               -0.90375287               -0.04174973                0.03052267               -1.90703346
               5.19640552               10.33234158               31.09029583                0.97346355                0.11093319               -0.05752081                0.11247643               -0.04226936                0.00261087                1.42193990
               6.19751485               10.07890289               30.78430695                0.44275732                0.24177500                0.27884260               -0.85598293                0.00086884                0.43771350               -1.19661487
               7.20124102                9.82483582               30.48690930                0.00122454                1.40196062                0.57535004               -1.78569335               -2.60174147               26.68262106               -3.04999193
               8.22555406                9.51741388               30.70551997                0.00010000                2.20016747               -0.23715383               -1.29603345               -3.56184073               52.10505969               -0.95527021
               9.24524437                9.19692649               30.90994213                0.00010000                1.27806942               -0.08910558               -0.88908246               -3.23360827               51.57947107                0.05679193
              10.25111545                8.87537444               31.11075619                0.00010000               -0.13249774                0.15523209               -0.54744602               -3.27950594               52.11478410                0.98742519
              11.24259441                8.55140395               31.31992856                0.00010000               -1.41642425                0.38965871               -0.25255788               -4.04579899               53.89720867                2.25315823
              12.22278697                8.22823181               31.55168230                0.10633170               -1.51592673                0.23026485                0.01280500               -3.90804576               41.04627084                4.78005668
              13.21227588                7.94722998               31.50051183                0.32567722               -0.66137485               -0.50706800                1.49780751               -1.85697574               13.93394570                2.95486738
              14.20955947                7.70388835               31.18997474                0.67699153               -0.12518967               -0.17630845                0.47597045               -0.06111710                0.47294311                1.15712832
              15.20977209                7.46277748               30.86950943                0.98618700                0.02126157                0.23368673               -0.62686408               -0.04612865               -0.01692101               -1.60702460
               5.44775026               11.33214659               31.01901394                0.98265074                0.18811010               -0.01949866               -0.11677006                0.12380660                0.68693056                1.20515467
               6.44963136               11.08203991               30.70520752                0.71683079                0.33000207                0.31370249               -1.11771039                0.14342616                1.69034931               -1.03684180
               7.45435030               10.83078209               30.41133987                0.49663411                3.29416362                0.59462724               -2.02937848               -3.35339526               30.21575552               -2.15657832
               8.51551463               10.50875345               30.66761692                0.44440268                4.55908260               -0.86604380               -1.41983770               -2.79554401               57.12628695               -0.59504414
               9.54553195               10.19495007               30.89818261                0.43423074                1.88136974               -0.19764151               -0.93534650               -1.51172841               56.08322254               -0.02984328
              10.55314203                9.87794371               31.12468910                0.44889693               -0.30307650                0.25692665               -0.52150139               -1.55558880               56.69906407                0.49337463
              11.53947042                9.55978515               31.36142991                0.48714191               -2.81469056                0.83812000               -0.15351849               -2.29441009               59.03661793                1.22324259
              12.49684822                9.23830349               31.63041628                0.55620668               -4.24784089                1.00716797                0.20519078               -3.46195270               45.27601185                3.00976030
              13.45451361                8.94242359               31.58936380                0.66718115               -2.38272168               -0.48063846                1.80466406               -2.60419333               16.35404466                1.94430730
              14.44919378                8.70174417               31.28536545                0.84426646               -0.30746307               -0.21441751                0.80982933                0.06804310                1.99585239                1.00994886
              15.44836434                8.46451583               30.95740271                0.99625690               -0.08294394                0.17383497               -0.32337064                0.13639153                0.80252680               -1.30586587
               2.96011699                1.45125528               32.70714114                1.00000000               -0.58763573               -0.64081119                2.18941695               -0.11147014               -1.48461663                1.51435057
               3.95424064                1.15551115               32.52065728                0.98981972               -0.53244298               -0.45879469                1.66254285               -0.07094627               -1.60018291               -0.21637505
               4.94946813                0.85864775               32.33201266                0.66340514               -0.56914615               -0.26703819                1.08734048               -0.27103760               -1.24798611               -1.12318252
               5.94285771                0.55570092               32.15287128                0.51502448               -0.73583971               -0.14672161                0.54608496               -0.40971214                0.64819897               -0.14353936
               6.93475134                0.23931482               32.00338682                0.45578753               -0.65533153                0.01395842               -0.00946541               -0.37577679                3.35237831               -0.13289227
               7.92975108               -0.09199777               31.88033438                0.45914384               -0.09638146                0.17487445               -0.60808766               -0.21976874                4.57388771                0.02443815
               8.93282371               -0.42872849               31.75710838                0.51815438                0.57321250                0.33378238               -1.19366836               -0.25151230                3.24010364                0.16012683
               9.94121533               -0.75927654               31.60781692                0.64286787                0.88018309                0.48592204               -1.73325821               -0.29097191                0.72865224                0.24301751
              10.95042737               -1.08065540               31.43365163                0.85859072                0.89998661                0.61813422               -2.25615405               -0.21094516               -1.22042979                0.53508636
              11.95921507               -1.39599966               31.24444019                1.00000000                0.91181817                0.75976850               -2.81080864               -0.09280968               -1.61064123                0.87574147
              12.96866374               -1.70916086               31.06178032                1.00000000                0.94486709                0.96731426               -3.33402934               -0.13562309               -1.25859383               -1.36844082
               3.25474641                2.44484716               32.63571685                1.00000000               -0.49114778               -0.61739726                1.94805724               -0.03814093                0.11774084                1.87782129
               4.24983494                2.15092321               32.44859517                0.78982468               -0.40417680               -0.41229936                1.40570098               -0.00251939                0.42395931               -0.59284112
               5.24666288                1.85597737               32.26764731                0.20105879               -0.07039385               -0.19478072                0.91768009               -0.29690287                2.19373177               -2.42387638
               6.24842706                1.55423370               32.11586708                0.00557468                0.40900195               -0.12898816                0.45104871               -0.95166073                4.78055409               -2.24814489
               7.25484292                1.23945440               31.98571136                0.00973643                0.65739961               -0.55153067               -0.04112995               -1.61514940                7.42697624                0.55888113
               8.26157505                0.90975097               31.88529200                0.01314157                0.45525267               -0.26718159               -0.57402859               -1.97357670                8.99692094                1.01276530
               9.26394797                0.57460933               31.78532702                0.01118441                0.13470091                0.10360980               -1.08972829               -1.71134930                7.66212513                1.26424074
              10.26426907                0.24558268               31.65829555                0.17370268                0.13657567                0.26340352               -1.55251748               -0.95533352                5.07883915                2.83022245
              11.26667948               -0.07447406               31.50752273                0.49412561                0.41353142                0.46041348               -1.99999186               -0.38508135                3.09622358                2.63999990
              12.27253970               -0.38840198               31.34151660                1.00000000                0.68946113                0.67710069               -2.43260484               -0.07914830                1.36032916                1.40020533
              13.28046871               -0.69948772               31.15598205                1.00000000                0.79290083                0.93062423               -2.92839195               -0.06701569                0.40958396               -1.50012037
               3.54720209                3.43890733               32.57168352                1.00000000               -0.41420449               -0.56300132                1.71520192               -0.05361315                0.22579254                2.11137066
               4.54306004                3.14726517               32.36905246                0.58483760               -0.34912514               -0.30389805                1.09188748               -0.02073448                0.76632635               -1.23654534
               5.54021959                2.85475214               32.17724327                0.06512129               -0.13562881               -0.01541275                0.56839332               -0.45708453                3.86832544               -4.65630368
               6.54034747                2.55312115               32.03673934                0.00010000                0.33557478               -0.51660298                0.28949977               -2.00258241               10.74130343               -1.62930777
               7.54693108                2.22828420               31.98171384                0.00010000                0.73885769               -0.90123140               -0.13560862               -3.19803312               14.26707449                0.81410286
               8.55512462                1.90265860               31.90976694                0.00010000                0.79169664               -0.73321353               -0.53492863               -3.37410431               13.39158652                2.03640043
               9.56276501                1.57334370               31.83535327                0.00010000                0.80337174               -0.37407697               -0.91764004               -3.12672728               13.29628507                2.99651759
              10.57119206                1.24599153               31.76022730                0.05127501                0.69726964               -0.24155487               -1.26067039               -2.08230691               10.21498423                4.78846711
              11.57671041                0.92855287               31.62318669                0.25501202                0.57268513               -0.34322539               -1.52498436               -0.83990492                5.26107267                6.97560426
              12.58264576                0.61754235               31.44864578                0.61012355                0.63922515                0.34900789               -1.97172450               -0.27707883                2.05319408                2.44215566
              13.58949491                0.30945162               31.24693043                0.95791929                0.68491511                0.98778944               -2.59303787               -0.22703216                0.72620534               -1.57472545
               3.83695848                4.43358714               32.50506240                1.00000000               -0.33830377               -0.49379088                1.47233688               -0.04923756                0.03452880                1.88445022
               4.83357544                4.14484525               32.28406173                0.54532980               -0.26466377               -0.19384324                0.79124545                0.00636190                0.27935348               -1.49151671
               5.83166520                3.85566912               32.06794109                0.04545047                0.06339520                0.14034117                0.14251487               -1.04720956                8.55218910               -5.26143192
               6.83484334                3.54390164               32.01247418                0.00010000                0.48398049               -0.68015065                0.05545242               -2.47770909               17.35598414               -0.27455084
               7.84134481                3.22142977               31.97090887                0.00010000                0.70950615               -0.63231428               -0.24190356               -3.18571601               18.48683373                0.55310723
               8.84903347                2.89508670               31.93596330                0.00010000                0.83678373               -0.73577990               -0.52287957               -3.44363848               18.75544322                2.18243727
               9.85808049                2.56712779               31.89753754                0.00010000                0.91901509               -0.71640872               -0.79001261               -3.32864793               18.23766474                3.78087949
              10.86741377                2.24075159               31.84996208                0.05522721                1.01250399               -0.76252378               -1.03921290               -2.85604871               16.94362474                5.19119447
              11.87833057                1.91866143               31.78384260                0.24954417                0.93427986               -0.97670489               -0.95507769               -1.24204156                8.54079218                7.89476472
              12.88609937                1.61857818               31.56607945                0.56987696                0.68894786                0.06420725               -1.59432961               -0.06435797                0.51794507                2.65822674
              13.89210952                1.32026807               31.33874455                0.91990415                0.60101580                1.05131421               -2.31444855               -0.07159866                0.05299330               -1.42958376
               4.12370112                5.42903151               32.43661377                1.00000000               -0.25958147               -0.41854989                1.23244082               -0.04855343                0.02290568                1.76933405
               5.12110530                5.14338830               32.19921787                0.52208423               -0.17410591               -0.10073210                0.49658387                0.02036585                0.17147800               -1.47338056
               6.12021900                4.85755896               31.96474659                0.03496192                0.19636611                0.23298503               -0.21847063               -1.50058934               11.88566375               -4.80028507
               7.12503263                4.53951814               31.96166944                0.00010000                0.59063498               -0.28300440               -0.22732662               -3.23669476               23.75653653               -1.79001747
               8.13203170                4.21563792               31.96264682                0.00010000                0.77606040               -0.50100062               -0.37302322               -3.67248000               24.11525011                0.48819262
               9.14055383                3.88794300               31.96418775                0.00010000                0.92477349               -0.70323685               -0.53599560               -3.87077413               24.18789769                2.31377372
              10.15052717                3.55901553               31.96372985                0.00010000                1.09918041               -0.88623675               -0.70006088               -3.82959756               24.03560537                4.17014862
              11.16253744                3.23074106               31.95922158                0.06251164                1.17579051               -1.09896042               -0.85140971               -3.32739395               22.21633788                6.27927394
              12.17404298                2.90901877               31.91935294                0.25943361                0.86072593               -0.88336404               -0.52376852               -1.49026441               10.49427414                6.05649899
              13.17975196                2.61882650               31.67746482                0.58210396                0.53200903                0.03075394               -1.25020972               -0.02209483                0.21188177                2.13391187
              14.18468316                2.33047791               31.43132293                0.92721143                0.49311998                0.94905385               -2.04005222               -0.03384657                0.01180336               -1.50216980
               4.40727383                6.42521614               32.36780620                1.00000000               -0.18185205               -0.34550065                0.99648161               -0.04712030                0.02088891                1.73670933
               5.40545531                6.14283060               32.11431706                0.50149432               -0.08751258               -0.01289685                0.20747309                0.02455950                0.18115686               -1.45668498
               6.40552358                5.86032882               31.86395585                0.02640358                0.32875904                0.32195462               -0.55943505               -1.86698153               15.02575122               -4.61242545
               7.41203049                5.53824155               31.90737665                0.00010000                0.69733880               -0.00829611               -0.48950853               -3.90694153               29.86088783               -2.00575569
               8.41947035                5.21140976               31.95124229                0.00010000                0.81049423               -0.32612053               -0.51519237               -4.28083154               29.97527711                0.26269146
               9.42824037                4.88102196               31.99388714                0.00010000                0.96100604               -0.65700597               -0.56725197               -4.52382855               29.98586970                2.36890221
              10.43869048                4.54940306               32.03446451                0.00010000                1.13111378               -0.97635092               -0.63711445               -4.55564491               29.89017789                4.45632923
              11.45086265                4.21877238               32.07141172                0.07001541                1.08746819               -1.21470109               -0.71950242               -3.93245834               26.71766164                6.56636031
              12.46043984                3.90099415               32.04470489                0.27036047                0.66678405               -0.74722020               -0.11248443               -1.73570112               12.03332411                5.28593860
              13.46419833                3.61919326               31.78469586                0.59653305                0.38449678                0.02819242               -0.90706412               -0.03033568                0.19872550                1.76456861
              14.46812977                3.33924915               31.52076987                0.93612018                0.39314434                0.80319861               -1.76438136               -0.03458531                0.01341658               -1.74230442
               4.68752978                7.42212150               32.29882712                1.00000000               -0.10459646               -0.27563931                0.76217015               -0.04675314                0.01947490                1.71227322
               5.68648382                7.14313037               32.02948674                0.48246423               -0.00306802                0.07067111               -0.07203560                0.02237338                0.20680189               -1.42615401
               6.68746842                6.86399805               31.76379826                0.01847894                0.46645155                0.40842341               -0.88975697               -2.16829900               18.09618031               -4.52468949
               7.69581285                6.53935222               31.85223302                0.00010000                0.80831176                0.22515964               -0.73898848               -4.49854252               35.87524219               -2.05188415
               8.70363466                6.20911551               31.93903562                0.00010000                0.81355597               -0.12602665               -0.65428645               -4.91635297               35.89113464                0.17765698
               9.71208397                5.87480288               32.02415918                0.00010000                0.90146002               -0.55516583               -0.60544067               -5.22239394               35.92521142                2.33391859
              10.72166386                5.53948851               32.10753973                0.00010000                1.01066068               -0.95972544               -0.58956295               -5.31215303               35.89506146                4.56503436
              11.73229718                5.20644704               32.18764464                0.07775256                0.86221088               -1.21853655               -0.60966043               -4.41820603               30.87081654                6.94476723
              12.73890808                4.89407436               32.16607892                0.28167352                0.42965348               -0.65643393                0.29485134               -1.83973944               13.17437302                4.92000476
              13.74089025                4.61939035               31.88898548                0.61149107                0.24858036                0.00054253               -0.56579945               -0.03547631                0.21291880                1.51362144
              14.74387968                4.34654188               31.60777658                0.94522985                0.29894311                0.65693388               -1.49040914               -0.03633689                0.01673958               -1.90713646
               4.96432104                8.41970335               32.22967775                0.99034625               -0.02948120               -0.20679171                0.53702274               -0.04526131                0.03043128                1.69359149
               5.96402622                8.14424403               31.94485502                0.46474119                0.08073553                0.14777426               -0.34170348                0.01451050                0.23653605               -1.39264964
               6.96593575                7.86849728               31.66406874                0.01090115                0.64579802                0.48585854               -1.21490976               -2.40349850               21.12529053               -4.44398824
               7.97694218                7.54274475               31.79687319                0.00010000                0.98784440                0.42498053               -0.97350904               -4.90826406               41.83605383               -2.01051669
               8.98569263                7.20888923               31.92642455                0.00010000                0.82386550                0.04957589               -0.78401342               -5.36414723               41.80162427                0.11416014
               9.99341949                6.86991865               32.05419381                0.00010000                0.75553110               -0.39090864               -0.63947098               -5.69300602               41.94193287                2.16035041
              11.00080326                6.53020855               32.18182983                0.00010000                0.72465908               -0.82604088               -0.54040659               -5.88815673               42.14771207                4.45691631
              12.00791268                6.19440165               32.30880031                0.08573588                0.49492420               -1.13373160               -0.49478637               -4.76241875               34.82606300                7.26717385
              13.01070174                5.88786547               32.28512885                0.29332819                0.15543076               -0.59850381                0.70098998               -1.86431960               13.93746680                4.68238968
              14.01102129                5.61920411               31.99139940                0.62693775                0.11991155               -0.04535716               -0.22521274               -0.04027622                0.23009776                1.36639904
              15.01309997                5.35238782               31.69327817                0.95448992                0.20786805                0.51443637               -1.21682797               -0.03854520                0.01942394               -1.98411570
               5.23754321                9.41798567               32.16046676                0.97675972                0.04368882               -0.13332386                0.32638148               -0.04328082                0.04881242                1.69589708
               6.23798010                9.14608585               31.86040878                0.44825006                0.16772622                0.21856531               -0.61526876                0.00622338                0.28137200               -1.39360875
               7.24089773                8.87371522               31.56490859                0.00354768                0.96377623                0.55088212               -1.53657465               -2.59300969               24.17190800               -4.23838594
               8.25725562                8.54785183               31.74237322                0.00010000                1.41400382                0.43841592               -1.18910253               -5.02347263               47.75439542               -1.74718663
               9.26917781                8.21010703               31.91344930                0.00010000                0.98244535                0.03413309               -0.89672875               -5.14996834               47.58502205                0.06585547
              10.27690453                7.86698471               32.08209507                0.00010000                0.51199568               -0.15252928               -0.66001217               -5.40104376               47.91526740                1.72991539
              11.27941772                7.52296769               32.25420097                0.00010000                0.12436770               -0.41110445               -0.47635480               -5.87653043               48.67496753                3.80012866
              12.27939188                7.18377240               32.43291480                0.09401565               -0.12992522               -0.82034530               -0.35277687               -5.01702553               38.79212252                7.04135089
              13.27681922                6.88210429               32.40249158                0.30528889               -0.19147540               -0.56064648                1.10553502               -1.90070707               14.47686203                4.35577130
              14.27556238                6.61848320               32.09285511                0.64287344               -0.00389332               -0.10494673                0.11646076               -0.04970736                0.27532302                1.33504277
              15.27674135                6.35683061               31.77821180                0.96388983                0.11789778                0.37667659               -0.94116852               -0.04106734                0.03330638               -1.99454001
               5.50725505               10.41703688               32.09142710                0.96347097                0.11660844               -0.05726986                0.11305850               -0.04301541               -0.00025370                1.47605933
               6.50842113               10.14861533               31.77555645                0.43244314                0.25272632                0.28922298               -0.89311670               -0.00154277                0.45906214               -1.24709323
               7.51230958                9.87951493               31.46876067                0.00122809                1.58298977                0.59645817               -1.84861810               -2.87977649               27.44052516               -3.15846574
               8.54008093                9.55151306               31.69218919                0.00010000                2.56254076               -0.33439092               -1.37306509               -3.92715405               53.55943413               -1.00759340
               9.56356039                9.20957189               31.90059594                0.00010000                1.62285118               -0.17807838               -0.98222760               -3.52734156               52.98646989                0.02670093
              10.57253795                8.86686806               32.10472028                0.00010000                0.14622793                0.08941722               -0.66058858               -3.52040273               53.48717378                0.97528533
              11.56648495                8.52198646               32.31669297                0.00010000               -1.20511914                0.35441243               -0.39421459               -4.28115816               55.24670677                2.26274875
              12.54843557                8.17799474               32.55086490                0.10275393               -1.42540743                0.25815759               -0.17500971               -4.16205337               43.06398324                4.83181827
              13.53797680                7.87665254               32.51548893                0.31760772               -0.65673718               -0.51166183                1.49691725               -2.06471166               15.32283984                3.07302960
              14.53530083                7.61710518               32.19467752                0.65929500               -0.11964912               -0.17507472                0.46339961               -0.06647562                0.51607780                1.20070727
              15.53558382                7.35992136               31.86307764                0.97321986                0.02829920                0.24721663               -0.66201481               -0.04605373               -0.01571112               -1.67746897
               5.77352599               11.41684027               32.01782705                0.97775690                0.19452048               -0.01966076               -0.11894195                0.13009803                0.70925256                1.24768503
               6.77547119               11.15187031               31.69384384                0.71181755                0.34392432                0.32549774               -1.15723360                0.14521182                1.75933478               -1.07811687
               7.78040447               10.88564439               31.39073236                0.49590933                3.65921921                0.61294612               -2.09530596               -3.72582520               31.09616226               -2.23354020
               8.84865558               10.54116401               31.65304430                0.44463844                5.14357534               -1.03490538               -1.49798627               -3.09748167               58.74256302               -0.62924359
               9.88327598               10.20654546               31.88836881                0.43439065                2.27131651               -0.30264320               -1.02961938               -1.64798899               57.62684676               -0.05111528
              10.89408191                9.86877305               32.11890064                0.44869088               -0.03040495                0.19049879               -0.63717854               -1.67008046               58.20429956                0.48242546
              11.88266788                9.53005594               32.35915537                0.48631619               -2.62985869                0.80694825               -0.30124920               -2.37358145               60.52922892                1.22554572
              12.84148473                9.18893556               32.63144831                0.55440533               -4.31266653                1.09408150                0.00118080               -3.60432817               47.47310337                3.04585357
              13.79641455                8.87187105               32.60742679                0.66309609               -2.52603417               -0.47814902                1.80722144               -2.85391734               17.88477650                2.02315418
              14.79096405                8.61498171               32.29342785                0.83527146               -0.31133156               -0.21234679                0.80156440                0.06151666                2.10207495                1.04959800
              15.79018792                8.36177494               31.95402408                0.98967154               -0.07761295                0.18535833               -0.35481817                0.13973321                0.83773257               -1.36105677
               3.13423876                1.53922687               33.72913406                1.00000000               -0.59516226               -0.64726912                2.20992092               -0.11235063               -1.51368542                1.55366173
               4.12828713                1.22650039               33.53736337                0.98020287               -0.54374002               -0.46121742                1.67880219               -0.07156351               -1.65427278               -0.25686999
               5.12336396                0.91255899               33.34293379                0.65969877               -0.60780165               -0.26561306                1.09635625               -0.29881083               -1.31016390               -1.13652952
               6.11613110                0.59172340               33.15835235                0.51414486               -0.81730255               -0.14506433                0.54974318               -0.45068248                0.59497768               -0.14808274
               7.10701790                0.25579437               33.00327232                0.45570720               -0.75214731                0.02217994               -0.01342536               -0.41278332                3.27079990               -0.13747585
               8.10108815               -0.09688442               32.87419740                0.45881252               -0.15568105                0.18791099               -0.61945414               -0.23930938                4.47668715                0.02451770
               9.10390428               -0.45584487               32.74507566                0.51679729                0.57665226                0.34821569               -1.21359137               -0.27132764                3.16684234                0.16523776
              10.11262120               -0.80819003               32.59033952                0.63943426                0.91914574                0.50093595               -1.76450166               -0.31793460                0.68016105                0.25187993
              11.12228720               -1.15043491               32.41086623                0.85140717                0.93954826                0.63447704               -2.30430787               -0.23498705               -1.28077884                0.54062399
              12.13141216               -1.48598047               32.21601923                1.00000000                0.94172079                0.78268800               -2.87842947               -0.10374793               -1.67262791                0.91328161
              13.14112161               -1.81915457               32.02803221                1.00000000                0.97094494                0.99993353               -3.42177232               -0.13836026               -1.30276654               -1.39009765
               3.44584172                2.53275417               33.65526362                1.00000000               -0.49362880               -0.62427547                1.96191361               -0.03878565                0.13560116                1.92048083
               4.44090544                2.22188822               33.46269167                0.77268111               -0.40386909               -0.41203177                1.41354341               -0.00457509                0.47038299               -0.66250771
               5.43776434                1.90990286               33.27686674                0.19571799               -0.04494263               -0.18634448                0.92580294               -0.34096517                2.27837215               -2.52990358
               6.44000658                1.59027275               33.12038707                0.00573966                0.47148185               -0.13833130                0.45267691               -1.06840805                4.86202658               -2.28408393
               7.44719398                1.25601617               32.98527142                0.00979924                0.72540481               -0.58960276               -0.04691899               -1.80417339                7.47273656                0.52099468
               8.45451468                0.90499469               32.87947417                0.01313478                0.48249164               -0.27832176               -0.58964307               -2.20600121                9.02808964                1.01478939
               9.45684381                0.54763729               32.77429110                0.01130099                0.11110970                0.12911363               -1.11752260               -1.92252839                7.72989921                1.30550198
              10.45673687                0.19681933               32.64256775                0.16888319                0.09943667                0.26939522               -1.59415895               -1.08938136                5.18350226                2.89871940
              11.45883255               -0.14409014               32.48724159                0.48344775                0.39988182                0.46740278               -2.05888208               -0.44526780                3.21616887                2.76178392
              12.46473451               -0.47815359               32.31674199                1.00000000                0.70397802                0.70045373               -2.51964313               -0.09388644                1.45848193                1.48587397
              13.47291211               -0.80915523               32.12616235                1.00000000                0.81775958                0.96897602               -3.03288579               -0.06933558                0.47901788               -1.55322187
               3.75519496                3.52674136               33.58886591                1.00000000               -0.41480109               -0.57006914                1.72179520               -0.05503240                0.22313492                2.15226750
               4.75104695                3.21825976               33.37995574                0.57066328               -0.35174231               -0.29715122                1.08856028               -0.02417905                0.81540855               -1.32735863
               5.74816011                2.90883210               33.18290195                0.06208238               -0.11986607                0.01055422                0.56292327               -0.53447792                4.09418658               -4.89181774
               6.74864963                2.58895677               33.03966636                0.00010000                0.40261942               -0.55466902                0.29558154               -2.22491917               11.01519330               -1.74781948
               7.75621250                2.24400231               32.98027413                0.00010000                0.83486930               -0.96622312               -0.15315707               -3.53478613               14.47725727                0.74324026
               8.76534701                1.89754914               32.90429324                0.00010000                0.87082880               -0.77020407               -0.56098759               -3.75205152               13.62907217                2.03039895
               9.77362908                1.54673740               32.82601966                0.00010000                0.86069941               -0.36638901               -0.95067509               -3.51227619               13.56583619                3.05208594
              10.78256100                1.19719787               32.74742369                0.04830128                0.73628405               -0.22256412               -1.30639005               -2.36704456               10.55099394                4.88498416
              11.78835476                0.85891314               32.60769735                0.24800118                0.60192605               -0.38035150               -1.58062296               -0.93685431                5.55341434                7.26147984
              12.79459952                0.52802860               32.42845386                0.59415351                0.66917118                0.36357365               -2.06325718               -0.29834052                2.16722852                2.54499546
              13.80173818                0.20022495               32.22038854                0.94587259                0.71386603                1.04684991               -2.70809919               -0.24518612                0.75377350               -1.67463104
               4.06170428                4.52135279               33.51978684                1.00000000               -0.33731658               -0.50056843                1.47219665               -0.05017393                0.03358555                1.92082007
               5.05833111                4.21594519               33.29192272                0.53207556               -0.26632558               -0.18127451                0.78047553                0.00748285                0.29510230               -1.57026464
               6.05637777                3.91011394               33.06926848                0.04272350                0.10034355                0.17729943                0.12223658               -1.16980654                8.86410539               -5.49727938
               7.06033799                3.57917937               33.01287419                0.00010000                0.57640586               -0.71335686                0.02349050               -2.73542534               17.85085637               -0.44697930
               8.06790589                3.23669171               32.96834371                0.00010000                0.82002893               -0.67155729               -0.27241535               -3.50607863               18.89081948                0.46671740
               9.07673856                2.88959061               32.93056292                0.00010000                0.95218382               -0.77611817               -0.55879376               -3.80199540               19.18032315                2.15426628
              10.08694956                2.54030951               32.88945594                0.00010000                1.02408400               -0.74500900               -0.82845535               -3.68228000               18.68742686                3.79849639
              11.09722024                2.19236804               32.83940646                0.05224006                1.11575829               -0.75751319               -1.07481483               -3.19016015               17.57769027                5.23856983
              12.10926473                1.84830283               32.77412863                0.24268324                1.01178221               -1.04820477               -0.99464553               -1.39013592                8.99085229                8.15648632
              13.11745589                1.52911788               32.54991525                0.55465076                0.71754781                0.06292943               -1.64701777               -0.06397649                0.56665456                2.70767219
              14.12361568                1.21178177               32.31523369                0.90863705                0.61597961                1.11571790               -2.39299653               -0.07549887                0.05818220               -1.53692672
               4.36500668                5.51672999               33.44891584                1.00000000               -0.25712253               -0.42507386                1.22783143               -0.04899560                0.02348639                1.80896086
               5.36243546                5.21463427               33.20410362                0.50922438               -0.17384404               -0.08494811                0.47921641                0.02295042                0.18326264               -1.54386674
               6.36152980                4.91237809               32.96242472                0.03235620                0.24639499                0.27052567               -0.24669459               -1.65644087               12.25918110               -4.98763998
               7.36736336                4.57468963               32.95918493                0.00010000                0.70749477               -0.28690325               -0.27095011               -3.55727162               24.42536587               -1.96300393
               8.37567970                4.23057117               32.95869949                0.00010000                0.91629755               -0.53095868               -0.41806188               -4.02676965               24.71904976                0.38782071
               9.38568931                3.88202678               32.95860407                0.00010000                1.07631729               -0.74733348               -0.58237972               -4.24297125               24.79270277                2.26620447
              10.39720604                3.53183722               32.95651591                0.00010000                1.25375857               -0.93240039               -0.74427034               -4.19608545               24.65845594                4.15728522
              11.41076448                3.18204761               32.95054708                0.05937780                1.32980804               -1.14373236               -0.88523746               -3.69883834               23.09618418                6.28212300
              12.42380220                2.83794905               32.91401535                0.25233461                0.95382868               -0.94978422               -0.55008902               -1.68087479               11.09624714                6.23798301
              13.42984105                2.52928719               32.66482276                0.56651357                0.55491165                0.02114182               -1.28449070               -0.02132052                0.24972666                2.16378937
              14.43490044                2.22253931               32.41065225                0.91569590                0.50593840                0.99710500               -2.09924260               -0.03144779                0.01386481               -1.60660073
               4.66491581                6.51285131               33.37774013                1.00000000               -0.17737905               -0.35299828                0.98590673               -0.04831127                0.01942864                1.77689367
               5.66314202                6.21424623               33.11628555                0.48911224               -0.08611163                0.00472593                0.18697758                0.02450169                0.19218696               -1.51536015
               6.66319358                5.91552446               32.85819711                0.02398024                0.39287236                0.35818858               -0.59386554               -2.05417318               15.46547500               -4.78233780
               7.67099947                5.57344131               32.90223060                0.00010000                0.84198825               -0.00318436               -0.54144425               -4.27905266               30.68692579               -2.15855371
               8.68003335                5.22607253               32.94581735                0.00010000                0.98068077               -0.35195712               -0.57153572               -4.67617768               30.75712821                0.16113898
               9.69061309                4.87464394               32.98793032                0.00010000                1.14868398               -0.70589447               -0.62547659               -4.92851896               30.75972875                2.30966851
              10.70300703                4.52166150               33.02782192                0.00010000                1.32592830               -1.03865091               -0.69199828               -4.94886431               30.66341505                4.42216475
              11.71713165                4.16949340               33.06400696                0.06673633                1.27003105               -1.27771242               -0.76123280               -4.34200296               27.84342384                6.52973364
              12.72840765                3.82930714               33.04350434                0.26302250                0.76537793               -0.80291396               -0.13228554               -1.95789511               12.81154793                5.45652490
              13.73243921                3.52954072               32.77550503                0.58056643                0.40374208                0.01838136               -0.93491362               -0.03148925                0.23450523                1.79638386
              14.73648249                3.23172387               32.50288555                0.92433338                0.40432777                0.84098637               -1.81607660               -0.03243332                0.01502396               -1.84387594
               4.96125063                7.50967002               33.30637581                0.99367413               -0.09982769               -0.28295999                0.75426234               -0.04603945                0.02897630                1.76106072
               5.96025235                7.21472878               33.02867217                0.47053737                0.00003156                0.08608906               -0.09262124                0.01750043                0.21934152               -1.47667708
               6.96125126                6.91954186               32.75470297                0.01625094                0.54909378                0.44082192               -0.93178625               -2.38266939               18.60228506               -4.68843599
               7.97123422                6.57462595               32.84455629                0.00010000                0.98511281                0.23299703               -0.79848513               -4.91562840               36.85472675               -2.19113522
               8.98095351                6.22353203               32.93216433                0.00010000                1.01478692               -0.15140382               -0.72172005               -5.35142191               36.83966662                0.08213704
               9.99152996                5.86790889               33.01774950                0.00010000                1.12128917               -0.60892898               -0.67745238               -5.65905847               36.85629735                2.27249754
              11.00337930                5.51106420               33.10128392                0.00010000                1.23744058               -1.03041410               -0.66110450               -5.73055799               36.80731942                4.52259089
              12.01627877                5.15649336               33.18122577                0.07433993                1.06088410               -1.28740462               -0.67171726               -4.84536127               32.24813353                6.89857275
              13.02459698                4.82189077               33.16896385                0.27409972                0.52578833               -0.69946562                0.27878268               -2.07580089               14.14170680                5.09041023
              14.02679454                4.52965482               32.88321806                0.59513270                0.26442467               -0.00582010               -0.59040715               -0.03814869                0.24907608                1.54802135
              15.02988547                4.23935904               32.59265060                0.93319370                0.30909309                0.68805640               -1.53796428               -0.03462529                0.01865483               -2.00662270
               5.25387750                8.50719212               33.23503942                0.97958298               -0.02573068               -0.21022137                0.54246470               -0.04441734                0.04122946                1.76065791
               6.25362020                8.21596801               32.94131199                0.45334274                0.08827635                0.15803392               -0.37006229                0.00951327                0.24948161               -1.44782729
               7.25564303                7.92434089               32.65168156                0.00887785                0.75382694                0.51367927               -1.26550544               -2.63740890               21.70509673               -4.60644154
               8.26869674                7.57810125               32.78681183                0.00010000                1.20394673                0.43054219               -1.04119899               -5.35706734               42.97178872               -2.13532453
               9.27972196                7.22304446               32.91819894                0.00010000                1.06015025                0.01729417               -0.86283447               -5.82230673               42.91082819                0.02965453
              10.28989974                6.86246536               33.04736382                0.00010000                1.00447169               -0.44989950               -0.72712523               -6.13789609               43.02452153                2.10559860
              11.29981140                6.50105322               33.17594945                0.00010000                0.97490617               -0.89663957               -0.63417663               -6.30879811               43.19628711                4.42050392
              12.30939786                6.14374530               33.30335739                0.08220914                0.69593851               -1.20163672               -0.59010087               -5.18135782               36.45494568                7.23521707
              13.31373017                5.81531783               33.29208953                0.28553805                0.24050503               -0.62852342                0.68842293               -2.10056862               15.09424109                4.85362069
              14.31420796                5.52942432               32.98904794                0.61015400                0.13256871               -0.04808676               -0.24724333               -0.04387546                0.26698892                1.40395655
              15.31638154                5.24548499               32.68089971                0.94217739                0.21735789                0.53963893               -1.26179459               -0.03730996                0.02173472               -2.08036870
               5.54281049                9.50546560               33.16376475                0.96635416                0.04833483               -0.13448196                0.33152094               -0.04440108                0.04859976                1.76514951
               6.54329384                9.21788946               32.85407522                0.43734218                0.17796764                0.22789743               -0.64958451                0.00460897                0.29680162               -1.45281568
               7.54636984                8.92981544               32.54925962                0.00192892                1.10477397                0.57509248               -1.59730482               -2.84384601               24.83968694               -4.39686723
               8.56538932                8.58323679               32.73011407                0.00010000                1.68867150                0.42448468               -1.26522948               -5.48633954               49.05423626               -1.84985605
               9.58014327                8.22387791               32.90404339                0.00010000                1.26869837               -0.02517302               -0.98619222               -5.58025891               48.85233844               -0.00003948
              10.59076328                7.85891090               33.07498158                0.00010000                0.78900591               -0.21953903               -0.76309316               -5.79421699               49.14752668                1.68894997
              11.59592339                7.49313141               33.24883317                0.00010000                0.38118611               -0.46743475               -0.59539549               -6.24388706               49.86504720                3.77862835
              12.59838700                7.13246062               33.42867425                0.09040025                0.04916030               -0.87053170               -0.49096300               -5.39691550               40.66736642                7.03871278
              13.59690659                6.80932030               33.41351605                0.29728067               -0.13185692               -0.57812360                1.09734122               -2.12888245               15.81245619                4.52140561
              14.59574987                6.52869308               33.09393328                0.62564418                0.00556608               -0.10472854                0.09732212               -0.05420636                0.31448311                1.37809058
              15.59701792                6.25015182               32.76860005                0.95130059                0.12680498                0.39654166               -0.98402393               -0.04032320                0.03652226               -2.08582304
               5.82814175               10.50450248               33.09255700                0.95338505                0.12207794               -0.05825997                0.11457755               -0.04309015               -0.00093170                1.53135505
               6.82936253               10.22052596               32.76644462                0.42202825                0.26385166                0.30066625               -0.93075413               -0.00204104                0.48475807               -1.29923337
               7.83341878                9.93584274               32.44993694                0.00124014                1.77724758                0.61762335               -1.91862498               -3.16158803               28.21388168               -3.27800935
               8.86490748                9.58659094               32.67805867                0.00010000                2.95119479               -0.43892126               -1.45583277               -4.29808130               55.03356177               -1.06820024
               9.89244268                9.22254100               32.89029757                0.00010000                1.99272100               -0.27479497               -1.07923296               -3.82235475               54.40706806               -0.01114294
              10.90476190                8.85807458               33.09754442                0.00010000                0.44706285                0.01602972               -0.77501561               -3.75791487               54.86475983                0.95297306
              11.90138393                8.49170452               33.31204427                0.00010000               -0.97456157                0.31199160               -0.53407296               -4.50779792               56.58586207                2.25530572
              12.88527067                8.12633467               33.54818211                0.09908425               -1.32319368                0.27965581               -0.35798599               -4.41486520               45.17477022                4.84904191
              13.87492006                7.80375536               33.53045017                0.30941895               -0.64891752               -0.51546746                1.49354212               -2.28409640               16.82197588                3.19245374
              14.87229232                7.52732975               33.19924273                0.64157534               -0.11312244               -0.17288147                0.44796382               -0.07256964                0.56533177                1.24382520
              15.87265761                7.25341583               32.85626913                0.96030362                0.03652947                0.26250035               -0.70255313               -0.04595997               -0.01403366               -1.75067429
               6.10990172               11.50430040               33.01663510                0.97281701                0.20110301               -0.02020799               -0.11918046                0.13623608                0.73231465                1.29464742
               7.11191275               11.22390279               32.68206284                0.70676692                0.35856892                0.33768276               -1.19983379                0.14839778                1.83614240               -1.12401617
               8.11707310               10.94216791               32.36943375                0.49514949                4.04083446                0.63251674               -2.16762982               -4.10678957               31.99933041               -2.31706076
               9.19272944               10.57445837               32.63765719                0.44485750                5.75697228               -1.21325775               -1.58235685               -3.40709923               60.38078513               -0.66767931
              10.23221254               10.21838201               32.87759022                0.43454713                2.68560122               -0.41589859               -1.12821416               -1.78435708               59.18449129               -0.07610319
              11.24644146                9.85923150               33.11194553                0.44845994                0.26473981                0.11569178               -0.75451969               -1.78258210               59.71313220                0.46621026
              12.23750734                9.49937124               33.35540492                0.48546518               -2.42012983                0.76667232               -0.44778153               -2.44654739               62.00473651                1.21833575
              13.19803886                9.13805374               33.63043990                0.55254937               -4.36388729                1.17190701               -0.20042090               -3.74119503               49.76756436                3.05887660
              14.15022959                8.79901095               33.62550823                0.65895929               -2.67004309               -0.47444082                1.80735558               -3.10996117               19.53838714                2.10338747
              15.14463800                8.52523545               33.30139673                0.82625747               -0.31515199               -0.20942908                0.79059020                0.05411240                2.21603821                1.08962200
              16.14392655                8.25540183               32.95030635                0.98311978               -0.07114508                0.19859969               -0.39169388                0.14353105                0.87429760               -1.41807639
               3.31338468                1.63006940               34.75133956                1.00000000               -0.60292248               -0.65444723                2.23193878               -0.11345881               -1.54189970                1.59306880
               4.30735545                1.29971716               34.55423332                0.97044466               -0.55543995               -0.46364782                1.69561333               -0.07250497               -1.70924046               -0.30111015
               5.30227588                0.96805126               34.35393979                0.65590667               -0.64683525               -0.26401232                1.10472302               -0.32646208               -1.37356283               -1.14796826
               6.29441875                0.62866982               34.16386615                0.51320609               -0.89767938               -0.14318098                0.55223501               -0.48979103                0.54181056               -0.15303517
               7.28432229                0.27256710               34.00311831                0.45562953               -0.84686309                0.03053858               -0.01874317               -0.44771280                3.19122347               -0.14177016
               8.27748148               -0.10206095               33.86794529                0.45847062               -0.21519267                0.20118748               -0.63312792               -0.25751889                4.38546379                0.02511111
               9.28001844               -0.48385463               33.73283656                0.51548125                0.57732499                0.36299994               -1.23731035               -0.28832904                3.10148376                0.17125332
              10.28902798               -0.85869540               33.57252689                0.63597902                0.95568253                0.51683074               -1.80187897               -0.34088647                0.63727559                0.26162234
              11.29913209               -1.22259364               33.38756547                0.84418449                0.97842740                0.65241393               -2.35957808               -0.25455366               -1.33859901                0.54529938
              12.30859653               -1.57917955               33.18687160                1.00000000                0.97251859                0.80604208               -2.95355032               -0.11226856               -1.73256616                0.94561175
              13.31858246               -1.93322310               32.99334487                1.00000000                0.99859262                1.03146171               -3.51707135               -0.14176697               -1.34635078               -1.41138116
               3.64260233                2.62352493               34.67495512                1.00000000               -0.49628645               -0.63199723                1.97706928               -0.03940294                0.15446984                1.96304026
               4.63763947                2.29508068               34.47686604                0.75542627               -0.40337065               -0.41151087                1.42140988               -0.00685323                0.52106297               -0.73728731
               5.63453492                1.96541114               34.28616337                0.19028104               -0.01882765               -0.17686110                0.93336436               -0.38629175                2.36725415               -2.64063342
               6.63726292                1.62723801               34.12492061                0.00590622                0.53378140               -0.14960910                0.45356003               -1.18391210                4.94404213               -2.31737502
               7.64521055                1.27287249               33.98477299                0.00986884                0.79271205               -0.62451914               -0.05327841               -1.98800183                7.51866000                0.47749635
               8.65311716                0.89995092               33.87349913                0.01314121                0.51209094               -0.28806116               -0.60597956               -2.43090311                9.06017790                1.01270270
               9.65545237                0.51977537               33.76297657                0.01144032                0.09357350                0.15376038               -1.14608273               -2.12725804                7.80085855                1.34720189
              10.65498863                0.14647291               33.62641237                0.16402776                0.06881273                0.27739545               -1.63747733               -1.21693116                5.29315118                2.96782179
              11.65682862               -0.21606950               33.46634509                0.47264439                0.38999742                0.47445355               -2.12070024               -0.49878010                3.33779916                2.88615163
              12.66278858               -0.57111913               33.29112374                0.98262962                0.71898611                0.72242736               -2.60274946               -0.10681853                1.55740818                1.56921625
              13.67120834               -0.92290849               33.09532433                1.00000000                0.84197688                1.00553835               -3.13246786               -0.07300747                0.55240571               -1.60715315
               3.96948512                3.61742946               34.60611942                1.00000000               -0.41529475               -0.57856612                1.72895842               -0.05644786                0.21949267                2.19249934
               4.96533218                3.29148694               34.39082367                0.55648602               -0.35462090               -0.28943003                1.08488880               -0.02795220                0.86754966               -1.42264807
               5.96239270                2.96451404               34.18850174                0.05898903               -0.10265087                0.03948082                0.55644771               -0.61741864                4.33428110               -5.13916835
               6.96327916                2.62567764               34.04265097                0.00010000                0.47283201               -0.58972652                0.30116213               -2.44574982               11.29271784               -1.88289532
               7.97184934                2.26007672               33.97865070                0.00010000                0.93406881               -1.02668624               -0.17279746               -3.86189476               14.68230013                0.65958181
               8.98196053                1.89217782               33.89854719                0.00010000                0.95509717               -0.80448627               -0.58980109               -4.12227991               13.87252068                2.01411506
               9.99095129                1.51922058               33.81633977                0.00010000                0.92868521               -0.35869566               -0.98782609               -3.88961010               13.84173131                3.10312388
              11.00053424                1.14685251               33.73409950                0.04524573                0.78986145               -0.20366608               -1.36124359               -2.65094457               10.89792679                4.99182807
              12.00674852                0.78689543               33.59157423                0.24085952                0.63824527               -0.42286674               -1.64392459               -1.03866557                5.84943539                7.56073435
              13.01329914                0.43526900               33.40738064                0.57793570                0.69762562                0.37409270               -2.14769756               -0.32344737                2.27587254                2.66384122
              14.02070103                0.08688766               33.19276844                0.93358884                0.74018860                1.10871523               -2.81170416               -0.26673625                0.78028718               -1.75937840
               4.29335842                4.61195361               34.53450633                1.00000000               -0.33625754               -0.50860111                1.47186095               -0.05064481                0.03312220                1.95848963
               5.28999584                4.28929208               34.29967124                0.51874127               -0.26812860               -0.16694004                0.76807020                0.00883261                0.31233858               -1.65109890
               6.28799585                3.96620076               34.07038582                0.03992605                0.13947015                0.21817438                0.10072924               -1.29599908                9.17636967               -5.74191636
               7.29278524                3.61544348               34.01294399                0.00010000                0.67383139               -0.73879983               -0.01074307               -2.99379883               18.35232025               -0.64459967
               8.30147247                3.25233876               33.96546057                0.00010000                0.93712253               -0.70780130               -0.30596993               -3.82190397               19.30626682                0.36492761
               9.31152770                2.88386120               33.92478742                0.00010000                1.07565038               -0.81390714               -0.59847902               -4.15531870               19.61656630                2.11404234
              10.32298548                2.51260146               33.88096843                0.00010000                1.13835979               -0.77126642               -0.87158584               -4.03298128               19.15483682                3.80922334
              11.33429489                2.14239959               33.82846578                0.04918329                1.23266698               -0.75347429               -1.11597663               -3.53504232               18.23003638                5.29399807
              12.34763882                1.77547316               33.76394969                0.23571462                1.10162511               -1.12463548               -1.04627507               -1.55465645                9.45335811                8.43238235
              13.35632739                1.43636273               33.53313909                0.53942781                0.74987373                0.06217529               -1.71050407               -0.06984496                0.61921863                2.78016759
              14.36263629                1.09926582               33.29088462                0.89739719                0.63089012                1.19031857               -2.47714796               -0.07966911                0.06168392               -1.62461245
               4.61379529                5.60725744               34.46117040                1.00000000               -0.25336113               -0.43297816                1.21861881               -0.05027276                0.02235854                1.84846753
               5.61126168                5.28814814               34.20880220                0.49626844               -0.17369865               -0.06686130                0.46049555                0.02331597                0.19500558               -1.61257741
               6.61032132                4.96887753               33.95981270                0.02968801                0.30017495                0.31015270               -0.27670019               -1.81771549               12.63198430               -5.18138519
               7.61726518                4.61090165               33.95625044                0.00010000                0.83361186               -0.28721833               -0.31761728               -3.87966571               25.10034404               -2.14745944
               8.62699355                4.24592069               33.95428558                0.00010000                1.06631420               -0.55855340               -0.46679857               -4.37806194               25.33778376                0.27198900
               9.63859146                3.87589968               33.95254016                0.00010000                1.23798597               -0.78956470               -0.63261510               -4.61113782               25.41557683                2.20474934
              10.65175327                3.50379525               33.94884444                0.00010000                1.41851154               -0.97615594               -0.79223252               -4.56099967               25.30660991                4.13376780
              11.66696169                3.13178302               33.94151683                0.05615601                1.49694867               -1.18556091               -0.92299943               -4.08193573               24.00395767                6.27898527
              12.68169225                2.76440272               33.90835116                0.24512253                1.05739480               -1.01485044               -0.58929512               -1.88683081               11.71932879                6.42570409
              13.68810959                2.43651251               33.65177501                0.55093720                0.58046106                0.01814546               -1.32988019               -0.02644258                0.29627516                2.20187196
              14.69330147                2.11069403               33.38933807                0.90422401                0.51918798                1.05537321               -2.16656512               -0.03020073                0.01653582               -1.70420423
               4.93057156                6.60329405               34.38752434                0.99714643               -0.17294917               -0.36070053                0.97811669               -0.04785464                0.02802837                1.82607338
               5.92884207                6.28795485               34.11805662                0.47660288               -0.08417657                0.02111258                0.16756218                0.01957890                0.20525897               -1.57335179
               6.92888803                5.97240381               33.85207854                0.02149451                0.46533508                0.39336799               -0.63181073               -2.24735217               15.90468136               -4.96215124
               7.93814877                5.60969912               33.89654777                0.00010000                1.00125857                0.00233205               -0.59714391               -4.65276387               31.52075200               -2.32222358
               8.94891320                5.24116769               33.93981157                0.00010000                1.16408041               -0.37720152               -0.63176071               -5.06939961               31.55572688                0.04528807
               9.96143038                4.86806990               33.98137761                0.00010000                1.34844727               -0.75401738               -0.68696043               -5.32952439               31.55507080                2.23457224
              10.97588214                4.49307834               34.02062454                0.00010000                1.53091678               -1.09912270               -0.74880865               -5.34004138               31.46652291                4.37125700
              11.99204871                4.11868837               34.05618707                0.06337406                1.46452883               -1.33574802               -0.80338064               -4.76419749               29.00681541                6.47514453
              13.00517272                3.75517615               34.04205918                0.25555528                0.87292563               -0.85526712               -0.16276796               -2.19525299               13.61817085                5.62799292
              14.00950723                3.43672564               33.76599759                0.56459656                0.42482512                0.01476792               -0.97078813               -0.03637206                0.27929912                1.82753171
              15.01366922                3.12037328               33.48444834                0.91261658                0.41619981                0.88506127               -1.87450241               -0.03092390                0.01711442               -1.94564252
               5.24351659                7.60004343               34.31391237                0.98249568               -0.09730958               -0.28832367                0.76231122               -0.04585710                0.04071323                1.83242695
               6.24254349                7.28857039               34.02763432                0.45854335                0.00567107                0.09647932               -0.11624316                0.01165588                0.23284753               -1.53508981
               7.24363001                6.97674489               33.74516253                0.01395455                0.64512641                0.47039974               -0.97878876               -2.59861462               19.11206402               -4.86539255
               8.25544602                6.61094829               33.83626332                0.00010000                1.18023849                0.23906782               -0.86235100               -5.33282103               37.84543382               -2.34220041
               9.26723478                6.23837666               33.92460122                0.00010000                1.23221537               -0.17822139               -0.79291975               -5.78424716               37.80600519               -0.02805922
              10.28009033                5.86081933               34.01061013                0.00010000                1.35496016               -0.66356800               -0.75172797               -6.09174137               37.80964956                2.19323993
              11.29433398                5.48181280               34.09431764                0.00010000                1.47448035               -1.10044783               -0.73224475               -6.14489901               37.74922567                4.45771246
              12.30957993                5.10506806               34.17421029                0.07083322                1.27079688               -1.35154318               -0.72941739               -5.28463138               33.67433114                6.82159116
              13.31974992                4.74729737               34.17165457                0.26638624                0.63025426               -0.73952345                0.25449551               -2.32684570               15.14843637                5.26051693
              14.32218502                4.43680786               33.87717734                0.57876794                0.28188913               -0.00788066               -0.62110660               -0.04292267                0.29339953                1.57972983
              15.32538770                4.12839526               33.57701729                0.92119951                0.32026827                0.72288575               -1.59171472               -0.03316552                0.02092583               -2.10889282
               5.55260049                8.59752757               34.24052704                0.96876465               -0.02267691               -0.21361754                0.55334600               -0.04542905                0.04180949                1.83727305
               6.55237372                8.28988444               33.93745378                0.44184403                0.09686743                0.16632586               -0.39970728                0.00810048                0.26366462               -1.50848628
               7.55453784                7.98181181               33.63875863                0.00678432                0.87434282                0.53888054               -1.32218157               -2.86906759               22.29569524               -4.78399568
               8.56986058                7.61448047               33.77604921                0.00010000                1.44096856                0.43297915               -1.11361958               -5.80489919               44.12271795               -2.27266607
               9.58335721                7.23760327               33.90916786                0.00010000                1.31494172               -0.01845301               -0.94516823               -6.27798196               44.03841306               -0.06941046
              10.59615941                6.85479854               34.03965130                0.00010000                1.26891124               -0.51181137               -0.81602870               -6.57794604               44.12759518                2.03223681
              11.60873543                6.47106939               34.16914630                0.00010000                1.23560491               -0.96836763               -0.72543135               -6.72245117               44.26875593                4.35736365
              12.62087151                6.09165750               34.29699830                0.07856971                0.90802856               -1.26730633               -0.67652653               -5.61036523               38.14759368                7.16146538
              13.62689601                5.74038568               34.29889731                0.27759701                0.33396890               -0.65628076                0.66921072               -2.35150414               16.30835916                5.02574654
              14.62755089                5.43656802               33.98645454                0.59337451                0.14675585               -0.04788175               -0.27421471               -0.04858367                0.31160817                1.43925475
              15.62983112                5.13483100               33.66804228                0.92991848                0.22802347                0.56747326               -1.31265957               -0.03617524                0.02443105               -2.18030684
               5.85789427                9.59577107               34.16709718                0.95587755                0.05269911               -0.13669728                0.33671671               -0.04438229                0.05078298                1.83467433
               6.85842126                9.29189691               33.84741709                0.42634577                0.18791727                0.23793003               -0.68297337                0.00570338                0.31627753               -1.51394458
               7.86165262                8.98752250               33.53296250                0.00194103                1.25676548                0.59843991               -1.66416959               -3.09268582               25.52158226               -4.56900060
               8.88355657                8.61960787               33.71706863                0.00010000                1.98522252                0.40627318               -1.34624393               -5.94919756               50.37432583               -1.96422238
               9.90135707                8.23800760               33.89372546                0.00010000                1.57543555               -0.09005315               -1.07895505               -6.00829860               50.13843221               -0.07839844
              10.91506529                7.85058311               34.06683321                0.00010000                1.08344627               -0.29174842               -0.86673935               -6.18175535               50.39598245                1.63162595
              11.92302599                7.46244545               34.24229306                0.00010000                0.64955223               -0.52742834               -0.71067617               -6.60160511               51.06767719                3.73069324
              12.92805633                7.07972194               34.42309554                0.08667793                0.23916603               -0.92237851               -0.61794154               -5.78100651               42.62247655                6.98836372
              13.92780932                6.73417176               34.42443841                0.28916108               -0.06441496               -0.59381223                1.08391957               -2.37060062               17.22910132                4.68912512
              14.92676803                6.43585023               34.09480155                0.60841332                0.01644670               -0.10248988                0.07392387               -0.05947117                0.36091932                1.42001798
              15.92813825                6.13974472               33.75853133                0.93874200                0.13702185                0.41852900               -1.03274936               -0.03959004                0.04021019               -2.18087122
               6.15946118               10.59479363               34.09371865                0.94321605                0.12751819               -0.05970270                0.11826383               -0.04393274               -0.00246597                1.59039578
               7.16073636               10.29464304               33.75694137                0.41150369                0.27559895                0.31283172               -0.97057974               -0.00194475                0.51419955               -1.35529072
               8.16497316                9.99378060               33.43038817                0.00125432                1.98275816                0.63935213               -1.99358489               -3.44464926               29.00580817               -3.40635023
               9.20039153                9.62260594               33.66307254                0.00010000                3.36214212               -0.54972439               -1.54367264               -4.67100823               56.53226809               -1.13662261
              10.23221600                9.23580220               33.87901128                0.00010000                2.38474666               -0.37847463               -1.17958850               -4.11609822               55.84711009               -0.05637317
              11.24808646                8.84896357               34.08921997                0.00010000                0.76742501               -0.06440337               -0.88987319               -3.99084111               56.25384782                0.92087286
              12.24756450                8.46052082               34.30601151                0.00010000               -0.72806960                0.26279487               -0.67007607               -4.72556957               57.92148958                2.23036343
              13.23352507                8.07320993               34.54370518                0.09530936               -1.21044009                0.29377876               -0.53134123               -4.66674977               47.37833244                4.83002123
              14.22335570                7.72850944               34.54535977                0.30110129               -0.63682834               -0.51745330                1.48575892               -2.51377832               18.42845317                3.31399159
              15.22078850                7.43451823               34.20363679                0.62387768               -0.10526846               -0.16920476                0.42863613               -0.07946004                0.62202701                1.28701579
              16.22125033                7.14320158               33.84902658                0.94745726                0.04618311                0.27971298               -0.74915779               -0.04584513               -0.01184773               -1.82678956
               6.45731680               11.59457702               34.01544344                0.96783831                0.20785957               -0.02166056               -0.11856634                0.14321358                0.75741238                1.34400472
               7.45939539               11.29815354               33.66984717                0.70167892                0.37399694                0.35105030               -1.24458833                0.15252906                1.92071676               -1.17256105
               8.46479673               11.00030954               33.34737976                0.49437563                4.43597099                0.65289386               -2.24597243               -4.49465044               32.92666012               -2.40738497
               9.54811481               10.60861338               33.62139716                0.44504851                6.39403671               -1.39925555               -1.67233762               -3.72124314               62.04587170               -0.70952230
              10.59267747               10.23043811               33.86580453                0.43469265                3.12075181               -0.53640944               -1.23086852               -1.91977047               60.76200329               -0.10453761
              11.61052985                9.84929504               34.10381025                0.44825380                0.57953872                0.03314646               -0.87292743               -1.89249932               61.23197905                0.44501272
              12.60426824                9.46770134               34.35019974                0.48460842               -2.18985663                0.71805259               -0.59106785               -2.51450221               63.46921565                1.20134602
              13.56673271                9.08559751               34.62743989                0.55064387               -4.40213932                1.23875774               -0.39489956               -3.87316771               52.15858136                3.04676153
              14.51622546                8.72382269               34.64357391                0.65473742               -2.81230114               -0.46867445                1.80307479               -3.36959318               21.31360848                2.18589806
              15.51048669                8.43246613               34.30923966                0.81725260               -0.31854057               -0.20520919                0.77567094                0.04563374                2.33925487                1.13045217
              16.50985465                8.14533898               33.94619020                0.97659141               -0.06320466                0.21374077               -0.43493504                0.14771650                0.91231403               -1.47713878
               3.49761324                1.72385713               35.77377284                1.00000000               -0.61111424               -0.66220090                2.25583527               -0.11483226               -1.56973232                1.63357969
               4.49150210                1.37521276               35.57127563                0.96060610               -0.56766833               -0.46606323                1.71332594               -0.07359871               -1.76563996               -0.34918011
               5.48625987                1.02515246               35.36502825                0.65206366               -0.68566542               -0.26242158                1.11264870               -0.35345221               -1.43883778               -1.15733776
               6.47778879                0.66655376               35.16939705                0.51224884               -0.97483229               -0.14133324                0.55266289               -0.52623960                0.48805419               -0.15833423
               7.46676323                0.28964962               35.00289745                0.45555440               -0.93548022                0.03840939               -0.02781078               -0.47963848                3.11241132               -0.14579372
               8.45907918               -0.10748988               34.86153484                0.45817070               -0.27054318                0.21367286               -0.65225590               -0.27392503                4.29793753                0.02609033
               9.46135236               -0.51269983               34.72032945                0.51413396                0.57793060                0.37779340               -1.26829605               -0.30239512                3.04096046                0.17754373
              10.47063780               -0.91072855               34.55430194                0.63252566                0.99090708                0.53316966               -1.84678173               -0.36005950                0.59765251                0.27127315
              11.48117050               -1.29708817               34.36367467                0.83691490                1.01718206                0.67123011               -2.42087869               -0.27153282               -1.39468561                0.54819181
              12.49098144               -1.67557251               34.15694823                1.00000000                1.00387755                0.82942105               -3.03185947               -0.12044670               -1.79136993                0.97419495
              13.50124806               -2.05134110               33.95769078                1.00000000                1.02666184                1.06192405               -3.61326253               -0.14576059               -1.39003635               -1.43256082
               3.84510929                2.71723512               35.69480500                1.00000000               -0.49908409               -0.64084965                1.99335913               -0.04014482                0.17404852                2.00574693
               4.84011844                2.37055213               35.49111986                0.73812260               -0.40272183               -0.41055836                1.42951538               -0.00966715                0.57598129               -0.81714713
               5.83705485                2.02252824               35.29553403                0.18477168                0.00796840               -0.16630887                0.94068482               -0.43265698                2.46074642               -2.75614810
               6.84027781                1.66514043               35.12945827                0.00607510                0.59669062               -0.16391350                0.45337804               -1.29641473                5.02748088               -2.34804243
               7.84898866                1.29003371               34.98420585                0.00994670                0.86184220               -0.65716244               -0.06123341               -2.16472561                7.56559260                0.42681194
               8.85751466                0.89464685               34.86735458                0.01316182                0.54795431               -0.29834837               -0.62413501               -2.64632198                9.09385172                1.00394534
               9.85994775                0.49107811               34.75136945                0.01160010                0.08583583                0.17539208               -1.17697640               -2.32423392                7.87523786                1.38461431
              10.85923137                0.09460315               34.60981821                0.15909446                0.04647058                0.28547856               -1.68227744               -1.34033455                5.40588697                3.03094460
              11.86087716               -0.29037587               34.44482759                0.46166440                0.38360317                0.48057019               -2.18299380               -0.54948122                3.46009801                3.00915914
              12.86690344               -0.66727830               34.26468700                0.96113150                0.73409411                0.74312941               -2.68347543               -0.12023352                1.65780300                1.65106913
              13.87555904               -1.04072186               34.06351299                1.00000000                0.86556047                1.04090998               -3.22770260               -0.07834300                0.62932337               -1.66176884
               4.19017633                3.71104013               35.62344508                1.00000000               -0.41606967               -0.58817536                1.73754729               -0.05747348                0.21569795                2.23273362
               5.18601563                3.36700159               35.40165352                0.54227334               -0.35789486               -0.28037227                1.08067400               -0.03169530                0.92338141               -1.52261778
               6.18301843                3.02182628               35.19403090                0.05583535               -0.08303029                0.07182036                0.54912845               -0.70742671                4.58966036               -5.39847138
               7.18435502                2.66327549               35.04568960                0.00010000                0.54719312               -0.62262558                0.30611046               -2.66440394               11.57472129               -2.03619925
               8.19396229                2.27650637               34.97681818                0.00010000                1.03766626               -1.08391701               -0.19534567               -4.17666045               14.88202957                0.56048582
               9.20510835                1.88654316               34.89249722                0.00010000                1.04745478               -0.83841861               -0.62247701               -4.48254930               14.12103039                1.98397762
              10.21491139                1.49080801               34.80626313                0.00010000                1.00883660               -0.35444010               -1.02988656               -4.25709686               14.12071519                3.14539182
              11.22528508                1.09498102               34.72019881                0.04213142                0.85754718               -0.18862365               -1.42077878               -2.93382194               11.24983333                5.09974401
              12.23206233                0.71252323               34.57481886                0.23359209                0.68188391               -0.47252960               -1.70656041               -1.14547649                6.15101806                7.86332293
              13.23892276                0.33929008               34.38549991                0.56151815                0.72529936                0.38025822               -2.22592271               -0.35221222                2.38375702                2.79133283
              14.24656832               -0.03052290               34.16415445                0.92115355                0.76455586                1.17208746               -2.90758683               -0.29133471                0.80609282               -1.83614912
               4.53203690                4.70547161               35.54922406                1.00000000               -0.33385091               -0.51794009                1.46735407               -0.05199703                0.03169110                1.99313279
               5.52869839                4.36494468               35.30728413                0.50527611               -0.27022438               -0.15021245                0.75448829                0.00853361                0.33036535               -1.73239657
               6.52663241                4.02396465               35.07128307                0.03705679                0.18056265                0.26156952                0.07837435               -1.42769701                9.48922651               -5.99736893
               7.53230965                3.65268792               35.01265933                0.00010000                0.77776871               -0.75694114               -0.04776713               -3.25334735               18.86097137               -0.87011220
               8.54218779                3.26835537               34.96222431                0.00010000                1.06261899               -0.74232121               -0.34347301               -4.13130415               19.73355594                0.24589325
               9.55356202                2.87787848               34.91859334                0.00010000                1.20900773               -0.85057863               -0.64306442               -4.50162152               20.06383888                2.06012194
              10.56636794                2.48398930               34.87202423                0.00010000                1.26388453               -0.79757733               -0.92020274               -4.37988108               19.63860320                3.81237478
              11.57883972                2.09083068               34.81708693                0.04603837                1.36453171               -0.75374994               -1.16244740               -3.88819693               18.89569183                5.35599376
              12.59365858                1.70017354               34.75320313                0.22864263                1.20328063               -1.20848003               -1.10679887               -1.73177718                9.92346306                8.71696219
              13.60290533                1.34032686               34.51570517                0.52419573                0.78498652                0.05880283               -1.77674779               -0.07983833                0.67585936                2.86828485
              14.60935831                0.98271989               34.26569073                0.88614764                0.64529787                1.27072061               -2.56077691               -0.08386244                0.06421265               -1.69837342
               4.87019025                5.70068133               35.47328822                1.00000000               -0.24969826               -0.44203990                1.21260366               -0.04965293                0.03089234                1.89497621
               5.86769326                5.36399734               35.21331353                0.48323120               -0.17344976               -0.04988012                0.44367442                0.01854751                0.20989975               -1.68100626
               6.86672125                5.02705767               34.95689072                0.02694528                0.36020454                0.34834762               -0.30907121               -1.98485136               13.00515566               -5.38609742
               7.87489735                4.64813667               34.95283258                0.00010000                0.97121977               -0.28519823               -0.36784782               -4.20129483               25.78287320               -2.34545546
               8.88614565                4.26165994               34.94936352                0.00010000                1.22723155               -0.58463545               -0.52012972               -4.72374151               25.97266571                0.13959790
               9.89944199                3.86953158               34.94595177                0.00010000                1.41079611               -0.83065346               -0.68784716               -4.97319848               26.05728403                2.12922175
              10.91436157                3.47485647               34.94067126                0.00010000                1.59474617               -1.01879323               -0.84519185               -4.92327381               25.97997247                4.10047687
              11.93133691                3.07990603               34.93208710                0.05286978                1.67845160               -1.22639262               -0.96579043               -4.47546158               24.93353169                6.27229527
              12.94793060                2.68835363               34.90222945                0.23780719                1.17213678               -1.08049735               -0.64129557               -2.10689643               12.35716427                6.62191788
              13.95477964                2.34046613               34.63822516                0.53534863                0.60872108                0.01810813               -1.38321401               -0.03657067                0.35075911                2.25006059
              14.96010502                1.99489151               34.36732095                0.89279189                0.53253780                1.12059553               -2.23838231               -0.02921374                0.01921369               -1.79458684
               5.20441182                6.69663081               35.39730247                0.98554053               -0.17188189               -0.36827376                0.98949449               -0.04683614                0.04069139                1.89891316
               6.20269300                6.36394708               35.11963680                0.46402238               -0.08078818                0.03162422                0.14929303                0.01333308                0.22002472               -1.63678858
               7.20279606                6.03093160               34.84556090                0.01895090                0.54942355                0.42481221               -0.67366834               -2.44104208               16.34686982               -5.15562549
               8.21368147                5.64698395               34.89028773                0.00010000                1.17609919                0.00719114               -0.65698115               -5.02310385               32.36571417               -2.49827349
               9.22631804                5.25666266               34.93318214                0.00010000                1.36100288               -0.40226962               -0.69659453               -5.45686921               32.37346176               -0.08513980
              10.24090153                4.86126541               34.97419112                0.00010000                1.56049907               -0.80157954               -0.75273138               -5.72423381               32.37397811                2.14444206
              11.25752802                4.46361344               35.01284575                0.00010000                1.74658936               -1.15798869               -0.80897782               -5.72802536               32.30105038                4.30595370
              12.27583332                4.06630282               35.04793934                0.05991938                1.67162578               -1.38960362               -0.84737468               -5.19791469               30.20234163                6.40770836
              13.29096054                3.67856359               35.04024898                0.24797940                0.99013593               -0.90453270               -0.20575210               -2.44728671               14.44733307                5.80529108
              14.29563604                3.34068903               34.75608927                0.54861353                0.44813704                0.01631676               -1.01485683               -0.04558137                0.33344956                1.86221768
              15.29992328                3.00513180               34.46539550                0.90092260                0.42872429                0.93478687               -1.93873239               -0.02977026                0.01963188               -2.04650217
               5.53462099                7.69331586               35.32162203                0.97126298               -0.09618562               -0.29390231                0.77928054               -0.04618312                0.04313671                1.91555636
               6.53365914                7.36462983               35.02634731                0.44645281                0.01212707                0.10342186               -0.13955795                0.01034779                0.24684930               -1.59842424
               7.53486353                7.03555391               34.73512719                0.01162331                0.75225400                0.49647065               -1.03031441               -2.80919470               19.63113676               -5.05733374
               8.54870422                6.64828049               34.82730927                0.00010000                1.39316354                0.24293312               -0.93062131               -5.74394880               38.85198249               -2.50556367
               9.56272681                6.25361455               34.91630594                0.00010000                1.46511575               -0.20653290               -0.86831745               -6.21052032               38.79373383               -0.15245729
              10.57800653                5.85349999               35.00271494                0.00010000                1.60184215               -0.71891960               -0.82897436               -6.51730926               38.78880313                2.09770689
              11.59476365                5.45169669               35.08663903                0.00010000                1.72109660               -1.16941882               -0.80391731               -6.55372698               38.72470496                4.37316503
              12.61242846                5.05211395               35.16663742                0.06725094                1.49175085               -1.41067308               -0.78384825               -5.73341538               35.14424200                6.72024714
              13.62459867                4.67026298               35.17405376                0.25858351                0.74356737               -0.77573333                0.21918419               -2.59204573               16.18840025                5.43490498
              14.62729981                4.34079247               34.87079593                0.56239409                0.30127047               -0.00519144               -0.65890038               -0.05083037                0.34701073                1.61190408
              15.63062407                4.01358725               34.56081631                0.90925865                0.33242633                0.76165138               -1.65143018               -0.03195177                0.02364966               -2.21334457
               5.86086022                8.69075277               35.24610634                0.95787334               -0.01983196               -0.21741917                0.56384951               -0.04545836                0.04347522                1.91441990
               6.86066190                8.36601551               34.93331784                0.43023791                0.10506392                0.17465779               -0.42781561                0.01015893                0.28149915               -1.57149337
               7.86296150                8.04086101               34.62523793                0.00465699                1.00399798                0.56259892               -1.38369337               -3.09432469               22.89980058               -4.97525146
               8.88074186                7.65184262               34.76453944                0.00010000                1.69633180                0.43242644               -1.19041975               -6.24601784               45.29425586               -2.42214140
               9.89688814                7.25253200               34.89929557                0.00010000                1.58656721               -0.05740129               -1.03106774               -6.72675314               45.18890034               -0.18198956
              10.91247321                6.84688702               35.03104325                0.00010000                1.54756947               -0.57626195               -0.90633030               -7.00990727               45.25593414                1.94210200
              11.92783952                6.44022506               35.16144083                0.00010000                1.50627611               -1.04083117               -0.81436447               -7.12733537               45.37161793                4.27027040
              12.94259873                6.03808936               35.28982685                0.07486928                1.13007925               -1.32964682               -0.75320571               -6.04567053               39.89734906                7.05067211
              13.95044111                5.66304892               35.30547375                0.26954113                0.43482174               -0.68113207                0.64111966               -2.61601078               17.57211956                5.20236265
              14.95129516                5.34058520               34.98356365                0.57656965                0.16267900               -0.04406389               -0.30723848               -0.05542884                0.36535999                1.47442394
              15.95369469                5.02036482               34.65464652                0.91771575                0.23995276                0.59814218               -1.36966268               -0.03511258                0.02767003               -2.28370620
               6.18318633                9.68896747               35.17049908                0.94528203                0.05677390               -0.13943166                0.34442553               -0.04511034                0.05259769                1.90797955
               7.18375407                9.36812298               34.84041575                0.41525948                0.19818057                0.24872752               -0.71782225                0.00767594                0.33881097               -1.57916280
               8.18714994                9.04680589               34.51597622                0.00195072                1.41794013                0.62187311               -1.73493615               -3.33758432               26.22034440               -4.75264989
               9.21211287                8.65692902               34.70318919                0.00010000                2.29986998                0.38436757               -1.43159927               -6.40757481               51.71897512               -2.08916742
              10.23314734                8.25246653               34.88246429                0.00010000                1.90012286               -0.15987717               -1.17470899               -6.43024787               51.44849804               -0.16801735
              11.25011533                7.84197475               35.05764679                0.00010000                1.39336288               -0.36860122               -0.97049671               -6.56105180               51.66641377                1.55962897
              12.26101460                7.43088007               35.23461964                0.00010000                0.92879325               -0.59099767               -0.82129718               -6.94823729               52.29102957                3.65890549
              13.26869119                7.02552102               35.41631542                0.08287640                0.43840092               -0.97493067               -0.73092716               -6.16747062               44.65128664                6.89131063
              14.26978262                6.65664034               35.43519444                0.28090501                0.00920711               -0.60746171                1.06281976               -2.62467125               18.71876568                4.86210957
              15.26887533                6.33991119               35.09541176                0.59117071                0.02899762               -0.09766212                0.04520972               -0.06596787                0.41616423                1.46233688
              16.27036257                6.02555009               34.74794507                0.92624633                0.14872333                0.44281704               -1.08785362               -0.03879045                0.04450496               -2.27978632
               6.50164700               10.68796413               35.09492228                0.93297370                0.13300038               -0.06182780                0.12317106               -0.04459805               -0.00388292                1.65263721
               7.50297700               10.37099007               34.74703303                0.40090579                0.28783888                0.32584903               -1.01196431               -0.00144823                0.54768279               -1.41477342
               8.50740377               10.05329848               34.41006524                0.00126649                2.19763655                0.66155669               -2.07298932               -3.72768652               29.81764212               -3.54303863
               9.54692973                9.65952997               34.64718522                0.00010000                3.79168353               -0.66551725               -1.63585509               -5.04273933               58.05976444               -1.21183721
              10.58323744                9.24933446               34.86670580                0.00010000                2.79544468               -0.48808888               -1.28282327               -4.40613980               57.31183369               -0.10809916
              11.60283862                8.83951499               35.07974696                0.00010000                1.10455358               -0.15117816               -1.00431365               -4.21794238               57.66091216                0.88003423
              12.60532852                8.42840511               35.29864274                0.00010000               -0.46747882                0.20708102               -0.80030813               -4.93384161               59.26169276                2.18966954
              13.59348905                8.01859075               35.53755528                0.09142728               -1.08855029                0.29992659               -0.69044728               -4.91801416               49.67114224                4.77339063
              14.58355751                7.65089969               35.56016535                0.29267158               -0.62114986               -0.51698459                1.47178255               -2.75197076               20.13596734                3.43965731
              15.58106605                7.33863195               35.20781545                0.60616631               -0.09582143               -0.16362114                0.40441171               -0.08735251                0.68764460                1.33121273
              16.58164108                7.02922117               34.84128598                0.93466784                0.05750304                0.29908614               -0.80255463               -0.04561972               -0.00906337               -1.90607404
               6.81624250               11.68773092               35.01426377                0.96282663                0.21482565               -0.02332159               -0.11706713                0.15045517                0.78395987                1.39665389
               7.81839076               11.37463996               34.65717108                0.69652440                0.39069024                0.36498974               -1.29168572                0.15668138                2.01284983               -1.22441608
               8.82405631               11.06003703               34.32451430                0.49357262                4.84156699                0.67385505               -2.32918767               -4.88581102               33.87979583               -2.50389575
               9.91522210               10.64361868               34.60421044                0.44522374                7.04916041               -1.59112914               -1.76751498               -4.03737715               63.74166195               -0.75426020
              10.96503952               10.24270475               34.85297285                0.43483883                3.57318656               -0.66297121               -1.33724487               -2.05316714               62.36457978               -0.13575397
              11.98668583                9.83895119               35.09448698                0.44802650                0.91112469               -0.05638036               -0.99167941               -1.99943237               62.76760249                0.41950558
              12.98326201                9.43502169               35.34358356                0.48374261               -1.94247509                0.66165808               -0.72927845               -2.57823280               64.93020009                1.17551445
              13.94783633                9.03151955               35.62254191                0.54868164               -4.42800076                1.29287990               -0.57686117               -4.00132432               54.64487472                3.00818737
              14.89470199                8.64630064               35.66156972                0.65047117               -2.95147599               -0.45990454                1.79186868               -3.62959065               23.20615806                2.27199048
              15.88880681                8.33663877               35.31691015                0.80825373               -0.32151215               -0.19931869                0.75562190                0.03563412                2.47374809                1.17266796
              16.88827175                8.03153181               34.94160765                0.97009366               -0.05350574                0.23106471               -0.48551969                0.15237144                0.95233039               -1.53851260
               3.68698444                1.82067667               36.79645627                1.00000000               -0.61972006               -0.67090428                2.28204353               -0.11624353               -1.59830207                1.67532179
               4.68078723                1.45304509               36.58849984                0.95072008               -0.58033647               -0.46852426                1.73179415               -0.07490228               -1.82446129               -0.40130763
               5.67537771                1.08389296               36.37619276                0.64815878               -0.72383022               -0.26074303                1.11939609               -0.37984552               -1.50722141               -1.16448294
               6.66631063                0.70538070               36.17491941                0.51124797               -1.04724914               -0.13960853                0.54991955               -0.55991764                0.43201474               -0.16406371
               7.65443272                0.30703444               36.00256209                0.45546478               -1.01511978                0.04535660               -0.04229332               -0.50862881                3.03217006               -0.14986948
               8.64600823               -0.11317862               35.85490018                0.45788137               -0.31810905                0.22460696               -0.67886460               -0.28867325                4.21115493                0.02708764
               9.64807054               -0.54238374               35.70747064                0.51277707                0.58137910                0.39177217               -1.30754200               -0.31389723                2.98304567                0.18340896
              10.65763582               -0.96430247               35.53559126                0.62905101                1.02607737                0.54973920               -1.89856685               -0.37635355                0.56128653                0.28037648
              11.66859209               -1.37393564               35.33914790                0.82958210                1.05586026                0.69051281               -2.48570214               -0.28656710               -1.44798996                0.54908790
              12.67875302               -1.77517320               35.12623441                1.00000000                1.03522669                0.85237720               -3.11035181               -0.12853489               -1.84856782                0.99994359
              13.68929662               -2.17351875               34.92107962                1.00000000                1.05436015                1.09112117               -3.70713665               -0.14993440               -1.43349519               -1.45285122
               4.05345358                2.81396763               36.71482230                1.00000000               -0.50235099               -0.65057973                2.01189289               -0.04088934                0.19496500                2.04946059
               5.04843007                2.44835985               36.50545634                0.72076842               -0.40210654               -0.40873862                1.43841845               -0.01276773                0.63549745               -0.90247933
               6.04541145                2.08128553               36.30497707                0.17918848                0.03553239               -0.15486908                0.94796840               -0.48015536                2.55911053               -2.87665366
               7.04914072                1.70398462               36.13398818                0.00624481                0.66073236               -0.18140517                0.45198127               -1.40609226                5.11255050               -2.37666061
               8.05862609                1.30748800               35.98354832                0.01003112                0.93449382               -0.68832316               -0.07169630               -2.33337833                7.61397908                0.36693254
               9.06783059                0.88906745               35.86101643                0.01319373                0.59337001               -0.31013850               -0.64598749               -2.85130370                9.12846748                0.98532285
              10.07049349                0.46153398               35.73943704                0.01177621                0.09088190                0.19286922               -1.21167825               -2.51395376                7.95176856                1.41372279
              11.06964823                0.04119493               35.59276682                0.15409903                0.03341463                0.29405658               -1.72990491               -1.46125643                5.52052477                3.08405237
              12.07116179               -0.36703051               35.42268522                0.45055122                0.38054989                0.48609938               -2.24581596               -0.59843318                3.58240872                3.12949913
              13.07725923               -0.76664943               35.23745423                0.93941048                0.74905210                0.76253438               -2.76197876               -0.13456785                1.75970208                1.73197023
              14.08614283               -1.16260754               35.03077028                1.00000000                0.88836011                1.07528468               -3.31870152               -0.08495210                0.70944334               -1.71671758
               4.41738220                3.80766507               36.64087037                1.00000000               -0.41682242               -0.59972504                1.74541735               -0.05854949                0.20923072                2.26875328
               5.41321398                3.44487032               36.41243715                0.52806657               -0.36161850               -0.26878581                1.07562124               -0.03777135                0.98266836               -1.62764337
               6.41014983                3.08079558               36.19948430                0.05264322               -0.06138335                0.10540194                0.54250477               -0.80619966                4.86124597               -5.67073933
               7.41198631                2.70175260               36.04877318                0.00010000                0.62662432               -0.65431793                0.30969206               -2.88024453               11.86089191               -2.20977602
               8.42268232                2.29326797               35.97474378                0.00010000                1.14749362               -1.13883566               -0.22184564               -4.47752483               15.07563877                0.44270190
               9.43493618                1.88061861               35.88609765                0.00010000                1.14908368               -0.87291846               -0.66030603               -4.83101836               14.37373442                1.93586552
              10.44566399                1.46147364               35.79574204                0.00010000                1.10194973               -0.35465759               -1.07750747               -4.61347439               14.40102677                3.17415718
              11.45697518                1.04157867               35.70568393                0.03895366                0.94018945               -0.17818735               -1.48447506               -3.21528472               11.60683871                5.20329673
              12.46446778                0.63578635               35.55744302                0.22620617                0.73317558               -0.52838343               -1.76834811               -1.25865644                6.46055600                8.16193052
              13.47163869                0.24007749               35.36286218                0.54493608                0.75230091                0.38263040               -2.30038448               -0.38508281                2.49220537                2.92304982
              14.47951380               -0.15201306               35.13461671                0.90859487                0.78751098                1.23696944               -2.99740978               -0.31872426                0.83151444               -1.90928688
               4.77787210                4.80197313               36.56385341                1.00000000               -0.33279591               -0.52932618                1.46692388               -0.04988394                0.04014785                2.03314955
               5.77454414                4.44298413               36.31476101                0.49182168               -0.27334611               -0.13474887                0.74533478                0.00318184                0.35391861               -1.81651625
               6.77240518                4.08339357               36.07195331                0.03411282                0.22596453                0.30410865                0.05418146               -1.56651645                9.80453126               -6.26691894
               7.77906343                3.69089826               36.01198865                0.00010000                0.89022029               -0.76942304               -0.08775559               -3.51093740               19.37750534               -1.12640078
               8.79020958                3.28471129               35.95859111                0.00010000                1.19705636               -0.77565743               -0.38585634               -4.43219051               20.17300103                0.10735330
               9.80300456                2.87160908               35.91192613                0.00010000                1.35271858               -0.88661382               -0.69370654               -4.83886270               20.52148449                1.99061674
              10.81726395                2.45444083               35.86256438                0.00010000                1.40126364               -0.82451866               -0.97532717               -4.72122517               20.13746567                3.80602981
              11.83102983                2.03763118               35.80521683                0.04283692                1.51129422               -0.76010766               -1.21488491               -4.24700214               19.57111838                5.42211877
              12.84748984                1.62240182               35.74181371                0.22146416                1.31635725               -1.29955624               -1.17524009               -1.91991562               10.39997201                9.00288525
              13.85735697                1.24100318               35.49760414                0.50889722                0.82297962                0.05260664               -1.84418228               -0.09376972                0.73869708                2.96479630
              14.86394943                0.86213185               35.23966908                0.87491131                0.65924556                1.35552923               -2.64279667               -0.08811540                0.06625732               -1.76417595
               5.13436251                5.79707855               36.48542247                0.98900874               -0.25053350               -0.45173168                1.22884335               -0.04808961                0.04500726                1.96599395
               6.13185717                5.44217534               36.21767569                0.47014081               -0.17285646               -0.03994153                0.43162514                0.01195943                0.22758084               -1.75358150
               7.13090538                5.08687775               35.95363128                0.02415770                0.42963341                0.38306290               -0.34380427               -2.15209432               13.38110673               -5.60550463
               8.14044984                4.68636414               35.94889348                0.00010000                1.12111511               -0.28206483               -0.42189210               -4.51722703               26.47548407               -2.55862558
               9.15332768                4.27775482               35.94388299                0.00010000                1.39897748               -0.60944074               -0.57877796               -5.06041683               26.62470866               -0.01034191
              10.16842939                3.86288634               35.93878322                0.00010000                1.59448554               -0.87067580               -0.74918564               -5.32648938               26.71807268                2.03940272
              11.18521739                3.44498327               35.93194060                0.00010000                1.78223756               -1.06055876               -0.90447957               -5.28094263               26.67770372                4.05794198
              12.20407414                3.02637651               35.92220102                0.04949497                1.87400386               -1.26694849               -1.01508208               -4.87627790               25.87945088                6.26365480
              13.22269747                2.60979522               35.89552525                0.23038946                1.29795602               -1.14720769               -0.70595958               -2.33836379               13.00593598                6.82578252
              14.23003326                2.24112962               35.62411073                0.51975302                0.63983394                0.01980192               -1.44248437               -0.05124866                0.41434609                2.30608634
              15.23549415                1.87509753               35.34457043                0.88139184                0.54608854                1.19080168               -2.31296700               -0.02821057                0.02179778               -1.88022965
               5.48671672                6.79293849               36.40731423                0.97393588               -0.17325946               -0.37639370                1.01367031               -0.04700586                0.04425258                1.98650541
               6.48498413                6.44218530               36.12104248                0.45136155               -0.07711141                0.03727580                0.13387563                0.01172373                0.23455395               -1.70460135
               7.48517450                6.09105483               35.83860517                0.01635463                0.64288430                0.45217193               -0.71866942               -2.62714702               16.79654572               -5.36402477
               8.49784181                5.68525696               35.88340814                0.00010000                1.36522749                0.01105812               -0.72084232               -5.38376367               33.22534344               -2.68719384
               9.51247905                5.27252247               35.92587968                0.00010000                1.57022552               -0.42703731               -0.76656473               -5.83426478               33.21228027               -0.22990224
              10.52924633                4.85419557               35.96632298                0.00010000                1.78379396               -0.84824987               -0.82377813               -6.10944586               33.21778189                2.04047293
              11.54815492                4.43322965               36.00444499                0.00010000                1.97229959               -1.21511210               -0.87381707               -6.11075748               33.16778296                4.22903244
              12.56869232                4.01229221               36.03923957                0.05640651                1.89072658               -1.43955094               -0.89496886               -5.63980418               31.42355044                6.33269869
              13.58596946                3.59945766               36.03794414                0.24032547                1.11686889               -0.95122574               -0.26248092               -2.71155254               15.29332172                5.99107530
              14.59102969                3.24139922               35.74570045                0.53263947                0.47399728                0.02209744               -1.06659472               -0.05901817                0.39778246                1.90202246
              15.59544940                2.88594788               35.44567369                0.88928476                0.44197064                0.98899090               -2.00783801               -0.02884385                0.02234350               -2.14668719
               5.83492877                7.78955068               36.32949798                0.95997836               -0.09534554               -0.29997861                0.79654189               -0.04646856                0.04478961                1.99984981
               6.83397532                7.44292086               36.02484316                0.43427266                0.01810053                0.11004137               -0.16104752                0.01292508                0.26376595               -1.66457552
               7.83529078                7.09592119               35.72455624                0.00921996                0.86658024                0.52014610               -1.08493957               -3.00989007               20.16233455               -5.26281227
               8.85130692                6.68658530               35.81765089                0.00010000                1.62064987                0.24503813               -1.00291392               -6.14304402               39.87810494               -2.68055263
               9.86770378                6.26921408               35.90723487                0.00010000                1.71131882               -0.23586731               -0.94818410               -6.62557974               39.80573963               -0.28989941
              10.88553330                5.84592134               35.99403065                0.00010000                1.86009107               -0.77434181               -0.90987047               -6.93232671               39.79671433                1.98814022
              11.90490560                5.42068103               36.07823929                0.00010000                1.97583744               -1.23677352               -0.87717854               -6.95532920               39.73700751                4.27326146
              12.92505005                4.99758549               36.15853333                0.06355671                1.72269058               -1.46496330               -0.83613520               -6.19085330               36.65215387                6.60196976
              13.93935941                4.59077071               36.17603826                0.25064709                0.86563172               -0.80827060                0.17082997               -2.86908892               17.25494899                5.61771446
              14.94236268                4.24157157               35.86399933                0.54600660                0.32302631                0.00207283               -0.70429224               -0.06188721                0.41144674                1.64720600
              15.94581994                3.89487735               35.54398869                0.89736837                0.34572579                0.80401137               -1.71708228               -0.03095359                0.02684531               -2.31980990
               6.17904699                8.78693892               36.25180403                0.94690951               -0.01748703               -0.22179748                0.57659695               -0.04607264                0.04517696                1.99443960
               7.17887212                8.44438613               35.92889747                0.41858337                0.11326317                0.18388051               -0.45654910                0.01319276                0.30212297               -1.63810743
               8.18131225                8.10145775               35.61108476                0.00243168                1.14079630                0.58605010               -1.44817331               -3.31165625               23.51937628               -5.17804988
               9.20168805                7.69015772               35.75224082                0.00010000                1.96595783                0.42967225               -1.27109994               -6.67557644               46.48976311               -2.58242133
              10.22063141                7.26780513               35.88854651                0.00010000                1.87223989               -0.09885268               -1.12053310               -7.16416714               46.36608142               -0.30639918
              11.23913284                6.83870873               36.02152470                0.00010000                1.83763876               -0.64246823               -0.99826415               -7.43030195               46.41417378                1.83794219
              12.25738419                6.40849418               36.15285901                0.00010000                1.78263631               -1.11296935               -0.90083227               -7.52217159               46.51114058                4.16359315
              13.27478557                5.98299294               36.28193418                0.07106116                1.36087092               -1.38828882               -0.82168443               -6.48723540               41.69935824                6.91077981
              14.28460160                5.58329225               36.31171970                0.26137825                0.54498710               -0.70241801                0.60184347               -2.89116951               18.87733295                5.38744137
              15.28568531                5.24144067               35.98030977                0.55978707                0.18085852               -0.03632020               -0.34718940               -0.06430674                0.42974269                1.51187707
              16.28821877                4.90202811               35.64064902                0.90556451                0.25334624                0.63160979               -1.43315408               -0.03416674                0.03142226               -2.39056480
               6.51911290                9.78511473               36.17398569                0.93467818                0.06074455               -0.14286200                0.35363092               -0.04587389                0.05445432                1.98478157
               7.51972034                9.44659847               35.83306064                0.40407000                0.20865826                0.26030554               -0.75364721                0.01012015                0.36477843               -1.64800289
               8.52328606                9.10764219               35.49826377                0.00195349                1.58638339                0.64620034               -1.80903173               -3.57790840               26.93698278               -4.94669010
               9.55144801                8.69517874               35.68843665                0.00010000                2.62916820                0.35951109               -1.52071432               -6.85734822               53.09158852               -2.22341799
              10.57586943                8.26723702               35.87023128                0.00010000                2.23950964               -0.23367336               -1.27322510               -6.84236216               52.78699726               -0.26715273
              11.59623821                7.83307197               36.04742327                0.00010000                1.71542641               -0.44923309               -1.07404552               -6.92902331               52.96486005                1.47550379
              12.61017796                7.39842164               36.22586712                0.00010000                1.21345305               -0.65719461               -0.92605585               -7.28232066               53.54362862                3.56678884
              13.62050727                6.96981972               36.40847700                0.07895520                0.64551680               -1.02708416               -0.82980082               -6.55297786               46.74853655                6.75311064
              14.62308829                6.57672235               36.44569480                0.27249041                0.09167104               -0.61824756                1.03219637               -2.88806379               20.27225171                5.04413336
              15.62234069                6.24084516               36.09570574                0.57396807                0.04367180               -0.08982949                0.01022822               -0.07386762                0.48215431                1.50694350
              16.62396173                5.90750954               35.73677425                0.91383668                0.16210416                0.46947020               -1.14978214               -0.03810065                0.04936789               -2.38257818
               6.85516203               10.78408168               36.09618207                0.92263703                0.13850296               -0.06438094                0.12931968               -0.04551951               -0.00551911                1.71849961
               7.85654706               10.44959224               35.73670208                0.39021791                0.30058899                0.33953240               -1.05491617               -0.00092051                0.58532206               -1.47767961
               8.86117381               10.11438175               35.38892838                0.00127340                2.41995940                0.68456552               -2.15616255               -4.00885357               30.65122917               -3.68739690
               9.90494625                9.69734794               35.63035543                0.00010000                4.23585630               -0.78505048               -1.73191131               -5.41043014               59.61937014               -1.29309896
              10.94589094                9.26313166               35.85335481                0.00010000                3.22107575               -0.60240405               -1.38858783               -4.69003906               58.80613050               -0.16514742
              11.96936776                8.82972407               36.06913370                0.00010000                1.45495464               -0.24334365               -1.11765305               -4.43741981               59.09278372                0.83212689
              12.97499003                8.39535029               36.29000534                0.00010000               -0.19712293                0.14541771               -0.92284656               -5.13167234               60.61608964                2.13500644
              13.96542530                7.96245126               36.52989623                0.08743850               -0.95875736                0.29841483               -0.83176434               -5.16431011               52.04780243                4.68167412
              14.95581488                7.57092730               36.57479542                0.28410916               -0.60022700               -0.51342928                1.44956469               -2.99575493               21.93542126                3.57222425
              15.95342076                7.23964408               36.21172503                0.58850094               -0.08434377               -0.15575393                0.37430952               -0.09633721                0.76391572                1.37769682
              16.95412801                6.91141752               35.83297549                0.92194358                0.07072421                0.32079265               -0.86339426               -0.04542998               -0.00575078               -1.98868839
               7.18718139               11.78382711               36.01310209                0.95777481                0.22204726               -0.02545715               -0.11493337                0.15813661                0.81226473                1.45244274
               8.18940186               11.45338912               35.64401345                0.69136579                0.40859504                0.37968758               -1.34093593                0.16079973                2.11314467               -1.27925197
               9.19535329               11.12133350               35.30079601                0.49273894                5.25438217                0.69517469               -2.41631929               -5.27762118               34.86014237               -2.60610929
              10.29448950               10.67947773               35.58604686                0.44538955                7.71696167               -1.78702103               -1.86741432               -4.35290224               65.47091088               -0.80131877
              11.34969252               10.25518894               35.83905963                0.43498670                4.03908384               -0.79427168               -1.44704640               -2.18347297               63.99703994               -0.16901468
              12.37527118                9.82820510               36.08397666                0.44780742                1.25623980               -0.15189678               -1.11012341               -2.10260569               64.32686290                0.39075098
              13.37481732                9.40132999               36.33561417                0.48283768               -1.68135650                0.59797045               -0.86019098               -2.63812537               66.39749568                1.14188733
              14.34164405                8.97578801               36.61590267                0.54666307               -4.44184738                1.33367538               -0.74145134               -4.12193689               57.21892850                2.94427646
              15.28598037                8.56645376               36.67941128                0.64613633               -3.08601611               -0.44735404                1.77137167               -3.88634750               25.20786697                2.36258890
              16.27992373                8.23773009               36.32435210                0.79926339               -0.32370524               -0.19139983                0.72938554                0.02387816                2.62232934                1.21714459
              17.27950627                7.91392539               35.93647980                0.96363649               -0.04174627                0.25078791               -0.54432867                0.15735690                0.99456929               -1.60250565
               3.88156005                1.92063149               37.81941371                1.00000000               -0.62836728               -0.68212658                2.30995247               -0.11774429               -1.62863641                1.71964248
               4.87527638                1.53327360               37.60591152                0.94073585               -0.59320844               -0.47083652                1.75045625               -0.07713996               -1.88715985               -0.45758115
               5.86969588                1.14429419               37.38741618                0.64419783               -0.76083126               -0.25905626                1.12397622               -0.40599757               -1.58017741               -1.16960675
               6.86005975                0.74513495               37.18039544                0.51018603               -1.11350111               -0.13815078                0.54300481               -0.59093799                0.37246026               -0.17051544
               7.84742586                0.32467978               37.00205159                0.45538178               -1.08330038                0.05108911               -0.06328265               -0.53436654                2.94867072               -0.15419193
               8.83839374               -0.11918064               36.84795755                0.45756556               -0.35518296                0.23364773               -0.71375947               -0.30205794                4.12335210                0.02755065
               9.84032220               -0.57296446               36.69417861                0.51144902                0.58962612                0.40456125               -1.35500990               -0.32352240                2.92707394                0.18847116
              10.85018626               -1.01947215               36.51633061                0.62555070                1.06226748                0.56636749               -1.95631284               -0.39008716                0.52888359                0.28863803
              11.86156755               -1.45318105               36.31396063                0.82214617                1.09460447                0.71000413               -2.55247828               -0.30001890               -1.49688957                0.54812945
              12.87207835               -1.87801328               36.09474119                1.00000000                1.06600922                0.87466103               -3.18681490               -0.13651312               -1.90317790                1.02313486
              13.88288773               -2.29977944               35.88354805                1.00000000                1.08093775                1.11861413               -3.79605378               -0.15380769               -1.47617213               -1.47191371
               4.26774050                2.91381023               37.73504286                1.00000000               -0.50668714               -0.66237008                2.03562092               -0.04113244                0.21628552                2.09226065
               5.26267363                2.52856523               37.51988823                0.70339941               -0.40176353               -0.40647682                1.44872474               -0.01639572                0.69951266               -0.99446775
               6.25970523                2.14170363               37.31449340                0.17355232                0.06419724               -0.14294687                0.95558781               -0.53001790                2.66285167               -3.00254633
               7.26395757                1.74375344               37.13849789                0.00641310                0.72673781               -0.20277240                0.44917705               -1.51296582                5.19943928               -2.40504122
               8.27423998                1.32519067               36.98277192                0.01011774                1.01188555               -0.71810838               -0.08589801               -2.49364271                7.66283334                0.29547193
               9.28419528                0.88315584               36.85443483                0.01323220                0.64963729               -0.32342988               -0.67340092               -3.04592419                9.16295331                0.95452810
              10.28723273                0.43108116               36.72713588                0.01196607                0.10992038                0.20641383               -1.25209447               -2.69704360                8.02893164                1.43176951
              11.28639369               -0.01380847               36.57522011                0.14905970                0.03025960                0.30345495               -1.78195505               -1.58137775                5.63584196                3.12523649
              12.28783792               -0.44608101               36.39991127                0.43926424                0.38093623                0.49072009               -2.30978541               -0.64652728                3.70494095                3.24719403
              13.29401242               -0.86926667               36.20944743                0.91746837                0.76389463                0.78072233               -2.83826156               -0.14987288                1.86302975                1.81188832
              14.30311582               -1.28859330               35.99713896                1.00000000                0.91033994                1.10859968               -3.40507132               -0.09257133                0.79229127               -1.77170716
               4.65122739                3.90738409               37.65835343                1.00000000               -0.41723239               -0.61138634                1.75238300               -0.05979450                0.20709411                2.30585604
               5.64705506                3.52514406               37.42316594                0.51389820               -0.36600361               -0.25947103                1.07521252               -0.04728014                1.04930545               -1.73558896
               6.64390731                3.14143525               37.20488100                0.04941475               -0.03708386                0.13878358                0.53699595               -0.91371952                5.14977930               -5.95988181
               7.64631338                2.74107950               37.05188344                0.00010000                0.71216451               -0.68569181                0.31046786               -3.09266265               12.15041080               -2.40668315
               8.65815060                2.31031762               36.97238126                0.00010000                1.26356967               -1.19137222               -0.25349976               -4.76292001               15.26239701                0.30283338
               9.67158478                1.87435077               36.87929109                0.00010000                1.25975188               -0.90752987               -0.70470181               -5.16653179               14.62926606                1.86672003
              10.68334564                1.43116382               36.78471298                0.00010000                1.20680493               -0.35849086               -1.13235779               -4.95799939               14.68119578                3.18600238
              11.69572088                0.98659695               36.69050931                0.03571279                1.03747765               -0.17177845               -1.55377575               -3.49557057               11.96869908                5.29799576
              12.70409519                0.55663335               36.53945190                0.21869528                0.79361525               -0.58849885               -1.83151614               -1.37814958                6.77899072                8.45171529
              13.71159318                0.13760117               36.33949222                0.52818220                0.77971846                0.38204559               -2.37337995               -0.42146554                2.60089724                3.05643043
              14.71968956               -0.27760744               36.10420626                0.89596088                0.80963817                1.30379712               -3.08260356               -0.34897394                0.85642247               -1.98087621
               5.03102467                4.90158250               37.57856253                0.99363561               -0.33478017               -0.54218477                1.48452935               -0.05284019                0.05639021                2.09111684
               6.02767686                4.52337581               37.32219082                0.47833749               -0.27646337               -0.12499102                0.74057610               -0.00610947                0.37975022               -1.90298279
               7.02549540                4.14447930               37.07236670                0.03111108                0.27725447                0.34302338                0.02988303               -1.70589628               10.12245785               -6.55476174
               8.03322195                3.73003960               37.01090422                0.00010000                1.01074604               -0.77674200               -0.13080931               -3.76370636               19.90383251               -1.41604994
               9.04571032                3.30136323               36.95450718                0.00010000                1.33982451               -0.80765420               -0.43393954               -4.72174416               20.62413187               -0.05240251
              10.06001844                2.86500524               36.90471921                0.00010000                1.50581197               -0.92139861               -0.75159010               -5.16454229               20.98851533                1.90397199
              11.07582656                2.42391134               36.85251768                0.00010000                1.54971529               -0.85145604               -1.03841844               -5.05485452               20.64996560                3.78884196
              12.09101275                1.98275596               36.79278923                0.03954759                1.67220760               -0.77202851               -1.27523953               -4.60709623               20.25324658                5.49020807
              13.10927071                1.54214901               36.72969832                0.21419310                1.44055740               -1.39472488               -1.25310127               -2.11686456               10.88194163                9.28311673
              14.11982390                1.13837424               36.47882153                0.49359107                0.86414256                0.04451868               -1.91391720               -0.11190783                0.80961072                3.06516318
              15.12655356                0.73748265               36.21283480                0.86368091                0.67296641                1.44448754               -2.72364131               -0.09255897                0.06788805               -1.82606435
               5.40658396                5.89654039               37.49786509                0.97706630               -0.25478810               -0.46485434                1.26172881               -0.04882998                0.04892003                2.05268540
               6.40403607                5.52264424               37.22194603                0.45698324               -0.17291799               -0.03441154                0.42549167                0.00857992                0.24407744               -1.83156356
               7.40312560                5.14829572               36.95001463                0.02128786                0.50596249                0.41234215               -0.37989140               -2.31168362               13.76294450               -5.83924361
               8.41415532                4.72554466               36.94439474                0.00010000                1.28122433               -0.27784715               -0.47936896               -4.82196549               27.18011349               -2.78797878
               9.42875008                4.29416453               36.93778796                0.00010000                1.57952499               -0.63252454               -0.64321497               -5.38416878               27.29423824               -0.17827660
              10.44574582                3.85592279               36.93096805                0.00010000                1.78738777               -0.90889011               -0.81766225               -5.66782059               27.39744344                1.93537743
              11.46449784                3.41413470               36.92258167                0.00010000                1.97977272               -1.10079692               -0.97167179               -5.63129420               27.39837480                4.00698512
              12.48534128                2.97115638               36.91178545                0.04606722                2.08208884               -1.30657325               -1.07286519               -5.28017125               26.83640513                6.25457346
              13.50613961                2.52873885               36.88811025                0.22289239                1.43400562               -1.21384595               -0.78443129               -2.57847272               13.66281353                7.03557471
              14.51402139                2.13849154               36.60937547                0.50416622                0.67409831                0.02333155               -1.50752036               -0.07091529                0.48879050                2.36757651
              15.51962158                1.75128231               36.32106161                0.87002029                0.56001898                1.26485727               -2.38974735               -0.02741786                0.02418449               -1.96359850
               5.77784037                6.89228541               37.41757587                0.96230663               -0.17472340               -0.38586738                1.03840526               -0.04765953                0.04583169                2.07519936
               6.77609314                6.52268758               37.12231431                0.43868942               -0.07395332                0.04195426                0.12090943                0.01404222                0.25092722               -1.77510195
               7.77636131                6.15272614               36.83118751                0.01370211                0.74103456                0.47611792               -0.76470450               -2.80140133               17.25565431               -5.58530477
               8.79091383                5.72448266               36.87587088                0.00010000                1.56437522                0.01460513               -0.78822120               -5.72905167               34.10166155               -2.88839879
               9.80764881                5.28871274               36.91785084                0.00010000                1.78890174               -0.45073970               -0.84195545               -6.19717284               34.07309185               -0.38833199
              10.82669187                4.84682744               36.95771555                0.00010000                2.01591389               -0.89308574               -0.90102111               -6.48133855               34.08702037                1.92424263
              11.84796709                4.40189540               36.99536941                0.00010000                2.20566534               -1.26934007               -0.94481819               -6.48498366               34.06651897                4.14341789
              12.87080517                3.95662449               37.03003997                0.05279695                2.11995019               -1.48488198               -0.94844419               -6.08460041               32.66450739                6.25595402
              13.89036609                3.51787209               37.03499936                0.23255631                1.25284824               -0.99485732               -0.33477960               -2.98457920               16.15180854                6.18781301
              14.89586214                3.13884088               36.73475738                0.51665655                0.50287918                0.03178656               -1.12588748               -0.07676896                0.47427222                1.94744735
              15.90042368                2.76277979               36.42523874                0.87769604                0.45615396                1.04667053               -2.08158085               -0.02807448                0.02530964               -2.24715321
               6.14482643                7.88882305               37.33755287                0.94864631               -0.09502350               -0.30657822                0.81525343               -0.04714609                0.04659784                2.08604071
               7.14387619                7.52348333               37.02312636                0.42206551                0.02380313                0.11741499               -0.18231081                0.01627605                0.28325356               -1.73416953
               8.14530249                7.15781808               36.71342840                0.00675323                0.98557501                0.54331725               -1.14117173               -3.20010992               20.70672909               -5.47892203
               9.16358769                6.72583676               36.80725099                0.00010000                1.85796787                0.24628866               -1.07865941               -6.52533960               40.92551700               -2.86610636
              10.18246185                6.28514974               36.89734226                0.00010000                1.96743504               -0.26525658               -1.03269963               -7.02493062               40.84378791               -0.43885181
              11.20293639                5.83806108               36.98451753                0.00010000                2.12696338               -0.82871037               -0.99515647               -7.33247647               40.83536874                1.86727233
              12.22500111                5.38874790               37.06909546                0.00010000                2.23680925               -1.30131508               -0.95336588               -7.34582883               40.78874050                4.16297191
              13.24767258                4.94145874               37.14991472                0.05981956                1.96152661               -1.51316019               -0.88835574               -6.64930824               38.19061418                6.47452382
              14.26423165                4.50884171               37.17747036                0.24261897                0.99528677               -0.83654438                0.10796542               -3.15426886               18.34136767                5.81317566
              15.26757831                4.13912727               36.85671008                0.52966211                0.34753063                0.01377234               -0.75759683               -0.07637140                0.48864398                1.68749610
              16.27118226                3.77221572               36.52647466                0.88552914                0.36039459                0.84940862               -1.78879975               -0.03010806                0.03041475               -2.42868510
               6.50757689                8.88615385               37.25763828                0.93588209               -0.01532621               -0.22689913                0.59093745               -0.04684265                0.04677674                2.07780383
               7.50742363                8.52503588               36.92418686                0.40681804                0.12143895                0.19374913               -0.48573140                0.01669979                0.32581533               -1.70815236
               8.51000567                8.16359249               36.59627446                0.00218485                1.28258732                0.61051970               -1.51479858               -3.52081729               24.15494078               -5.39114366
               9.53307538                7.72940844               36.73911744                0.00010000                2.24601061                0.42546405               -1.35524379               -7.08977169               47.71118897               -2.75232836
              10.55492588                7.28340761               36.87688491                0.00010000                2.16843997               -0.14172853               -1.21364517               -7.58581951               47.57275059               -0.44069206
              11.57644418                6.83025323               37.01107796                0.00010000                2.13634839               -0.70926242               -1.09225941               -7.83491074               47.60645257                1.72304530
              12.59765285                6.37586910               37.14342418                0.00010000                2.06405116               -1.18391915               -0.98582917               -7.90298088               47.69280053                4.04321890
              13.61772520                5.92636129               37.27339317                0.06714982                1.59796648               -1.44187809               -0.88263427               -6.92831152               43.54756917                6.75006468
              14.62961218                5.50114121               37.31751062                0.25309138                0.66177487               -0.71972114                0.54905561               -3.17388528               20.21608497                5.58608247
              15.63096070                5.13911632               36.97661986                0.54301224                0.20162235               -0.02462352               -0.39471137               -0.07562924                0.50697068                1.55379152
              16.63364463                4.77976796               36.62598344                0.89347196                0.26839313                0.66781722               -1.50349514               -0.03330343                0.03573861               -2.50084345
               6.86612551                9.88428506               37.17757170                0.92396597                0.06460437               -0.14680642                0.36423476               -0.04669032                0.05638119                2.06568054
               7.86677155                9.52735831               36.82534280                0.39280931                0.21940415                0.27238904               -0.79039286                0.01284534                0.39430734               -1.72049277
               8.87051359                9.17002847               36.47979559                0.00194618                1.76027923                0.67129105               -1.88603974               -3.81214668               27.67275244               -5.15090537
               9.90197714                8.73434604               36.67277490                0.00010000                2.96935340                0.33246711               -1.61324036               -7.29489882               54.49451783               -2.36587766
              10.92990066                8.28231517               36.85699979                0.00010000                2.58997760               -0.31022250               -1.37449813               -7.24071532               54.15781398               -0.37399167
              11.95377669                7.82387583               37.03616588                0.00010000                2.04663923               -0.53245440               -1.17746524               -7.28230315               54.29737904                1.38229427
              12.97083344                7.36506951               37.21609853                0.00010000                1.50287766               -0.72554568               -1.02472743               -7.60098659               54.83413051                3.45921791
              13.98383424                6.91262118               37.39971940                0.07494273                0.85827317               -1.07813608               -0.91393841               -6.93462077               48.90832727                6.58193915
              14.98799891                6.49444728               37.45583837                0.26398667                0.18023645               -0.62567535                0.99026486               -3.15807065               21.87964185                5.23918408
              15.98743897                6.13863480               37.09561632                0.55673951                0.06070004               -0.07883908               -0.03183833               -0.08358071                0.56094638                1.55580034
              16.98921291                5.78557206               36.72494942                0.90146425                0.17739371                0.49869419               -1.21922887               -0.03724835                0.05511110               -2.48941710
               7.22049660               10.88321772               37.09750867                0.91226449                0.14405343               -0.06726692                0.13654400               -0.04642713               -0.00721672                1.78817142
               8.22193713               10.53048366               36.72593470                0.37947552                0.31392030                0.35369335               -1.09925820               -0.00056119                0.62741609               -1.54406987
               9.22677500               10.17701831               36.36694199                0.00127247                2.64767863                0.70755599               -2.24203784               -4.28568627               31.50793972               -3.83925977
              10.27489070                9.73605778               36.61254699                0.00010000                4.69033944               -0.90682965               -1.83157663               -5.77077972               61.21390332               -1.37967429
              11.32058179                9.27720316               36.83893405                0.00010000                3.65765313               -0.72001791               -1.49678785               -4.96518888               60.33442716               -0.22637520
              12.34804377                8.81960415               37.05739390                0.00010000                1.81529904               -0.33977744               -1.22966333               -4.64765561               60.55675269                0.77893336
              13.35688777                8.36135818               37.28018581                0.00010000                0.08056248                0.07861311               -1.03655816               -5.31765524               61.99588023                2.06971431
              14.34965502                7.90479857               37.52092000                0.08330661               -0.82253150                0.28855162               -0.95172321               -5.40734671               54.50240318                4.55951418
              15.34043714                7.48862770               37.58915664                0.27539164               -0.57453562               -0.50632851                1.41675192               -3.24240127               23.81567990                3.71408593
              16.33816430                7.13753954               37.21530164                0.57082429               -0.07059989               -0.14536411                0.33749257               -0.10699741                0.85322209                1.42784429
              17.33902514                6.78974185               36.82401809                0.90930575                0.08608411                0.34505019               -0.93246550               -0.04502861               -0.00165461               -2.07511125
               7.57066508               11.88293973               37.01196511                0.95266949                0.22946612               -0.02779936               -0.11210369                0.16609318                0.84211084                1.51157907
               8.57295974               11.53443218               36.63035236                0.68613562                0.42803353                0.39485139               -1.39206221                0.16425409                2.22200683               -1.33734626
               9.57922575               11.18417959               36.27618792                0.49185980                5.67084744                0.71612844               -2.50640078               -5.66606161               35.86900820               -2.71340079
              10.68637669               10.71620945               36.56686215                0.44550465                8.39123812               -1.98483259               -1.97166192               -4.66464059               67.23590518               -0.85025464
              11.74705051               10.26791481               36.82403192                0.43511802                4.51459295               -0.92883486               -1.56008260               -2.30958649               65.66363151               -0.20353481
              12.77666855                9.81708028               37.07228451                0.44758863                1.61177027               -0.25238640               -1.22795457               -2.20117350               65.91744571                0.35980808
              13.77928592                9.36664178               37.32637974                0.48194258               -1.41253777                0.52835918               -0.98244587               -2.69458911               67.88289460                1.10243606
              14.74841779                8.91839221               37.60771288                0.54457707               -4.44380059                1.35936442               -0.88357933               -4.23977559               59.87824169                2.85748004
              15.69040991                8.48432071               37.69699716                0.64171068               -3.21164605               -0.43069860                1.73997156               -4.13595816               27.30934318                2.45982518
              16.68418487                8.13572752               37.33149786                0.79028843               -0.32510930               -0.18120194                0.69615683                0.00967443                2.78842854                1.26483939
              17.68390772                7.79247307               36.93072107                0.95722423               -0.02771519                0.27312176               -0.61210709                0.16281190                1.03977911               -1.66966038
               4.08141609                2.02381122               38.84265532                1.00000000               -0.63745188               -0.69380966                2.33962273               -0.11987320               -1.65989698                1.76970409
               5.07504157                1.61594004               38.62350897                0.93068713               -0.60629270               -0.47239686                1.76877637               -0.08042065               -1.95373061               -0.51889620
               6.06929024                1.20634638               38.39867229                0.64013802               -0.79585729               -0.25766032                1.12591761               -0.43186902               -1.65810608               -1.17289763
               7.05912442                0.78576548               38.18577950                0.50910833               -1.17231032               -0.13696938                0.53172311               -0.61916761                0.30899692               -0.17806484
               8.04584403                0.34250993               38.00129644                0.45521323               -1.13880869                0.05578371               -0.09086830               -0.55720218                2.86121199               -0.15915473
               9.03634825               -0.12558216               37.84062499                0.45728164               -0.38025325                0.24066263               -0.75682595               -0.31419487                4.03303138                0.02707804
              10.03823896               -0.60452886               37.68037044                0.51013761                0.60416117                0.41638588               -1.41072042               -0.33153958                2.87193768                0.19244079
              11.04843147               -1.07630871               37.49646500                0.62203541                1.10023748                0.58296585               -2.01959307               -0.40145230                0.50119661                0.29588916
              12.06024371               -1.53487433               37.28809833                0.81463368                1.13352845                0.72964286               -2.62028018               -0.31175615               -1.53976155                0.54527304
              13.07110204               -1.98412298               37.06249812                1.00000000                1.09578769                0.89602843               -3.25940518               -0.14421813               -1.95381869                1.04388673
              14.08215947               -2.43013886               36.84515855                1.00000000                1.10574241                1.14389656               -3.87742749               -0.15697671               -1.51719724               -1.48935357
               4.48808854                3.01687312               38.75553472                1.00000000               -0.51187559               -0.67743486                2.06385679               -0.04155723                0.23447844                2.13332143
               5.48296978                2.61121607               38.53443084                0.68610206               -0.40148590               -0.40420424                1.46050003               -0.02361998                0.76710206               -1.09130744
               6.48005882                2.20376978               38.32408882                0.16784600                0.09405967               -0.13108692                0.96361708               -0.58412941                2.77318606               -3.13581727
               7.48485098                1.78439579               38.14297172                0.00657712                0.79435040               -0.22764364                0.44431628               -1.61660875                5.28754869               -2.43598380
               8.49594583                1.34306776               37.98183036                0.01019945                1.09373603               -0.74602733               -0.10498884               -2.64463735                7.71054766                0.21051644
               9.50672570                0.87682447               37.84754842                0.01326984                0.71705078               -0.33746047               -0.70795146               -3.22956168                9.19487206                0.91027089
              10.51028684                0.39963500               37.71439515                0.01216803                0.14319947                0.21703759               -1.30073955               -2.87363969                8.10416317                1.43780925
              11.50958969               -0.07047905               37.55712772                0.14398935                0.03732211                0.31390846               -1.84001514               -1.70170633                5.75111389                3.15349386
              12.51103329               -0.52757790               37.37648951                0.42787121                0.38512195                0.49539642               -2.37573599               -0.69313340                3.82806488                3.36156037
              13.51729213               -0.97516269               37.18068900                0.89531274                0.77861472                0.79774871               -2.91220011               -0.16608787                1.96788740                1.89041029
              14.52660558               -1.41869989               36.96266885                1.00000000                0.93134557                1.14062221               -3.48598883               -0.10098450                0.87734531               -1.82619518
               4.89189905                4.01026252               38.67591803                1.00000000               -0.42265365               -0.62946580                1.77570370               -0.05791758                0.22145891                2.35350317
               5.88767251                3.60785595               38.43394140                0.49984235               -0.37355639               -0.25358401                1.08805526               -0.05863398                1.12724555               -1.85303363
               6.88442792                3.20372464               38.21022422                0.04614183               -0.00891253                0.16974621                0.53034531               -1.02806095                5.45441951               -6.26752641
               7.88749426                2.78121261               38.05498254                0.00010000                0.80473406               -0.71649161                0.30705345               -3.29933232               12.44486317               -2.63076733
               8.90052260                2.32758938               37.96967379                0.00010000                1.38477602               -1.24056083               -0.29113850               -5.03062901               15.44166664                0.13879160
               9.91518978                1.86766863               37.87200361                0.00010000                1.37735426               -0.94064518               -0.75700615               -5.48694119               14.88561838                1.77473860
              10.92806969                1.39981189               37.77309489                0.00010000                1.32102313               -0.36430092               -1.19608488               -5.28963880               14.95923524                3.17951338
              11.94161025                0.92996946               37.67460841                0.03241741                1.14974993               -0.16808739               -1.63143590               -3.77269289               12.33410036                5.38140776
              12.95106469                0.47503360               37.52081270                0.21105050                0.86460138               -0.65081498               -1.89871951               -1.50371881                7.10604105                8.72851232
              13.95890227                0.03183200               37.31539459                0.51133144                0.80747436                0.37929445               -2.44672229               -0.46197105                2.70972331                3.18952243
              14.96721418               -0.40732641               37.07296463                0.88327881                0.83119008                1.37275512               -3.16375006               -0.38208763                0.88050341               -2.05164912
               5.29174332                5.00428380               38.59354400                0.98132952               -0.34083432               -0.55717992                1.52321440               -0.04994374                0.06957066                2.16964589
               6.28833498                4.60614439               38.32957253                0.46478771               -0.28011922               -0.12176835                0.74167105               -0.01012206                0.40997818               -1.99382776
               7.28614094                4.20716470               38.07255097                0.02805852                0.33323054                0.37737109                0.00694610               -1.83953930               10.44704187               -6.86276523
               8.29499959                3.77006596               38.00937246                0.00010000                1.13681437               -0.77873579               -0.17686633               -4.00618157               20.43877192               -1.73954837
               9.30887723                3.31825655               37.94991232                0.00010000                1.48823855               -0.83718727               -0.48826990               -4.99689330               21.08596880               -0.23415431
              10.32476436                2.85801156               37.89689433                0.00010000                1.66580067               -0.95355470               -0.81766824               -5.47564047               21.46322713                1.79960444
              11.34219324                2.39234898               37.84179601                0.00010000                1.70748788               -0.87703222               -1.11109208               -5.37772824               21.17364310                3.76040136
              12.35891412                1.92615920               37.77971204                0.03622570                1.84515662               -0.78761066               -1.34604527               -4.96398817               20.93823355                5.55902733
              13.37909637                1.45940580               37.71675169                0.20681463                1.57492966               -1.49139583               -1.34368519               -2.32184843               11.36827270                9.55395502
              14.39041271                1.03242319               37.45932579                0.47824434                0.90921375                0.03566523               -1.98786819               -0.13475727                0.88991892                3.16704302
              15.39728065                0.60875521               37.18519626                0.85249595                0.68679347                1.53740151               -2.80398434               -0.09722974                0.06885807               -1.88642439
               5.68717901                5.99911892               38.51065705                0.96504117               -0.25898344               -0.47645560                1.29399652               -0.04917597                0.04880151                2.14494736
               6.68458918                5.60542058               38.22618552                0.44378314               -0.17317229               -0.03207234                0.42260322                0.01045976                0.26073870               -1.90991953
               7.68371557                5.21127206               37.94603345                0.01836264                0.58448054                0.43851291               -0.41533002               -2.45963083               14.15095496               -6.08741080
               8.69627879                4.76563790               37.93930610                0.00010000                1.44617836               -0.27166125               -0.53961126               -5.11071540               27.89691317               -3.03329681
               9.71263913                4.31084563               37.93101869                0.00010000                1.76528781               -0.65275070               -0.71363450               -5.69106884               27.98029039               -0.36409866
              10.73158454                3.84859754               37.92242997                0.00010000                1.98641781               -0.94403117               -0.89412807               -5.99352936               28.09400126                1.81769303
              11.75236749                3.38227124               37.91250717                0.00010000                2.18445602               -1.13823771               -1.04829501               -5.97063218               28.13960878                3.94879495
              12.77527366                2.91421725               37.90074372                0.04257327                2.29981184               -1.34385862               -1.14165418               -5.68135861               27.79844458                6.24719743
              13.79836373                2.44520568               37.87983663                0.21531351                1.57920259               -1.27759858               -0.87934683               -2.82400513               14.32545559                7.25079314
              14.80685772                2.03254530               37.59396032                0.48855737                0.71209132                0.02951769               -1.57938174               -0.09605091                0.57645020                2.43350156
              15.81260555                1.62342162               37.29677548                0.85870305                0.57478359                1.34182811               -2.46930991               -0.02675763                0.02654947               -2.04707090
               6.07815648                6.99475469               38.42808233                0.95059438               -0.17654457               -0.39549192                1.06364417               -0.04843794                0.04782057                2.16449055
               7.07639104                6.60550294               38.12346066                0.42592170               -0.07127346                0.04721663                0.10848440                0.01779736                0.26949117               -1.84962512
               8.07673101                6.21593496               37.82331108                0.01096327                0.84103398                0.49918678               -0.81053932               -2.96425200               17.72436278               -5.81720063
               9.09321171                5.76463273               37.86764372                0.00010000                1.76825986                0.01893572               -0.85849749               -6.05544050               34.99408634               -3.10140655
              10.11209621                5.30520153               37.90904057                0.00010000                2.01282254               -0.47213312               -0.92289689               -6.54139651               34.95550887               -0.55954870
              11.13346817                4.83913094               37.94830256                0.00010000                2.25323407               -0.93465816               -0.98527479               -6.83571908               34.98114106                1.79743190
              12.15716089                4.36958422               37.98554862                0.00010000                2.44421741               -1.31927757               -1.02367948               -6.84665872               34.99618098                4.05237575
              13.18235251                3.89928203               38.02027069                0.04913978                2.35636634               -1.52472375               -1.01027285               -6.52583145               33.91833925                6.18305420
              14.20428822                3.43385382               38.03124855                0.22469234                1.39616229               -1.03413573               -0.42396826               -3.26204042               17.01922717                6.39786089
              15.21027576                3.03301355               37.72318270                0.50071134                0.53523243                0.04568529               -1.19320861               -0.09942574                0.56567478                1.99899582
              16.21499287                2.63559177               37.40404207                0.86613979                0.47171064                1.10686638               -2.16052560               -0.02750128                0.02847429               -2.34952387
               6.46471376                7.99120908               38.34580305                0.93724230               -0.09488995               -0.31392631                0.83528689               -0.04797259                0.04817916                2.17555283
               7.46376486                7.60636492               38.02119694                0.40977516                0.02934875                0.12518482               -0.20350119                0.02039639                0.30538710               -1.80751625
               8.46530073                7.22125580               37.70173281                0.00423354                1.10692739                0.56663639               -1.19845543               -3.37994143               21.26398313               -5.70553834
               9.48590341                6.76601661               37.79607771                0.00010000                2.10061315                0.24772537               -1.15746639               -6.88815856               41.99423755               -3.06155154
              10.50731300                6.30140297               37.88658087                0.00010000                2.22920329               -0.29338868               -1.12206060               -7.40412724               41.90835492               -0.59790790
              11.53048747                5.82990438               37.97412752                0.00010000                2.39851162               -0.88048267               -1.08569737               -7.71314083               41.90578979                1.73783149
              12.55528323                5.35588569               38.05917197                0.00010000                2.49999813               -1.36143656               -1.03393212               -7.72087506               41.88108613                4.04692587
              13.58048743                4.88372277               38.14076621                0.05597772                2.20540848               -1.55462400               -0.94371154               -7.10323623               39.75294347                6.34690347
              14.59939140                4.42452296               38.17819756                0.23450739                1.13219103               -0.86039670                0.02848425               -3.44276865               19.44237731                6.02503854
              15.60313125                4.03345901               37.84884739                0.51332325                0.37538420                0.02983591               -0.81922309               -0.09439402                0.58121531                1.73435669
              16.60689908                3.64555894               37.50821269                0.87376024                0.37678267                0.89723537               -1.86712783               -0.02933037                0.03452807               -2.54064531
               6.84688536                8.98847617               38.26362278                0.92480479               -0.01331150               -0.23255687                0.60664773               -0.04772482                0.04838108                2.16517319
               7.84675225                8.60800664               37.91918284                0.39501530                0.12975634                0.20379281               -0.51524697                0.02046339                0.35266487               -1.78198633
               8.84948049                8.22726769               37.58078879                0.00216442                1.42745622                0.63503783               -1.58307718               -3.72055575               24.80685890               -5.61485435
               9.87530137                7.76958724               37.72513594                0.00010000                2.53227052                0.42075153               -1.44267064               -7.48515810               48.95926593               -2.93123859
              10.90012590                7.29933376               37.86427360                0.00010000                2.47106277               -0.18474580               -1.31067354               -7.98721090               48.81072082               -0.58321728
              11.92472263                6.82152129               37.99967951                0.00010000                2.43995469               -0.77512237               -1.18913000               -8.21893461               48.83568158                1.60066922
              12.94892499                6.34235549               38.13314243                0.00010000                2.34639450               -1.25206644               -1.07074557               -8.26539618               48.92147870                3.91506379
              13.97165052                5.86818955               38.26428150                0.06316134                1.83858079               -1.48955512               -0.93763997               -7.36315322               45.43239543                6.57825142
              14.98569661                5.41664589               38.32270082                0.24470962                0.78506916               -0.73314827                0.48098616               -3.45932329               21.57968389                5.80187728
              15.98735190                5.03361027               37.97241554                0.52628289                0.22548876               -0.00898078               -0.45035126               -0.08960547                0.60010716                1.60199124
              16.99020638                4.65353648               37.61057912                0.88145231                0.28544841                0.70638018               -1.58146475               -0.03244562                0.04084896               -2.61510457
               7.22469832                9.98655795               38.18127038                0.91325495                0.06842848               -0.15122311                0.37607424               -0.04770354                0.05824789                2.15102392
               8.22538261                9.61044077               37.81725279                0.38150563                0.23053463                0.28473262               -0.82792994                0.01542149                0.42745515               -1.79687216
               9.22930901                9.23395656               37.46054298                0.00192652                1.93757837                0.69682723               -1.96482657               -4.03846527               28.42851191               -5.36473976
              10.26413417                8.77443164               37.65617184                0.00010000                3.31628589                0.30399848               -1.70915576               -7.71588098               55.92963480               -2.51611833
              11.29563473                8.29770805               37.84274132                0.00010000                2.94764366               -0.38808682               -1.47878694               -7.62115191               55.56397432               -0.48697734
              12.32308705                7.81440193               38.02387397                0.00010000                2.38361565               -0.61685909               -1.28141869               -7.61676330               55.66926405                1.28303138
              13.34330704                7.33084436               38.20537257                0.00010000                1.79234625               -0.79460680               -1.11827178               -7.90068609               56.17109736                3.34191774
              14.35893397                6.85393167               38.39019823                0.07078218                1.07385846               -1.12707394               -0.98206768               -7.30661733               51.12269885                6.38684456
              15.36478421                6.40986000               38.46550010                0.25536409                0.27572929               -0.62978298                0.93448624               -3.43010251               23.52994660                5.45103701
              16.36444856                6.03327939               38.09506898                0.53957119                0.08067661               -0.06454199               -0.08166411               -0.09507976                0.65527517                1.61065822
              17.36639775                5.65968655               37.71238968                0.88917678                0.19491884                0.53035811               -1.29703760               -0.03650321                0.06165539               -2.60080960
               7.59816564               10.98545170               38.09891295                0.90181971                0.14964299               -0.07060617                0.14485112               -0.04750242               -0.00909925                1.86185177
               8.59966207               10.61370129               37.71471692                0.36861318                0.32773389                0.36830531               -1.14486607               -0.00054447                0.67484673               -1.61397206
               9.60472032               10.24120423               37.34408762                0.00126215                2.87850927                0.73085359               -2.32998357               -4.55597162               32.38909243               -3.99780277
              10.65723225                9.77566721               37.59372390                0.00010000                5.15061295               -1.02946612               -1.93474680               -6.12013893               62.84523778               -1.47148353
              11.70773257                9.29157202               37.82341905                0.00010000                4.10093995               -0.83927756               -1.60758683               -5.22875212               61.90068295               -0.29073484
              12.73925105                8.80918411               38.04454043                0.00010000                2.18244782               -0.43909490               -1.34071179               -4.84617210               62.05962560                0.72241878
              13.75138153                8.32646336               38.26927418                0.00010000                0.36257417                0.00732429               -1.14148615               -5.48981186               63.41305751                1.99670850
              14.74650254                7.84564807               38.51086177                0.07908402               -0.68173468                0.27100916               -1.04723669               -5.63778111               57.02570538                4.41330586
              15.73774684                7.40405023               38.60313046                0.26655115               -0.54393891               -0.49453781                1.37122085               -3.48653028               25.76288643                3.86777368
              16.73562376                7.03231943               38.21847488                0.55321174               -0.05424149               -0.13224827                0.29322470               -0.11933826                0.95864968                1.48299253
              17.73666201                6.66414364               37.81432618                0.89671754                0.10382504                0.37198396               -1.01047550               -0.04469442                0.00303784               -2.16570615
               7.96724910               11.98514582               38.01086002                0.94755394                0.23700861               -0.03058820               -0.10842903                0.17445215                0.87374139                1.57413034
               8.96961919               11.61780688               37.61617221                0.68087708                0.44872783                0.41055899               -1.44483411                0.16710234                2.34052432               -1.39852858
               9.97622366               11.24857363               37.25066799                0.49096785                6.08722078                0.73693956               -2.59911889               -6.04789365               36.90804707               -2.82606277
              11.09136360               10.75384232               37.54661362                0.44562505                9.06595670               -2.18248919               -2.07988265               -4.96942108               69.03812746               -0.90072270
              12.15754279               10.28092250               37.80785798                0.43525764                4.99543330               -1.06495183               -1.67634837               -2.43009258               67.36813114               -0.23854728
              13.19127227                9.80562003               38.05941757                0.44734907                1.97520250               -0.35640760               -1.34522380               -2.29446087               67.54619333                0.32797272
              14.19704684                9.33099085               38.31596526                0.48103120               -1.13403982                0.45274941               -1.09608412               -2.74687767               69.39932250                1.05889495
              15.16859147                8.85935185               38.59823108                0.54241535               -4.43322966                1.37037825               -0.99876408               -4.34218650               62.61047319                2.75205009
              16.10838225                8.39996924               38.71421071                0.63723546               -3.33115462               -0.40809879                1.69552231               -4.37233009               29.49605675                2.56569129
              17.10196838                8.03063442               38.33827523                0.78134005               -0.32634103               -0.16850020                0.65532374               -0.00768842                2.97563422                1.31671059
              18.10185543                7.66712623               37.92423766                0.95083647               -0.01129522                0.29825850               -0.68940903                0.16852226                1.08821725               -1.74034580
               4.28665481                2.13026677               39.86620616                1.00000000               -0.64700151               -0.70528240                2.37176756               -0.12318162               -1.69229655                1.82229932
               5.28018479                1.70105193               39.64128704                0.92061522               -0.61957930               -0.47452745                1.78696671               -0.08550286               -2.02356377               -0.58635911
               6.27426322                1.27000316               39.40993453                0.63607413               -0.82846299               -0.25678192                1.12599832               -0.45665013               -1.73982269               -1.17396452
               7.26361553                0.82718922               39.19102990                0.50799489               -1.22293050               -0.13584956                0.51694100               -0.64356714                0.24201689               -0.18698372
               8.24980461                0.36042886               39.00023422                0.45507410               -1.18175789                0.05947990               -0.12359155               -0.57679503                2.76811925               -0.16492515
               9.23998038               -0.13248593               38.83282103                0.45698003               -0.39418358                0.24685678               -0.80751819               -0.32494072                3.93790945                0.02572311
              10.24192094               -0.63716507               38.66596420                0.50880949                0.62509640                0.42779587               -1.47486412               -0.33811912                2.81576561                0.19518748
              11.25248230               -1.13487981               38.47593874                0.61852679                1.14091297                0.59977992               -2.08901881               -0.41071318                0.47828130                0.30198264
              12.26473920               -1.61905795               38.26155502                0.80703859                1.17297304                0.74937754               -2.68884381               -0.32200124               -1.57491314                0.54034796
              13.27594176               -2.09351731               38.02955309                1.00000000                1.12418613                0.91623832               -3.32642912               -0.15155303               -1.99891040                1.06209454
              14.28722292               -2.56458712               37.80599950                1.00000000                1.12811583                1.16638313               -3.94851650               -0.15897070               -1.55565697               -1.50471099
               4.71463783                3.12321394               39.77631999                1.00000000               -0.51762633               -0.69109444                2.09557267               -0.04297781                0.25227407                2.18181811
               5.70946157                2.69630665               39.54909823                0.66883994               -0.40048783               -0.40551136                1.47436718               -0.03348066                0.84070673               -1.18823592
               6.70662807                2.26743534               39.33376574                0.16211698                0.12527234               -0.11902931                0.97115658               -0.63922928                2.89093671               -3.27879510
               7.71196701                1.82583073               39.14738422                0.00673172                0.86230833               -0.25629062                0.43654828               -1.71330660                5.37551717               -2.47136067
               8.72387424                1.36102366               38.98067215                0.01026608                1.17804594               -0.77086855               -0.12908203               -2.78449187                7.75415723                0.11121623
               9.73552793                0.86998264               38.84027580                0.01329472                0.79312247               -0.35072240               -0.75122086               -3.40075479                9.21959711                0.85289812
              10.73973669                0.36711289               38.70112109                0.01237668                0.18968396                0.22591480               -1.35969985               -3.04300221                8.17438289                1.43247502
              11.73932161               -0.12888201               38.53841981                0.13886982                0.05506254                0.32602976               -1.90646923               -1.82371465                5.86578845                3.16834941
              12.74083794               -0.61156417               38.35239655                0.41634725                0.39346045                0.49996825               -2.44494816               -0.73911387                3.95239087                3.47235208
              13.74719082               -1.08435493               38.15120343                0.87297355                0.79325398                0.81360704               -2.98370991               -0.18325845                2.07419361                1.96676268
              14.75670302               -1.55292329               37.92741919                1.00000000                0.95121992                1.17096442               -3.56026584               -0.11000506                0.96382928               -1.87935299
               5.13960983                4.11644488               39.69386750                0.99384681               -0.43160497               -0.64887712                1.81431043               -0.06425817                0.24012375                2.41799176
               6.13529378                3.69294170               39.44492705                0.48586053               -0.38276331               -0.25257606                1.10619765               -0.07072057                1.20730478               -1.97435636
               7.13195456                3.26762258               39.21548791                0.04282354                0.02336533                0.19897121                0.52403543               -1.14350286                5.77177447               -6.59622539
               8.13576108                2.82206341               39.05802451                0.00010000                0.90041523               -0.74528258                0.29813838               -3.49710267               12.74394688               -2.88192589
               9.14996287                2.34501149               38.96655849                0.00010000                1.50574809               -1.28442086               -0.33514618               -5.27651035               15.61198498               -0.05056712
              10.16587605                1.86049962               38.86415097                0.00010000                1.49813386               -0.97058335               -0.81779518               -5.78934483               15.14017332                1.66001421
              11.17992554                1.36735323               38.76079129                0.00010000                1.44045127               -0.37029040               -1.26975674               -5.60569054               15.23205922                3.15501511
              12.19468507                0.87164078               38.65788060                0.02904829                1.27521494               -0.16583965               -1.72030390               -4.04558377               12.70169442                5.45349745
              13.20542984                0.39094142               38.50147751                0.20331091                0.94753196               -0.71158227               -1.97281073               -1.63507424                7.44038442                8.98759794
              14.21363571               -0.07724517               38.29055778                0.49442098                0.83648451                0.37521497               -2.52205187               -0.50611811                2.81733988                3.32046300
              15.22215953               -0.54116783               38.04093126                0.87056177                0.85238211                1.44332996               -3.24086176               -0.41792666                0.90332068               -2.12127838
               5.56035902                5.11023640               39.60902682                0.96898041               -0.34895625               -0.57719342                1.56770987               -0.05346631                0.06988339                2.25464537
               6.55686946                4.69125513               39.33702424                0.45121641               -0.28613565               -0.11919932                0.74970563               -0.01204819                0.43721032               -2.09406563
               7.55463630                4.27141477               39.07250562                0.02494774                0.38832955                0.40824091               -0.01474762               -1.96302502               10.77578886               -7.18674045
               8.56463605                3.81092508               39.00736689                0.00010000                1.26357591               -0.77279726               -0.22534440               -4.23661313               20.98133858               -2.09595434
               9.57990782                3.33533524               38.94474179                0.00010000                1.63816241               -0.86285928               -0.54897196               -5.25424775               21.55641768               -0.43785668
              10.59739929                2.85057097               38.88836584                0.00010000                1.82869452               -0.98155953               -0.89238016               -5.76834169               21.94326587                1.67765946
              11.61648171                2.35970708               38.83029584                0.00010000                1.87112250               -0.89976219               -1.19437437               -5.68595252               21.70521149                3.72114298
              12.63482174                1.86780120               38.76586832                0.03283104                2.02703499               -0.80495531               -1.42953126               -5.31036297               21.62043250                5.62927438
              13.65702241                1.37420418               38.70282462                0.19937740                1.71779807               -1.58417844               -1.45002288               -2.53247730               11.85640403                9.81094472
              14.66917771                0.92314937               38.43906416                0.46290815                0.95836922                0.02749177               -2.06795337               -0.16425210                0.98102317                3.26934033
              15.67618980                0.47594331               38.15675511                0.84132835                0.70120914                1.63314499               -2.88493665               -0.10246959                0.06898980               -1.94729951
               5.97650304                6.10490101               39.52374502                0.95296527               -0.26285888               -0.49035876                1.32462130               -0.05027442                0.05101516                2.23497826
               6.97387445                5.69055771               39.23039810                0.43048925               -0.17394592               -0.02857360                0.42020144                0.01355726                0.28001294               -1.99222775
               7.97302412                5.27578739               38.94170803                0.01539577                0.66169506                0.46340008               -0.44914994               -2.59605219               14.54438709               -6.34803517
               8.98710835                4.80660747               38.93360251                0.00010000                1.61039507               -0.26210755               -0.60207977               -5.38015365               28.62347823               -3.29421660
              10.00523202                4.32775430               38.92351527                0.00010000                1.95145115               -0.66878303               -0.78998401               -5.97733542               28.68078775               -0.56736525
              11.02613737                3.84086843               38.91308549                0.00010000                2.18721240               -0.97462171               -0.97906678               -6.29944877               28.80559047                1.68702314
              12.04897627                3.34935798               38.90161577                0.00010000                2.39216707               -1.17144876               -1.13552657               -6.29429441               28.89816689                3.88475029
              13.07398071                2.85554168               38.88895237                0.03902482                2.52279286               -1.37690582               -1.22372549               -6.07249245               28.75925187                6.24403616
              14.09943212                2.35925785               38.87052332                0.20762064                1.73154143               -1.33679057               -0.99283800               -3.07104042               14.99190038                7.47338864
              15.10861154                1.92330466               38.57778783                0.47298404                0.75450643                0.03921768               -1.65924310               -0.12791889                0.67994467                2.50448389
              16.11452225                1.49149507               38.27167541                0.84741455                0.59107116                1.42043941               -2.55305679               -0.02672782                0.02870832               -2.13267460
               6.38804012                7.10042922               39.43884876                0.93884790               -0.17859025               -0.40536770                1.08954809               -0.04959710                0.04904727                2.25780152
               7.38625422                6.69068366               39.12448400                0.41307671               -0.06873042                0.05265576                0.09644883                0.02166356                0.29001464               -1.92831570
               8.38666551                6.28068277               38.81497672                0.00820237                0.94059245                0.52211027               -0.85631913               -3.11617319               18.20164288               -6.06129341
               9.40506606                5.80568293               38.85870093                0.00010000                1.97173207                0.02530215               -0.93125020               -6.36035792               35.90088756               -3.32608678
              10.42610015                5.32195958               38.89939290                0.00010000                2.23702866               -0.48978771               -1.00949072               -6.86286370               35.85796927               -0.74299563
              11.44980664                4.83107853               38.93801006                0.00010000                2.49112128               -0.97138370               -1.07725706               -7.16788777               35.89876605                1.66146952
              12.47592258                4.33627811               38.97489582                0.00010000                2.68326964               -1.36326878               -1.11184179               -7.19037921               35.95484571                3.95891763
              13.50347203                3.84026308               39.00983451                0.04541315                2.59580227               -1.55778384               -1.08337667               -6.95422954               35.17866998                6.11931228
              14.52783862                3.34746837               39.02651999                0.21677970                1.54550391               -1.06838202               -0.53161824               -3.53817327               17.89335578                6.62402057
              15.53438211                2.92393372               38.71089320                0.48477294                0.57179011                0.06384546               -1.26909727               -0.12701617                0.67493095                2.05798739
              16.53927442                2.50435210               38.38202823                0.85464590                0.48923155                1.16853480               -2.24578962               -0.02716399                0.03204402               -2.45514800
               6.79500222                8.09679365               39.35425861                0.92581173               -0.09480479               -0.32196241                0.85641526               -0.04906831                0.04969311                2.26883452
               7.79405417                7.69161083               39.01905633                0.39742447                0.03495836                0.13283258               -0.22454877                0.02463245                0.33003763               -1.88514418
               8.79570139                7.28622960               38.68945929                0.00235909                1.22851022                0.59012292               -1.25642921               -3.54865424               21.83361425               -5.94422702
               9.81862438                6.80711351               38.78410166                0.00010000                2.34388735                0.25033016               -1.23928688               -7.22806163               43.08337924               -3.26708439
              10.84257913                6.31795855               38.87490105                0.00010000                2.49183554               -0.31883806               -1.21660145               -7.75880850               42.99895293               -0.76623574
              11.86846109                5.82144076               38.96280358                0.00010000                2.67025015               -0.92791853               -1.18245050               -8.06917963               43.00819715                1.60198432
              12.89598414                5.32209261               39.04841682                0.00010000                2.76223847               -1.41541655               -1.12086076               -8.07484456               43.01440748                3.92981026
              13.92370586                4.82438600               39.13104048                0.05206765                2.45069390               -1.58843908               -1.00495390               -7.54298543               41.33258913                6.22733351
              14.94499802                4.33789021               39.17804004                0.22630631                1.27408161               -0.87960787               -0.06940147               -3.72856191               20.55464095                6.25636724
              15.94918749                3.92458157               38.84032562                0.49701282                0.40720997                0.05004194               -0.88957815               -0.11610074                0.69321588                1.78907512
              16.95314222                3.51486577               38.48913210                0.86204259                0.39547258                0.94683950               -1.95335220               -0.02857904                0.03949402               -2.65688271
               7.19742440                9.09398998               39.26977124                0.91372529               -0.01134821               -0.23891411                0.62362875               -0.04879433                0.04982170                2.25694277
               8.19731092                8.69334031               38.91388192                0.38312884                0.13826718                0.21379790               -0.54502633                0.02445686                0.38280716               -1.86008209
               9.20018974                8.29248523               38.56461292                0.00213138                1.57324813                0.66026207               -1.65259183               -3.90936989               25.47522910               -5.84978789
              10.22877588                7.81068953               38.71026403                0.00010000                2.82034944                0.41611047               -1.53343190               -7.85776453               50.23404867               -3.11946117
              11.25659673                7.31558282               38.85067144                0.00010000                2.77565512               -0.22641893               -1.41214511               -8.36352418               50.08093687               -0.73287084
              12.28428898                6.81252016               38.98729536                0.00010000                2.74418527               -0.83826096               -1.29006723               -8.57717083               50.10415750                1.47353798
              13.31148044                6.30796978               39.12200927                0.00010000                2.62628681               -1.31582463               -1.15726073               -8.60394389               50.20095411                3.78436638
              14.33681472                5.80849430               39.25464037                0.05909769                2.07956877               -1.53041029               -0.99058630               -7.78193652               47.34688927                6.40696788
              15.35307181                5.32987622               39.32713034                0.23625507                0.91349082               -0.74259174                0.39563596               -3.74153300               22.96156884                6.03820473
              16.35508454                4.92493456               38.96761283                0.50958113                0.25313189                0.01035304               -0.51464566               -0.10599587                0.71291039                1.65777313
              17.35813445                4.52328889               38.59435415                0.86950122                0.30499152                0.74715230               -1.66822904               -0.03144691                0.04690291               -2.73416074
               7.59532566               10.09201537               39.18509319                0.90244222                0.07223964               -0.15624282                0.38914599               -0.04874436                0.06023534                2.24098992
               8.59604806                9.69588679               38.80878421                0.37007039                0.24195556                0.29722431               -0.86621193                0.01839711                0.46525069               -1.87755566
               9.60016477                9.29943484               38.44049906                0.00189450                2.11617178                0.72260062               -2.04528163               -4.25454741               29.20501706               -5.58958718
              10.63837149                8.81543572               38.63859179                0.00010000                3.66566213                0.27483994               -1.80848611               -8.11582611               57.39744233               -2.67410624
              11.67347802                8.31343017               38.82742405                0.00010000                3.30796098               -0.46555119               -1.58668681               -7.97889964               57.00796850               -0.60498906
              12.70453071                7.80467554               39.01053751                0.00010000                2.72265555               -0.70056215               -1.38701391               -7.92809427               57.08494657                1.18047222
              13.72793113                7.29577612               39.19373309                0.00010000                2.08149876               -0.86350538               -1.20865271               -8.17752977               57.56285316                3.22037873
              14.74616069                6.79377780               39.38007805                0.06657207                1.28979832               -1.17312310               -1.03554476               -7.66198103               53.38097328                6.17922346
              15.75372709                6.32303837               39.47452809                0.24665881                0.37471039               -0.63018272                0.86208842               -3.69896079               25.21132434                5.68230917
              16.75365490                5.92478863               39.09398304                0.52245931                0.10387622               -0.04707115               -0.13987888               -0.10862578                0.76922116                1.67259183
              17.75580462                5.52980881               38.69900867                0.87696109                0.21497207                0.56454245               -1.38411579               -0.03553939                0.06931680               -2.71714163
               7.98870668               11.09086512               39.10040570                0.89131948                0.15527094               -0.07435885                0.15431345               -0.04853874               -0.01106115                1.93979136
               8.99025939               10.69928480               38.70303738                0.35769419                0.34215912                0.38321154               -1.19175009               -0.00068408                0.72826180               -1.68792469
               9.99554987               10.30693724               38.32034232                0.00124272                3.11023186                0.75313809               -2.42035401               -4.81589818               33.29616528               -4.16522807
              11.05246403                9.81618633               38.57385206                0.00010000                5.61145282               -1.15100791               -2.04127997               -6.45438452               64.51499190               -1.56825493
              12.10777892                9.30627180               38.80678231                0.00010000                4.54585612               -0.95820812               -1.72151082               -5.47731182               63.50822299               -0.35750609
              13.14338115                8.79850892               39.03057966                0.00010000                2.55243310               -0.53950399               -1.45169030               -5.03088498               63.60785561                0.66454361
              14.15882758                8.29069967               39.25735609                0.00010000                0.64658444               -0.06692967               -1.23882020               -5.64746774               64.88018275                1.91991889
              15.15631284                7.78503184               39.49997526                0.07472023               -0.53729107                0.24583966               -1.11887301               -5.86029977               59.60751107                4.25083118
              16.14808176                7.31727256               39.61658106                0.25757200               -0.50856286               -0.47821665                1.31080967               -3.72394510               27.76202749                4.03525667
              17.14614158                6.92399314               39.22116613                0.53563871               -0.03492297               -0.11638036                0.24084789               -0.13385563                1.08404340                1.54390353
              18.14738330                6.53457974               38.80380858                0.88422432                0.12417193                0.40171833               -1.09816434               -0.04421045                0.00872263               -2.26083776
               8.37751553               12.09052819               39.00979653                0.94241910                0.24467266               -0.03369240               -0.10373716                0.18316691                0.90710664                1.64035904
               9.37996226               11.70355102               38.60145568                0.67558716                0.47148751                0.42662204               -1.49917301                0.16875668                2.46934370               -1.46338265
              10.38694528               11.31449760               38.22420554                0.49001739                6.49934955                0.75603631               -2.69395983               -6.41723152               37.97918634               -2.94563458
              11.50994925               10.79241556               38.52526450                0.44571221                9.73319528               -2.37707672               -2.19181754               -5.26305804               70.87901147               -0.95232652
              12.58160919               10.29426601               38.79050495                0.43538338                5.47679464               -1.20057880               -1.79605244               -2.54347886               69.11362945               -0.27346452
              13.61948514                9.79388546               39.04538004                0.44711475                2.34248359               -0.46234642               -1.46260195               -2.38102549               69.21973787                0.29672166
              14.62845886                9.29443752               39.30445806                0.48011171               -0.85516690                0.37378534               -1.20076571               -2.79641611               70.96118098                1.01370296
              15.60238180                8.79869459               39.58773760                0.54017793               -4.40859840                1.36627535               -1.08881237               -4.44127798               65.40522684                2.63367000
              16.54028689                8.31347404               39.73090760                0.63267924               -3.43555984               -0.37985188                1.63602993               -4.59116563               31.75282489                2.68125805
              17.53367061                7.92246102               39.34460434                0.77242684               -0.32698423               -0.15321131                0.60646989               -0.02864105                3.18865709                1.37332014
              18.53374720                7.53784318               38.91693289                0.94449265                0.00765992                0.32634394               -0.77667670                0.17460554                1.14045975               -1.81497523
               4.49740839                2.24002954               40.89009067                1.00000000               -0.65664645               -0.71813951                2.40665822               -0.12699189               -1.72516390                1.87901498
               5.49084193                1.78859047               40.65924830                0.91044351               -0.63287354               -0.47791301                1.80632519               -0.09161929               -2.09580311               -0.65806330
               6.48475092                1.33520467               40.42119225                0.63191692               -0.85884303               -0.25641716                1.12608632               -0.47960026               -1.82448541               -1.17310264
               7.47366507                0.86931718               40.19611832                0.50678008               -1.26678187               -0.13432059                0.50048248               -0.66447043                0.17204486               -0.19732893
               8.45941529                0.37833557               39.99882461                0.45490722               -1.21443065                0.06322411               -0.15970165               -0.59250933                2.66812543               -0.17165815
               9.44937646               -0.13997723               39.82447462                0.45665706               -0.39893625                0.25297178               -0.86419252               -0.33449970                3.83429270                0.02315623
              10.45143656               -0.67093889               39.65087315                0.50746604                0.65149125                0.43963036               -1.54747691               -0.34330439                2.75469036                0.19696436
              11.46240628               -1.19523118               39.45468462                0.61501117                1.18472734                0.61772650               -2.16680932               -0.41820462                0.45828634                0.30700447
              12.47513111               -1.70575042               39.23432145                0.79939303                1.21365396                0.76970740               -2.75986176               -0.33089173               -1.60053006                0.53293797
              13.48667936               -2.20618177               38.99596953                1.00000000                1.15111993                0.93496350               -3.38629177               -0.15870229               -2.03624827                1.07769639
              14.49815351               -2.70307246               38.76618822                1.00000000                1.14741461                1.18537460               -4.00623352               -0.15935596               -1.59023438               -1.51715341
               4.94757754                3.23284814               40.79744617                1.00000000               -0.52393678               -0.70570060                2.13030179               -0.04497827                0.27063307                2.23629426
               5.94233817                2.78381134               40.56391818                0.65156523               -0.39929855               -0.40738301                1.48950994               -0.04256869                0.92040197               -1.28755120
               6.93959157                2.33264050               40.34351195                0.15627441                0.15583698               -0.10722066                0.97779866               -0.69111720                3.01540087               -3.42935442
               7.94545491                1.86797397               40.15170268                0.00687081                0.92729130               -0.28628761                0.42593124               -1.80175688                5.46326119               -2.51264231
               8.95813740                1.37896781               39.97924872                0.01030579                1.26068893               -0.79135881               -0.15796016               -2.91004636                7.79081142               -0.00230863
               9.97066869                0.86255249               39.83252400                0.01328930                0.87465483               -0.36219498               -0.80249797               -3.55632002                9.23180108                0.78382350
              10.97563049                0.33345741               39.68720115                0.01257790                0.24806546                0.23381665               -1.42970673               -3.20308570                8.23493854                1.41809899
              11.97563000               -0.18905391               39.51899834                0.13370840                0.08334955                0.34110342               -1.98450643               -1.94795634                5.97779994                3.17047327
              12.97729748               -0.69805335               39.32759054                0.40475074                0.40616780                0.50539519               -2.51974053               -0.78570637                4.07886932                3.57919834
              13.98375336               -1.19683213               39.12101480                0.85037224                0.80765791                0.82811415               -3.05256785               -0.20247015                2.18222691                2.04001324
              14.99345064               -1.69121871               38.89146354                1.00000000                0.96972853                1.19922768               -3.62643398               -0.11965239                1.05092336               -1.93002438
               5.39458243                4.22591553               40.71220424                0.98115039               -0.43842248               -0.66744733                1.85097644               -0.06884094                0.25915142                2.48788631
               6.39019821                3.78044281               40.45606535                0.47178862               -0.39082383               -0.25096595                1.11971277               -0.07965270                1.29145629               -2.09595006
               7.38676595                3.33306025               40.22070493                0.03942299                0.05522047                0.22846358                0.51905458               -1.25644432                6.10114243               -6.94367178
               8.39130261                2.86359142               40.06094531                0.00010000                0.99349441               -0.77025519                0.28316979               -3.68082869               13.04492912               -3.15981631
               9.40663584                2.36250840               39.96297086                0.00010000                1.62289216               -1.32125868               -0.38509281               -5.49716604               15.77258171               -0.26498112
              10.42376046                1.85277887               39.85564771                0.00010000                1.61727046               -0.99611274               -0.88655925               -6.06820110               15.39015292                1.52397547
              11.43898125                1.33373744               39.74769975                0.00010000                1.55987287               -0.37550306               -1.35340473               -5.90117435               15.49597895                3.11421965
              12.45495792                0.81159089               39.64020233                0.02562689                1.41069729               -0.16365859               -1.82107327               -4.31079835               13.06999625                5.51609967
              13.46719520                0.30435748               39.48135648                0.19547294                1.04187041               -0.76838859               -2.05614211               -1.77396191                7.78003425                9.22692426
              14.47579532               -0.18961948               39.26495355                0.47744831                0.86692149                0.37060364               -2.60180444               -0.55480291                2.92205129                3.44770542
              15.48453363               -0.67908791               39.00814740                0.85782928                0.87383030                1.51418875               -3.31550361               -0.45544704                0.92459749               -2.18953209
               5.83714615                5.21949920               40.62489819                0.95646608               -0.35457569               -0.59594867                1.60402010               -0.05518133                0.06805330                2.34268083
               6.83360039                4.77879203               40.34456664                0.43752061               -0.29160381               -0.11632695                0.75721762               -0.01306074                0.46378566               -2.19775084
               7.83131407                4.33720977               40.07225602                0.02176709                0.43949022                0.43900000               -0.03509004               -2.07951095               11.10589768               -7.52703088
               8.84239020                3.85256887               40.00486557                0.00010000                1.38462776               -0.75859508               -0.27608330               -4.45143121               21.52736326               -2.48275320
               9.85900663                3.35254264               39.93893288                0.00010000                1.78427138               -0.88305934               -0.61567998               -5.49012825               22.03267263               -0.66294377
              10.87807562                2.84263023               39.87904673                0.00010000                1.98941798               -1.00425427               -0.97537362               -6.03799500               22.42626145                1.53844490
              11.89879499                2.32594735               39.81790852                0.00010000                2.03591844               -0.91855848               -1.28823905               -5.97373109               22.24114072                3.67133792
              12.91879399                1.80767291               39.75112142                0.02938756                2.21168141               -0.82295521               -1.52593010               -5.63876145               22.29414668                5.70198716
              13.94302862                1.28657888               39.68775123                0.19182855                1.86543463               -1.66897028               -1.57354386               -2.74609489               12.34388093               10.05285434
              14.95610269                0.81057994               39.41796672                0.44754205                1.01249662                0.02127097               -2.15596723               -0.20023141                1.08369663                3.37359526
              15.96327855                0.33906506               39.12749752                0.83021621                0.71758627                1.72914561               -2.96971302               -0.10794153                0.06785744               -2.01045996
               6.27489315                6.21399655               40.53714947                0.94085152               -0.26667278               -0.50510345                1.35581549               -0.05198834                0.05234621                2.32778728
               7.27222642                5.77811628               40.23458955                0.41722495               -0.17471280               -0.02568170                0.41820794                0.01533335                0.29977250               -2.08021881
               8.27139889                5.34184025               39.93705045                0.01236252                0.73573485                0.48740307               -0.48223295               -2.72319442               14.94088647               -6.62165716
               9.28694112                4.84841952               39.92726450                0.00010000                1.76865086               -0.24785083               -0.66658018               -5.62849779               29.35659483               -3.57082802
              10.30677191                4.34484721               39.91521901                0.00010000                2.13273646               -0.67934003               -0.87209971               -6.23929491               29.39301826               -0.78800781
              11.32959585                3.83269379               39.90284864                0.00010000                2.38460195               -0.99939974               -1.07254352               -6.58079955               29.52988882                1.54350348
              12.35446395                3.31536627               39.88979664                0.00010000                2.59776550               -1.19929096               -1.23385564               -6.59618183               29.67082824                3.81554994
              13.38155116                2.79513178               39.87626921                0.03542332                2.74511603               -1.40463773               -1.32052157               -6.44402257               29.71304297                6.24704903
              14.40936627                2.27097808               39.85997987                0.19989476                1.88766784               -1.38806831               -1.12492288               -3.31289127               15.66163020                7.70417881
              15.41930451                1.81080594               39.56077546                0.45739448                0.80191444                0.05277825               -1.74750336               -0.16598052                0.80276781                2.58270920
              16.42540456                1.35549501               39.24571434                0.83618120                0.61000447                1.49835299               -2.64330012               -0.02683565                0.03098319               -2.22232422
               6.70786694                7.20939713               40.44987329                0.92702945               -0.18035811               -0.41666299                1.11590811               -0.05092259                0.05031028                2.35507715
               7.70606336                6.77827839               40.12538964                0.40020985               -0.06600017                0.05739171                0.08485180                0.02496032                0.31251423               -2.01220980
               8.70654694                6.34695783               39.80618470                0.00536784                1.03749632                0.54474064               -0.90203342               -3.25688719               18.68587894               -6.31814796
               9.72681329                5.84761185               39.84901871                0.00010000                2.16997651                0.03461510               -1.00658275               -6.64069346               36.81979458               -3.56341332
              10.74994647                5.33895584               39.88885076                0.00010000                2.45636426               -0.50237455               -1.10191442               -7.15756952               36.77840582               -0.93889053
              11.77594057                4.82264224               39.92675742                0.00010000                2.72434425               -1.00175151               -1.17758741               -7.47272554               36.83828136                1.51686846
              12.80443335                4.30196153               39.96331179                0.00010000                2.91805833               -1.39989116               -1.21061544               -7.50957757               36.94013639                3.86471045
              13.83430174                3.77958016               39.99860316                0.04162014                2.83316430               -1.58341003               -1.17011858               -7.35895907               36.44029059                6.06924613
              14.86109664                3.25881751               40.02061618                0.20880435                1.69822038               -1.09690555               -0.65933048               -3.80559212               18.77455073                6.86821166
              15.86826615                2.81163551               39.69780076                0.46884141                0.61335295                0.08574701               -1.35358015               -0.15931991                0.80691760                2.12559313
              16.87336370                2.36903212               39.35912628                0.84320764                0.50975522                1.23001824               -2.33941442               -0.02676663                0.03652866               -2.56617628
               7.13611217                8.20566329               40.36293135                0.91434904               -0.09472446               -0.33083421                0.87879568               -0.05024442                0.05104916                2.36673696
               8.13516493                7.77926411               40.01670597                0.38501899                0.04077590                0.13993663               -0.24550255                0.02875617                0.35734226               -1.96795278
               9.13692769                7.35273507               39.67660422                0.00231045                1.34821555                0.61371682               -1.31482270               -3.70481286               22.41491253               -6.19576225
              10.16212924                6.84911182               39.77129197                0.00010000                2.58312207                0.25480201               -1.32437681               -7.54124075               44.19147009               -3.48379617
              11.18859013                6.33479972               39.86224885                0.00010000                2.75032028               -0.34012495               -1.31688356               -8.08431174               44.11469636               -0.94388795
              12.21713564                5.81265876               39.95047851                0.00010000                2.93721731               -0.96920573               -1.28662934               -8.39519455               44.14218779                1.46093540
              13.24733448                5.28736845               40.03675476                0.00010000                3.01901748               -1.46174930               -1.21631799               -8.40147257               44.18875261                3.81506592
              14.27751599                4.76346358               40.12066714                0.04810558                2.69323007               -1.61444098               -1.07548902               -7.95814946               42.92292895                6.12284278
              15.30119908                4.24903996               40.17680954                0.21806983                1.41937573               -0.89477901               -0.18696807               -4.00419137               21.67656056                6.50825823
              16.30590351                3.81252088               39.83105583                0.48075134                0.44384602                0.07364025               -0.96881331               -0.14122188                0.82959643                1.85208388
              17.31007600                3.38009537               39.46914565                0.85039425                0.41724910                0.99722872               -2.04904580               -0.02764447                0.04549834               -2.77905703
               7.55966042                9.20278044               40.27609536                0.90255973               -0.00937120               -0.24600051                0.64196354               -0.04989108                0.05134162                2.35337453
               8.55956671                8.78107712               39.90828231                0.37121509                0.14712713                0.22350460               -0.57516288                0.02842712                0.41671303               -1.94332200
               9.56260296                8.35923217               39.54773695                0.00208580                1.71785547                0.68501725               -1.72303950               -4.08475763               26.16004402               -6.09753263
              10.59392382                7.85270789               39.69446730                0.00010000                3.10551685                0.41248326               -1.62788701               -8.20250166               51.53505268               -3.31756967
              11.62471330                7.33215334               39.83603070                0.00010000                3.07720653               -0.26511575               -1.51890635               -8.70957577               51.38387937               -0.88938217
              12.65546795                6.80325812               39.97387816                0.00010000                3.04428853               -0.89658397               -1.39664717               -8.90427522               51.41363585                1.34358253
              13.68559907                6.27272655               40.10999721                0.00010000                2.89996409               -1.37316656               -1.24842550               -8.91388492               51.53420372                3.65581386
              14.71346723                5.74729134               40.24446977                0.05493536                2.31782227               -1.56411720               -1.04542804               -8.17810850               49.28450157                6.24670563
              15.73195552                5.24092193               40.33061353                0.22770052                1.04595347               -0.74922527                0.29046847               -4.01381969               24.35779669                6.29644329
              16.73438630                4.81310831               39.96212263                0.49293227                0.28531513                0.03285249               -0.58802776               -0.12481734                0.85062955                1.72129160
              17.73766182                4.38897670               39.57721454                0.85761453                0.32755190                0.78969526               -1.76508531               -0.03032089                0.05421530               -2.85917048
               7.97852099               10.20074328               40.18905330                0.89162121                0.07607573               -0.16181259                0.40361681               -0.04987717                0.06227669                2.33582607
               8.97928175                9.78373420               39.79992855                0.35866289                0.25403893                0.30971003               -0.90543539                0.02080507                0.50780746               -1.96342289
               9.98360177                9.36643541               39.41963735                0.00185036                2.29381405                0.74805123               -2.12739627               -4.45733647               30.00304379               -5.82613700
              11.02515803                8.85736149               39.62000212                0.00010000                4.01233058                0.24607555               -1.91153531               -8.48848664               58.89885682               -2.84014674
              12.06384838                8.32949740               39.81100758                0.00010000                3.66594520               -0.54061729               -1.69919133               -8.30891431               58.49159352               -0.72754321
              13.09847693                7.79472708               39.99613369                0.00010000                3.05875908               -0.78128372               -1.49605532               -8.21129250               58.54838985                1.07686242
              14.12502356                7.25990512               40.18119952                0.00010000                2.36407507               -0.92948922               -1.29821841               -8.42776635               59.01739232                3.09958672
              15.14575844                6.73218124               40.36948734                0.06228880                1.50410740               -1.21430967               -1.08179973               -7.99445528               55.67251761                5.97126864
              16.15510571                6.23405546               40.48274187                0.23781796                0.47969817               -0.62730400                0.77057771               -3.95811570               26.91434039                5.93556757
              17.15535240                5.81317793               40.09227140                0.50538680                0.13135519               -0.02660574               -0.20719488               -0.12376904                0.90820072                1.74194663
              18.15773282                5.39588928               39.68470736                0.86482674                0.23804164                0.60129846               -1.48185258               -0.03437800                0.07836408               -2.83951831
               8.39268104               11.19954419               40.10199922                0.88077569                0.16096394               -0.07859711                0.16501710               -0.04968963               -0.01329595                2.02203174
               9.39429068               10.78727132               39.69088191                0.34673412                0.35739513                0.39842171               -1.23997242               -0.00178505                0.78821515               -1.76633901
              10.39982895               10.37419319               39.29568054                0.00121365                3.34007058                0.77495393               -2.51201674               -5.06225653               34.23033983               -4.34043201
              11.46109210                9.85762940               39.55289830                0.00010000                6.06702413               -1.26952951               -2.15158055               -6.76829030               66.22449647               -1.67037125
              12.52116943                9.32134099               39.78898884                0.00010000                4.98711456               -1.07447360               -1.83948102               -5.70727442               65.15984236               -0.42627189
              13.56083439                8.78763245               40.01550662                0.00010000                2.92100760               -0.63866828               -1.56434932               -5.19836250               65.20759529                0.60667102
              14.57958958                8.25413676               40.24449778                0.00010000                0.92966991               -0.14220771               -1.33093159               -5.78689833               66.40986181                1.84453030
              15.57942778                7.72300515               40.48848431                0.07023294               -0.38965323                0.21596719               -1.17182753               -6.06364361               62.23617452                4.07840579
              16.57179652                7.22837585               40.62934666                0.24851690               -0.46753403               -0.45570681                1.23254536               -3.94813266               29.79937480                4.21860841
              17.57007710                6.81257620               40.22329184                0.51813268               -0.01224774               -0.09767547                0.17975020               -0.15046780                1.23437870                1.61100684
              18.57155156                6.40100266               39.79236289                0.87182166                0.14744584                0.43444124               -1.19670573               -0.04361827                0.01559365               -2.36134842
               8.80207294               12.19917134               40.00878528                0.93722813                0.25241153               -0.03728511               -0.09785465                0.19231853                0.94238383                1.71020804
               9.80459705               11.79170264               39.58618875                0.67027127                0.49628134                0.44313110               -1.55502505                0.16879419                2.60998934               -1.53192783
              10.81199856               11.38193449               39.19678879                0.48907915                6.90236842                0.77413008               -2.78997214               -6.76962521               39.08328896               -3.07033203
              11.94264442               10.83197090               39.50277727                0.44578250               10.38506414               -2.56585019               -2.30757468               -5.54109553               72.75921285               -1.00531009
              13.01969985               10.30800793               39.77193693                0.43550110                5.95347491               -1.33330630               -1.91978383               -2.64781788               70.90288849               -0.30778558
              14.06171392                9.78195371               40.03016553                0.44689262                2.71065277               -0.56787394               -1.58133593               -2.45939529               70.94521831                0.26694894
              15.07391290                9.25706096               40.29194994                0.47917548               -0.57337233                0.29242020               -1.29903469               -2.84032440               72.58192270                0.97110570
              16.05024647                8.73650058               40.57645483                0.53788148               -4.36704471                1.34954379               -1.15475829               -4.52411333               68.25866595                2.50503019
              16.98657201                8.22494132               40.74693131                0.62806150               -3.52651197               -0.34345301                1.55853043               -4.78625935               34.06684159                2.80783833
              17.97971623                7.81122442               40.35040463                0.76352773               -0.32822453               -0.13517801                0.54944003               -0.05424831                3.43285652                1.43504321
              18.98000752                7.40457810               39.90870413                0.93822304                0.02912844                0.35754365               -0.87440941                0.18096374                1.19699475               -1.89416231
               4.71383626                2.35313605               41.91433933                1.00000000               -0.66691182               -0.73097963                2.44408837               -0.13149467               -1.75746943                1.93923577
               5.70716714                1.87855090               41.67741355                0.90038661               -0.64663856               -0.48123173                1.82738746               -0.09804946               -2.16956710               -0.73418209
               6.70090349                1.40190170               41.43245625                0.62775963               -0.88715364               -0.25661301                1.12750922               -0.49903867               -1.91176624               -1.16934320
               7.68942407                0.91207393               41.20103955                0.50554791               -1.30463362               -0.13230281                0.48441720               -0.68057062                0.09811167               -0.20875189
               8.67481082                0.39614749               40.99704019                0.45469867               -1.24031933                0.06837476               -0.19763882               -0.60394083                2.55990490               -0.17905518
               9.66461769               -0.14812156               40.81553718                0.45630880               -0.40030354                0.26075796               -0.92462112               -0.34208004                3.71879386                0.01941888
              10.66680475               -0.70588178               40.63501467                0.50611674                0.67910222                0.45300515               -1.62693703               -0.34664234                2.68228308                0.19785317
              11.67819973               -1.25736715               40.43260256                0.61150503                1.23194696                0.63768906               -2.25565641               -0.42393071                0.43449127                0.31175156
              12.69144369               -1.79493737               40.20635779                0.79176347                1.25751530                0.79221345               -2.84050432               -0.33882179               -1.61631324                0.52284213
              13.70335004               -2.32205393               39.96182725                1.00000000                1.17685887                0.95152453               -3.43813055               -0.16593957               -2.06128243                1.08957716
              14.71498087               -2.84548082               39.72587483                1.00000000                1.16308296                1.19978655               -4.04754558               -0.15837392               -1.61809733               -1.52530577
               5.18710647                3.34582626               41.81892603                1.00000000               -0.53026479               -0.71927351                2.16510191               -0.04704921                0.28870316                2.29554638
               6.18180382                2.87373858               41.57888843                0.63426690               -0.39774404               -0.40883275                1.50378835               -0.05178082                1.00588673               -1.38938047
               7.17915159                2.39933557               41.35332171                0.15039081                0.18458257               -0.09483138                0.98353474               -0.73968602                3.14640958               -3.58583352
               8.18549548                1.91075090               41.15590284                0.00698728                0.98587804               -0.31848649                0.41343950               -1.87673384                5.54970400               -2.56004950
               9.19886915                1.39683123               40.97751294                0.01030604                1.33580206               -0.80598904               -0.19047382               -3.01817957                7.81881591               -0.12915991
              10.21221152                0.85448602               40.82422584                0.01323435                0.95459848               -0.37110228               -0.85855974               -3.69252136                9.22782318                0.70419363
              11.21796112                0.29864827               40.67252696                0.01274419                0.31383505                0.24060151               -1.50781947               -3.34952678                8.27807572                1.39727310
              12.21848822               -0.25099026               40.49872968                0.12856945                0.12188687                0.36034237               -2.07520757               -2.07174856                6.08085090                3.16282214
              13.22039886               -0.78701523               40.30200174                0.39316725                0.42370750                0.51282941               -2.60508583               -0.83563987                4.20701433                3.68335040
              14.22696237               -1.31253868               40.09015207                0.82747771                0.82125812                0.84054695               -3.11683894               -0.22659694                2.29243178                2.10737807
              15.23682402               -1.83348296               39.85489051                1.00000000                0.98616538                1.22441815               -3.68206567               -0.13028184                1.13660587               -1.97848913
               5.65707063                4.33875058               41.73088703                0.96835986               -0.44484221               -0.68407379                1.88370205               -0.07379802                0.27972853                2.56430588
               6.65262221                3.87037424               41.46732130                0.45761660               -0.39865890               -0.24813327                1.13000371               -0.08809914                1.37922450               -2.21951954
               7.64909745                3.40000508               41.22586900                0.03593082                0.08857633                0.25965281                0.51247182               -1.36831548                6.43956238               -7.30683386
               8.65439374                2.90570420               41.06368790                0.00010000                1.08073239               -0.79000414                0.26125410               -3.84831975               13.34497014               -3.46210593
               9.67071210                2.38002771               40.95885664                0.00010000                1.72782404               -1.35015067               -0.43915451               -5.68684154               15.92272066               -0.50406942
              10.68895022                1.84445640               40.84641979                0.00010000                1.72891964               -1.01735435               -0.96135527               -6.31800442               15.63345060                1.36705309
              11.70529049                1.29893025               40.73372319                0.00010000                1.67390241               -0.38056591               -1.44505416               -6.16739893               15.74812152                3.05888200
              12.72242827                0.74983970               40.62145913                0.02217150                1.54944096               -0.16178392               -1.93005641               -4.56186386               13.43481097                5.57017668
              13.73627931                0.21531922               40.46035467                0.18753989                1.14287777               -0.81734401               -2.14609249               -1.92134118                8.12040283                9.44531627
              14.74528582               -0.30524299               40.23852169                0.46044226                0.89922324                0.36690213               -2.68908844               -0.60843520                3.01998317                3.57186684
              15.75426378               -0.82099246               39.97462118                0.84517059                0.89779577                1.58250620               -3.39594045               -0.49188063                0.94343025               -2.25678953
               6.12238319                5.33214478               41.64110722                0.94393038               -0.35958462               -0.61344630                1.63655846               -0.05692801                0.06589689                2.43633090
               7.11878735                4.86877591               41.35216860                0.42377900               -0.29639321               -0.11219521                0.76177822               -0.01347196                0.48977828               -2.30555381
               8.11645533                4.40452863               41.07180382                0.01852243                0.48595534                0.47102474               -0.05668688               -2.18778302               11.43463119               -7.88256761
               9.12850645                3.89495081               41.00184522                0.00010000                1.49623952               -0.73332162               -0.32929192               -4.65112306               22.07386572               -2.89757260
              10.14638012                3.36982822               40.93242819                0.00010000                1.92212137               -0.89757196               -0.68771485               -5.70078635               22.51276978               -0.90957602
              11.16694888                2.83413894               40.86885837                0.00010000                2.14248620               -1.02142925               -1.06545999               -6.27919805               22.91085222                1.38110744
              12.18922984                2.29103696               40.80453106                0.00010000                2.19565462               -0.93322674               -1.39132014               -6.23415541               22.77993821                3.61017038
              13.21086197                1.74577406               40.73534972                0.02590257                2.39124399               -0.84193904               -1.63393035               -5.93844959               22.95564675                5.77555056
              14.23705472                1.19663789               40.67135374                0.18420213                2.01216858               -1.74213761               -1.71241120               -2.95477693               12.83080570               10.28023787
              15.25110534                0.69479936               40.39594482                0.43221657                1.07153146                0.01838995               -2.25138071               -0.24120611                1.20031829                3.48459022
              16.25848535                0.19816717               40.09736085                0.81914191                0.73800073                1.82061426               -3.06305368               -0.11320101                0.06530453               -2.07716466
               6.58266980                6.32648166               41.55086133                0.92865137               -0.27008842               -0.51979463                1.38650429               -0.05361010                0.05323023                2.42499288
               7.57996892                5.86813034               41.23876226                0.40388843               -0.17514553               -0.02264326                0.41579671                0.01748336                0.31985672               -2.17399891
               8.57916689                5.40942557               40.93206337                0.00928466                0.80513832                0.51187024               -0.51562049               -2.83969435               15.33830742               -6.90908033
               9.59607169                4.89103776               40.92027091                0.00010000                1.91706796               -0.22818093               -0.73354330               -5.85299321               30.09368302               -3.86400537
              10.61750825                4.36207627               40.90607327                0.00010000                2.30429171               -0.68381429               -0.95976186               -6.47302507               30.11491330               -1.02688187
              11.64215752                3.82402781               40.89163462                0.00010000                2.57320032               -1.01764510               -1.17431049               -6.83240951               30.26545285                1.38573029
              12.66897226                3.28026572               40.87693866                0.00010000                2.79504111               -1.22113811               -1.34323440               -6.86885867               30.45542849                3.73970481
              13.69805834                2.73300092               40.86254194                0.03172769                2.95931093               -1.42619948               -1.43198686               -6.78388888               30.65709381                6.25480812
              14.72815848                2.18047647               40.84802486                0.19209349                2.04370381               -1.43174756               -1.27510954               -3.53993977               16.33785180                7.94492290
              15.73893242                1.69512481               40.54283777                0.44186998                0.85528342                0.06829269               -1.84225463               -0.20758115                0.94978157                2.67006809
              16.74526415                1.21541983               40.21880941                0.82501926                0.63317273                1.57150508               -2.74225124               -0.02706844                0.03405426               -2.31765227
               7.03801363                7.32174889               41.46116692                0.91522153               -0.18205300               -0.42876624                1.14359128               -0.05237523                0.05136555                2.45718594
               8.03619310                6.86832305               41.12618103                0.38733576               -0.06298056                0.06143835                0.07330217                0.02881878                0.33672267               -2.10269294
               9.03675401                6.41476604               40.79693606                0.00266198                1.13013988                0.56682627               -0.94855951               -3.38445546               19.17593548               -6.58904416
              10.05879589                5.89038720               40.83856928                0.00010000                2.35877756                0.04756164               -1.08494627               -6.89383145               37.74874574               -3.81513207
              11.08392957                5.35615193               40.87735462                0.00010000                2.66576713               -0.50877098               -1.20053306               -7.42114445               37.71515193               -1.14858850
              12.11211124                4.81378603               40.91445831                0.00010000                2.94749987               -1.02445494               -1.28694054               -7.74481652               37.79837118                1.36245727
              13.14287956                4.26661419               40.95068351                0.00010000                3.14311033               -1.42786091               -1.32135098               -7.79688297               37.95049535                3.76924209
              14.17497344                3.71725007               40.98643214                0.03778362                3.06262347               -1.60123377               -1.27233094               -7.72799695               37.69967975                6.03403360
              15.20413203                3.16800294               41.01333339                0.20074230                1.85184600               -1.12092227               -0.80745447               -4.05514005               19.66692293                7.13008820
              16.21201036                2.69616522               40.68382160                0.45300858                0.66109594                0.10882840               -1.44528404               -0.19473913                0.96834411                2.20113447
              17.21735395                2.22959727               40.33523994                0.83185141                0.53435886                1.28882711               -2.44287316               -0.02637495                0.04207701               -2.68432336
               7.48847398                8.31790633               41.37183452                0.90285024               -0.09458295               -0.34066863                0.90269204               -0.05153776                0.05235630                2.46943266
               8.48752815                7.86935910               41.01414628                0.37259550                0.04698305                0.14641212               -0.26664062                0.03331264                0.38772989               -2.05718716
               9.48941364                7.42076210               40.66316284                0.00225116                1.46405058                0.63677080               -1.37383525               -3.84592459               23.00744412               -6.46162005
              10.51680916                6.89198900               40.75761413                0.00010000                2.81364436                0.26203945               -1.41333089               -7.82369789               45.31716899               -3.71334540
              11.54568652                6.35190085               40.84856337                0.00010000                2.99948857               -0.35577468               -1.42375732               -8.37581933               45.25468482               -1.13202665
              12.57679893                5.80353871               40.93707100                0.00010000                3.19420175               -1.00247025               -1.39978934               -8.68541964               45.30739342                1.31439134
              13.60957056                5.25170850               41.02409046                0.00010000                3.26553656               -1.49864488               -1.32290245               -8.69345635               45.40358499                3.70373227
              14.64210966                4.70097624               41.10953070                0.04408137                2.92849880               -1.63209325               -1.15977153               -8.33677446               44.52026973                6.03794362
              15.66814054                4.15805802               41.17430068                0.20973039                1.56668211               -0.90650946               -0.32663524               -4.26160030               22.81126238                6.78100698
              16.67344330                3.69730138               40.82094936                0.46452152                0.48660017                0.09898029               -1.05669669               -0.16879468                0.99720825                1.92188141
              17.67787254                3.24119637               40.44815119                0.83882725                0.44292357                1.04732505               -2.15564787               -0.02645175                0.05292180               -2.90911391
               7.93407732                9.31493551               41.28261051                0.89138058               -0.00737414               -0.25391511                0.66197263               -0.05108565                0.05289180                2.45457104
               8.93400358                8.87125129               40.90237866                0.35922536                0.15641540                0.23298109               -0.60601901                0.03289776                0.45515578               -2.03275646
               9.93720563                8.42750145               40.53015213                0.00202862                1.85898024                0.71032060               -1.79482538               -4.24424332               26.86160295               -6.35895527
              10.97118319                7.89562798               40.67770629                0.00010000                3.38289144                0.41063949               -1.72663058               -8.51478862               52.86164007               -3.52687977
              12.00486346                7.34903644               40.82029331                0.00010000                3.37060012               -0.29898383               -1.63219629               -9.01997830               52.71981001               -1.05338875
              13.03859519                6.79373663               40.95936242                0.00010000                3.33547237               -0.94771945               -1.51112163               -9.19437497               52.76520117                1.21144268
              14.07157291                6.23664130               41.09704076                0.00010000                3.16466204               -1.42206065               -1.34811155               -9.18868264               52.92385971                3.53329308
              15.10188843                5.68460821               41.23373181                0.05075083                2.55009913               -1.58938064               -1.10829244               -8.54047600               51.23784048                6.10381274
              16.12257489                5.14987275               41.33293971                0.21909431                1.18038472               -0.75207097                0.16272563               -4.26870426               25.76725169                6.57649476
              17.12549612                4.69814482               40.95585228                0.47630716                0.32300237                0.05784887               -0.67106240               -0.14594306                1.02031550                1.79109833
              18.12903494                4.25054377               40.55905244                0.84580851                0.35388131                0.83368627               -1.87395120               -0.02873309                0.06327333               -2.99226893
               8.37482071               10.31282803               41.19316552                0.88076847                0.07994548               -0.16808669                0.41958525               -0.05102756                0.06430773                2.43538281
               9.37562016                9.87401873               40.79067550                0.34717170                0.26656836                0.32232622               -0.94579368                0.02396352                0.55648861               -2.05512932
              10.38015208                9.43496851               40.39795113                0.00179456                2.46791161                0.77378501               -2.21101743               -4.64411491               30.82344543               -6.07467691
              11.42497840                8.90020179               40.60036108                0.00010000                4.35131182                0.21878835               -2.01898569               -8.82924302               60.43372963               -3.01514190
              12.46717831                8.34592117               40.79344022                0.00010000                4.01640886               -0.61097176               -1.81773836               -8.60567365               60.01629972               -0.85484694
              13.50530657                7.78458433               40.98061640                0.00010000                3.38735067               -0.85630636               -1.61124557               -8.46124760               60.06340609                0.97325184
              14.53492533                7.22326729               41.16776872                0.00010000                2.63810580               -0.99007230               -1.39139805               -8.64607336               60.54038467                2.98430682
              15.55806869                6.66918863               41.35844206                0.05784230                1.71522558               -1.24878763               -1.12862774               -8.29758308               57.99373525                5.77303916
              16.56922984                6.14301660               41.48993965                0.22891145                0.58923645               -0.62087298                0.65660166               -4.20217156               28.63560202                6.21114942
              17.56985342                5.69845836               41.08983914                0.48837994                0.16350699               -0.00323879               -0.28453454               -0.14148550                1.07881987                1.81772444
              18.57249998                5.25787009               40.66937162                0.85278214                0.26465592                0.64061168               -1.59192064               -0.03291976                0.08914697               -2.96971505
               8.81067538               11.31157378               41.10370604                0.87019690                0.16669946               -0.08338931                0.17709682               -0.05081887               -0.01561677                2.10847832
               9.81234237               10.87769782               40.67823793                0.33570097                0.37324485                0.41400327               -1.28971809               -0.00291339                0.85678295               -1.84967764
              10.81814027               10.44297715               40.27010198                0.00117599                3.56516471                0.79529763               -2.60503785               -5.29118013               35.19309616               -4.52429971
              11.88364567                9.90000375               40.53082044                0.00010000                6.51135866               -1.38251809               -2.26615502               -7.05765889               67.97394386               -1.77823813
              12.94836745                9.33681701               40.76999269                0.00010000                5.41892266               -1.18535322               -1.96292262               -5.91464342               66.85791584               -0.49708655
              13.99202412                8.77661050               40.99929267                0.00010000                3.28398442               -0.73388514               -1.68146917               -5.34536158               66.86439552                0.54975616
              15.01404714                8.21683985               41.23073746                0.00010000                1.20816660               -0.21559913               -1.42230842               -5.90476816               68.01293347                1.77172992
              16.01618745                7.65963246               41.47653871                0.06564637               -0.23927017                0.18327574               -1.21260868               -6.24397492               64.90547812                3.90833363
              17.00926173                7.13745529               41.64123197                0.23932155               -0.41872632               -0.42775513                1.13239258               -4.15541628               31.86551118                4.41792236
              18.00781293                6.69808005               41.22476114                0.50070646                0.01456676               -0.07610284                0.10901620               -0.16988925                1.41622952                1.68390109
              19.00955307                6.26335600               40.77987447                0.85953053                0.17401426                0.47036810               -1.30733944               -0.04299787                0.02386789               -2.46818830
               9.24155626               12.31116024               41.00783943                0.93205094                0.26022630               -0.04135383               -0.09064161                0.20194342                0.97953099                1.78379974
              10.24415853               11.88229879               40.57035517                0.66491630                0.52331379                0.46009760               -1.61264660                0.16732632                2.76418766               -1.60464550
              11.25202254               11.45087446               40.16840610                0.48809164                7.29134198                0.78973101               -2.88732524               -7.09914200               40.22307439               -3.20212434
              12.38998537               10.87255142               40.47911301                0.44583047               11.01280778               -2.74523279               -2.42733620               -5.79904794               74.67952974               -1.05935652
              13.47227869               10.32221411               40.75210928                0.43563064                6.41955658               -1.46029001               -2.04861479               -2.74111540               72.73844376               -0.34134739
              14.51837650                9.76990662               41.01375332                0.44666002                3.07646575               -0.67038796               -1.70368542               -2.52770229               72.72803316                0.23959313
              15.53380801                9.21895530               41.27847737                0.47820379               -0.29013715                0.21154542               -1.39538880               -2.87653658               74.27603595                0.93112561
              16.51257375                8.67285415               41.56464243                0.53554439               -4.30670425                1.32216884               -1.19987428               -4.58605990               71.15448651                2.37713893
              17.44767392                8.13446150               41.76207821                0.62339355               -3.60094180               -0.29937859                1.45974490               -4.95467310               36.42433273                2.94524008
              18.44055492                7.69693630               41.35559314                0.75469276               -0.32929105               -0.11437451                0.48387558               -0.08500302                3.71596469                1.50180272
              19.44108810                7.26727746               40.89944471                0.93197782                0.05331852                0.39214524               -0.98321323                0.18761916                1.25838405               -1.97836278
               4.93611056                2.46964085               42.93897243                1.00000000               -0.67769026               -0.74294785                2.48357922               -0.13675493               -1.78898549                2.00116323
               5.92933366                1.97095706               42.69579605                0.89021131               -0.66104839               -0.48410846                1.85114343               -0.10504147               -2.24479959               -0.81477271
               6.92288960                1.47008689               42.44374244                0.62354645               -0.91451458               -0.25758060                1.13144871               -0.51549991               -2.00169445               -1.16218776
               7.91104337                0.95541555               42.20580667                0.50424902               -1.33869195               -0.12909268                0.46964608               -0.69245713                0.01881770               -0.22107720
               8.89611576                0.41380896               41.99487183                0.45443130               -1.26327570                0.07592059               -0.23631600               -0.61158964                2.44187841               -0.18709439
               9.88577786               -0.15696617               41.80598220                0.45593106               -0.40494562                0.27199205               -0.98697353               -0.34744024                3.59039521                0.01468002
              10.88801684               -0.74200641               41.61833441                0.50474074                0.69875648                0.47007602               -1.71063516               -0.34707867                2.59473583                0.19778948
              11.89975299               -1.32125039               41.40957149                0.60802209                1.27816528                0.65963419               -2.35342026               -0.42682771                0.39836933                0.31644462
              12.91358015               -1.88658148               41.17751137                0.78427099                1.30918439                0.81982589               -2.94313351               -0.34595061               -1.62889613                0.51304584
              13.92593667               -2.44103986               40.92720692                1.00000000                1.20581296                0.96608513               -3.49772480               -0.17376821               -2.07072909                1.08614117
              14.93769641               -2.99160994               40.68523731                1.00000000                1.17597364                1.20750827               -4.09248932               -0.15606111               -1.62189731               -1.54257607
               5.43342680                3.46221137               42.84074821                1.00000000               -0.53665728               -0.73101983                2.19729141               -0.04964474                0.30595474                2.35805579
               6.42806023                2.96611598               42.59399395                0.61694433               -0.39607242               -0.40924016                1.51607929               -0.06166110                1.09741409               -1.49410485
               7.42550535                2.46751108               42.36318265                0.14444451                0.20987680               -0.08227079                0.98928781               -0.78451727                3.28381917               -3.74689193
               8.43225776                1.95412463               42.15997147                0.00707592                1.03426851               -0.35043139                0.40061675               -1.93859543                5.63446470               -2.61552246
               9.44619072                1.41456816               41.97543924                0.01026130                1.39766884               -0.81485974               -0.22398984               -3.10641292                7.83886017               -0.26894596
              10.46021114                0.84575375               41.81535280                0.01312302                1.02487231               -0.37732163               -0.91517423               -3.80443795                9.20801573                0.61340418
              11.46668817                0.26269435               41.65704476                0.01285240                0.37805505                0.24586960               -1.58737414               -3.47601522                8.30016997                1.36965729
              12.46777224               -0.31465404               41.47749418                0.12332842                0.16636058                0.38123811               -2.17163355               -2.19039447                6.16684628                3.15084361
              13.47001538               -0.87838322               41.27548883                0.38168074                0.44704903                0.52466393               -2.70554054               -0.88822071                4.33433617                3.79197485
              14.47671322               -1.43137900               41.05867802                0.80470650                0.83452505                0.85324801               -3.18378137               -0.25799209                2.40542985                2.16441820
              15.48670588               -1.97953485               40.81782222                1.00000000                0.99926591                1.24579490               -3.73880136               -0.14024373                1.22642324               -2.02799946
               5.92730845                4.45502045               42.74987828                0.95553298               -0.45077240               -0.69799245                1.91190410               -0.07909197                0.30092183                2.64784770
               6.92280073                3.96277226               42.47866542                0.44334693               -0.40589249               -0.24379911                1.13625920               -0.09699204                1.47116830               -2.34428186
               7.91919060                3.46844147               42.23095437                0.03234575                0.12068253                0.29264798                0.50314675               -1.47703065                6.78456852               -7.68382142
               8.92521438                2.94840693               42.06617039                0.00010000                1.15838857               -0.80451091                0.23224317               -3.99721634               13.64011805               -3.78549301
               9.94235837                2.39751176               41.95418777                0.00010000                1.81742685               -1.37168397               -0.49575370               -5.84306850               16.06509551               -0.76952249
              10.96156291                1.83548740               41.83642060                0.00010000                1.82729825               -1.03581031               -1.03919105               -6.53110655               15.87104910                1.18666752
              11.97890434                1.26291098               41.71879867                0.00010000                1.77298733               -0.38795281               -1.54028988               -6.39493964               15.99185323                2.98622543
              12.99702266                0.68637438               41.60160121                0.01866178                1.68181793               -0.16224198               -2.04172301               -4.78435854               13.80193692                5.61551266
              14.01254070                0.12391180               41.43843463                0.17955815                1.24529030               -0.85516694               -2.23487288               -2.06575079                8.46109280                9.64563419
              15.02192847               -0.42397490               41.21117178                0.44350950                0.93312695                0.36673358               -2.78341486               -0.66085591                3.11038347                3.69925547
              16.03120324               -0.96669404               40.94022859                0.83269708                0.92747678                1.64341981               -3.49548852               -0.51957964                0.95815772               -2.32476662
               6.41634134                5.44825152               42.65762936                0.93130167               -0.36419779               -0.62918663                1.66814422               -0.05878053                0.06299923                2.53832744
               7.41269937                4.96124000               42.35980220                0.40989405               -0.30056361               -0.10742002                0.76392354               -0.01333488                0.51563243               -2.41589314
               8.41033007                4.47336404               42.07112228                0.01520325                0.52718889                0.50424689               -0.08090666               -2.28698998               11.76255192               -8.25356546
               9.42324314                3.93803441               41.99827973                0.00010000                1.59594032               -0.69957819               -0.38491537               -4.83195274               22.62150918               -3.33744297
              10.44224888                3.38713449               41.92517858                0.00010000                2.04733254               -0.90643110               -0.76415482               -5.88243850               22.99694628               -1.18031726
              11.46418979                2.82503755               41.85773753                0.00010000                2.28267606               -1.03394744               -1.16110441               -6.48612969               23.39829351                1.20195745
              12.48790240                2.25493529               41.79008212                0.00010000                2.34472266               -0.94515303               -1.50154266               -6.45877835               23.32301431                3.53255445
              13.51108425                1.68210112               41.71844281                0.02233439                2.55736181               -0.86144221               -1.75129286               -6.19188384               23.60665991                5.84320436
              14.53904964                1.10451344               41.65350300                0.17655524                2.15088480               -1.80074552               -1.86081683               -3.14293341               13.32408410               10.48203807
              15.55410194                0.57595567               41.37293911                0.41690892                1.13514699                0.01527062               -2.34730006               -0.27963874                1.33731335                3.60437745
              16.56175257                0.05333354               41.06623645                0.80813821                0.76506315                1.89784557               -3.16628444               -0.11525664                0.06396411               -2.14715277
               6.90015589                6.44243672               42.56487956                0.91645857               -0.27343802               -0.53419354                1.41836182               -0.05505219                0.05386289                2.52892998
               7.89742151                5.96062386               42.24290549                0.39047230               -0.17497501               -0.01997445                0.41237097                0.02095003                0.34079258               -2.27327401
               8.89665639                5.47852641               41.92673804                0.00613755                0.86916850                0.53567186               -0.55128823               -2.94305807               15.73695911               -7.21256157
               9.91480488                4.93441536               41.91259364                0.00010000                2.05250381               -0.20342077               -0.80341790               -6.05083849               30.83411726               -4.17501639
              10.93770646                4.37938314               41.89602377                0.00010000                2.46173185               -0.68202594               -1.05285463               -6.67476582               30.84614476               -1.28636737
              11.96403952                3.81480845               41.87936243                0.00010000                2.74793685               -1.02912696               -1.28413529               -7.04929592               31.01236279                1.20970067
              12.99266520                3.24400792               41.86293195                0.00010000                2.97836586               -1.23703570               -1.46363114               -7.10479438               31.25230314                3.65193540
              14.02360683                2.66914553               41.84762947                0.02802976                3.15811377               -1.44145255               -1.55800123               -7.07749081               31.59214169                6.26112448
              15.05582748                2.08789689               41.83447768                0.18424587                2.19543804               -1.46849914               -1.44110084               -3.74095078               17.03082187                8.18725768
              16.06751559                1.57633052               41.52393037                0.42631390                0.91574383                0.07954703               -1.93990044               -0.25047445                1.13140788                2.76239594
              17.07414235                1.07126287               41.19086932                0.81389084                0.66267601                1.63351680               -2.85198469               -0.02596525                0.03906040               -2.42136810
               7.37886602                7.43756765               42.47274512                0.90341420               -0.18373431               -0.44141796                1.17313783               -0.05371972                0.05223681                2.56462234
               8.37702868                6.96084051               42.12685568                0.37446562               -0.05943062                0.06494384                0.06113361                0.03397648                0.36282818               -2.20038731
               9.37767741                6.48407748               41.78721351                0.00258583                1.21704827                0.58800933               -0.99694834               -3.49610862               19.67203012               -6.87658724
              10.40136964                5.93396599               41.82731979                0.00010000                2.53415331                0.06462706               -1.16711943               -7.11581538               38.68722490               -4.08330633
              11.42836047                5.37349397               41.86484010                0.00010000                2.86047295               -0.50813278               -1.30593361               -7.64952478               38.66742257               -1.37484285
              12.45857910                4.80445501               41.90101860                0.00010000                3.15544792               -1.03829901               -1.40630365               -7.97912377               38.77854970                1.19484484
              13.49146943                4.23019458               41.93688477                0.00010000                3.35331792               -1.44610360               -1.44582628               -8.04508371               38.98537202                3.66858236
              14.52564546                3.65327207               41.97315654                0.03387893                3.27881019               -1.61113716               -1.39262527               -8.04733919               38.95672409                6.00929700
              15.55704563                3.07514346               42.00446710                0.19264335                2.00405075               -1.14215547               -0.97644324               -4.27736302               20.58042082                7.40288566
              16.56572647                2.57754661               41.66889508                0.43721335                0.71614625                0.12986549               -1.54301897               -0.23290064                1.16907193                2.27870108
              17.57136856                2.08600388               41.31026882                0.82053943                0.56420865                1.34188606               -2.55777002               -0.02485215                0.04948354               -2.81398032
               7.85253578                8.43360836               42.38098519                0.89132577               -0.09445698               -0.35133920                0.92862909               -0.05276621                0.05382569                2.57683871
               8.85159121                7.96192274               42.01137315                0.36014040                0.05364752                0.15261367               -0.28858603                0.03888837                0.42219948               -2.15375201
               9.85360873                7.49028660               41.64912752                0.00218250                1.57404368                0.65936445               -1.43461824               -3.96924191               23.61148703               -6.74301374
              10.88307208                6.93570790               41.74302535                0.00010000                3.03091128                0.27286721               -1.50700205               -8.07101590               46.45949237               -3.95789392
              11.91422696                6.36922049               41.83377370                0.00010000                3.23421735               -0.36426235               -1.53839378               -8.62862673               46.41836001               -1.33296466
              12.94775643                5.79404247               41.92248272                0.00010000                3.43597577               -1.02567167               -1.52397717               -8.93446055               46.50331281                1.16000799
              13.98294647                5.21508585               42.01029671                0.00010000                3.49773682               -1.52402174               -1.44411261               -8.94411162               46.65848124                3.59407891
              15.01771117                4.63692279               42.09747171                0.04002846                3.15296019               -1.64079115               -1.26319419               -8.66762155               46.12178240                5.97190649
              16.04600567                4.06505378               42.17027683                0.20136539                1.71429984               -0.91652990               -0.49111441               -4.49302593               23.96592424                7.06902786
              17.05199716                3.57892783               41.80992189                0.44837963                0.53625485                0.12469431               -1.15306023               -0.19998905                1.20581665                1.99306267
              18.05673077                3.09810059               41.42603269                0.82732439                0.47336083                1.09535035               -2.27495364               -0.02480298                0.06241736               -3.05109276
               8.32118194                9.43054087               42.28933481                0.88018013               -0.00537347               -0.26264753                0.68390358               -0.05223752                0.05444330                2.56033197
               9.32112821                8.96389278               41.89616193                0.34723388                0.16627297                0.24248057               -0.63803357                0.03793027                0.49899433               -2.12913454
              10.32450740                8.49726477               41.51184045                0.00196117                1.99436130                0.73527114               -1.86865761               -4.38465392               27.58069049               -6.63556733
              11.36101543                7.93942334               41.65993469                0.00010000                3.64729850                0.41182962               -1.83051437               -8.78922981               54.21351772               -3.74887222
              12.39745337                7.36620872               41.80338678                0.00010000                3.65045487               -0.32596992               -1.75362713               -9.28948305               54.08860353               -1.22652016
              13.43402453                6.78394157               41.94365573                0.00010000                3.61267554               -0.98903060               -1.63649718               -9.44172266               54.15924778                1.07607051
              14.46970688                6.19971414               42.08303498                0.00010000                3.41502812               -1.45956456               -1.46097243               -9.42131005               54.37045275                3.41718119
              15.50232509                5.62045624               42.22230392                0.04646212                2.77365985               -1.60438366               -1.18775367               -8.85751147               53.20287965                5.98263275
              16.52518008                5.05681286               42.33386805                0.21044063                1.31773943               -0.75337971                0.00789113               -4.50003780               27.19385078                6.87447059
              17.52867988                4.58004049               41.94870138                0.45979246                0.36734444                0.08478653               -0.76458149               -0.17011598                1.23064048                1.86331757
              18.53252697                4.10791088               41.53973551                0.83407765                0.38470865                0.87861765               -1.99666843               -0.02695967                0.07410542               -3.13659663
               8.78478720               10.42835541               42.19744501                0.86985638                0.08387141               -0.17505079                0.43720721               -0.05215722                0.06650305                2.53954396
               9.78562591                9.96677235               41.78101267                0.33566004                0.27989474                0.33526569               -0.98770925                0.02694017                0.61229369               -2.15335983
              10.79038509                9.50499202               41.37541700                0.00172796                2.63588108                0.79937326               -2.29653164               -4.81134465               31.66765911               -6.33672967
              11.83834353                8.94394450               41.57962240                0.00010000                4.67669821                0.19446890               -2.13160602               -9.13130504               62.00235517               -3.19992075
              12.88391906                8.36270109               41.77465281                0.00010000                4.35365098               -0.67392556               -1.94422426               -8.86402452               61.58270725               -0.98786068
              13.92541655                7.77426186               41.96390878                0.00010000                3.70432720               -0.92254588               -1.73610995               -8.67267664               61.63184202                0.86956116
              14.95800560                7.18589455               42.15337156                0.00010000                2.90228314               -1.04257145               -1.49489148               -8.82657071               62.13563145                2.87680712
              15.98346222                6.60483512               42.34691478                0.05337280                1.92075324               -1.27423996               -1.18256124               -8.55953120               60.33555591                5.59285369
              16.99642067                6.04998619               42.49587390                0.21993445                0.70173019               -0.61085631                0.51482230               -4.42536603               30.37341636                6.50601374
              17.99749682                5.58062356               42.08658071                0.47145400                0.20150651                0.02298640               -0.37319580               -0.16169636                1.28972613                1.89738813
              19.00045080                5.11567295               41.65286895                0.84083056                0.29539761                0.68274651               -1.71616205               -0.03129649                0.10199385               -3.10970291
               9.24330492               11.42703985               42.10554116                0.85958472                0.17254802               -0.08874317                0.19068824               -0.05193191               -0.01813661                2.19919159
              10.24503040               10.97059809               41.66508755                0.32464526                0.39017195                0.43014463               -1.34150359               -0.00496938                0.93507826               -1.93847579
              11.25110836               10.51325223               41.24357979                0.00113076                3.78249312                0.81458781               -2.69996637               -5.49841260               36.18653263               -4.71750004
              12.32068026                9.94331272               41.50757520                0.00010000                6.93735792               -1.48729254               -2.38558085               -7.31668625               69.76410695               -1.89228941
              13.38985552                9.35273021               41.74973039                0.00010000                5.83486340               -1.28766366               -2.09374511               -6.09563540               68.60372788               -0.57037816
              14.43737753                8.76549066               41.98187724                0.00010000                3.63733471               -0.82187873               -1.80670831               -5.46887809               68.58193149                0.49391447
              15.46260221                8.17886271               42.21605161                0.00010000                1.48326527               -0.28454506               -1.51966458               -5.99901555               69.69845512                1.70423550
              16.46704284                7.59497144               42.46423214                0.06095418               -0.08589475                0.15004048               -1.24949976               -6.39969176               67.60541990                3.74851518
              17.46088432                7.04459574               42.65199451                0.23006125               -0.36418205               -0.39162725                1.00484752               -4.33919670               33.95316172                4.63238762
              18.45975919                6.58050022               42.22547216                0.48338572                0.04589716               -0.05135440                0.02725231               -0.19288555                1.63820510                1.76131102
              19.46180226                6.12156581               41.76621610                0.84730199                0.20430647                0.50987133               -1.43166247               -0.04237724                0.03403844               -2.58252264
               9.69663207               12.42658055               42.00697245                0.92685582                0.26820705               -0.04593044               -0.08210544                0.21218472                1.01871218                1.86113057
              10.69931414               11.97537524               41.55393582                0.65950793                0.55350739                0.47771458               -1.67244991                0.16353577                2.93395331               -1.68179245
              11.70770222               11.52128378               41.13904229                0.48707375                7.66088458                0.80315423               -2.98586802               -7.39944358               41.40084646               -3.34057977
              12.85253183               10.91419865               41.45423055                0.44586133               11.60630946               -2.91140705               -2.55153738               -6.03164080               76.64052413               -1.11465480
              13.93982841               10.33694781               41.73096464                0.43573723                6.86873269               -1.57823934               -2.18407138               -2.82142882               74.62194798               -0.37412180
              14.98990649                9.75782428               41.99609182                0.44644035                3.43580481               -0.76663721               -1.83304750               -2.58431230               74.57265734                0.21502484
              16.00854451                9.18020365               42.26404217                0.47723203               -0.00855642                0.13409406               -1.49474796               -2.90518857               76.05528962                0.89600436
              16.98973536                8.60783593               42.55245735                0.53309973               -4.22182756                1.28644822               -1.23616299               -4.63324818               74.08573178                2.25669115
              17.92410795                8.04215364               42.77612621                0.61867140               -3.65331643               -0.24420934                1.33547213               -5.08960901               38.81645581                3.09455493
              18.91666903                7.57959647               42.36008214                0.74590117               -0.33179437               -0.09037528                0.40892007               -0.12317985                4.04624110                1.57308460
              19.91747207                7.12587037               41.88903986                0.92579054                0.08030358                0.43045582               -1.10404404                0.19437111                1.32494770               -2.06818971
               5.16440932                2.58960776               43.96401091                1.00000000               -0.69081726               -0.75262351                2.52984763               -0.14233537               -1.81889471                2.06460537
               6.15750115                2.06585964               43.71443642                0.88008078               -0.67751684               -0.48725340                1.87980009               -0.10986016               -2.32231076               -0.90146187
               7.15085899                1.53977752               43.45508523                0.61933666               -0.94150609               -0.25917198                1.13808871               -0.52769703               -2.09725895               -1.15122592
               8.13867103                0.99932277               43.21043247                0.50295640               -1.36930668               -0.12460439                0.45519558               -0.69962182               -0.06805343               -0.23381746
               9.12347285                0.43127079               42.99231387                0.45412788               -1.28540093                0.08655883               -0.27597296               -0.61537927                2.31452068               -0.19530604
              10.11296301               -0.16656916               42.79579771                0.45549688               -0.41813402                0.28848675               -1.05086561               -0.35054396                3.45308435                0.00936346
              11.11511017               -0.77934669               42.60080196                0.50332213                0.70135758                0.49238528               -1.79687392               -0.34442717                2.49895596                0.19735403
              12.12699016               -1.38688364               42.38553415                0.60450030                1.30600824                0.68805395               -2.45870588               -0.42514249                0.35065255                0.32002600
              13.14123034               -1.98063137               42.14749512                0.77707191                1.36096773                0.85323694               -3.06472338               -0.35234295               -1.63549929                0.50905039
              14.15420952               -2.56327331               41.89187276                1.00000000                1.26259069                1.00581333               -3.63610120               -0.19073481               -2.06864116                1.07108578
              15.16648215               -3.14150217               41.64402504                1.00000000                1.22726346                1.24679451               -4.25411453               -0.16469281               -1.61454616               -1.60254851
               5.68673409                3.58208153               43.86287186                1.00000000               -0.54164222               -0.73906891                2.22112775               -0.05416923                0.32431691                2.42234507
               6.68131767                3.06098711               43.60921002                0.59945779               -0.39418189               -0.40896461                1.52742843               -0.07136934                1.19694484               -1.60168318
               7.67885045                2.53718580               43.37310747                0.13839003                0.23052557               -0.06942529                0.99724959               -0.82427544                3.42831479               -3.91330378
               8.68592818                1.99807672               43.16391518                0.00713554                1.07072862               -0.38183475                0.38855994               -1.98788824                5.71824497               -2.68180277
               9.70026502                1.43213638               42.97303315                0.01018058                1.44190643               -0.81864361               -0.25614334               -3.17350350                7.85521089               -0.42376682
              10.71476631                0.83631571               42.80592235                0.01297595                1.07790574               -0.38129090               -0.96862224               -3.88809576                9.18088553                0.50780494
              11.72182314                0.22557717               42.64077948                0.01292393                0.43073855                0.24820469               -1.66176715               -3.57410121                8.31211875                1.33063792
              12.72338108               -0.38000310               42.45529701                0.11802660                0.20393017                0.40424829               -2.26448169               -2.29176448                6.24115808                3.13002086
              13.72590174               -0.97209900               42.24789093                0.37041106                0.46782463                0.54245500               -2.81161190               -0.92559082                4.46937328                3.91521510
              14.73273757               -1.55321517               42.02647644                0.78368532                0.85811739                0.88771714               -3.30174868               -0.27226065                2.54485788                2.21054811
              15.74306409               -2.12903423               41.78011448                1.00000000                1.03265195                1.28000785               -3.87404340               -0.14034766                1.34353025               -2.11834104
               6.20551478                4.57482638               43.76912511                0.94265641               -0.45452914               -0.70857393                1.93624860               -0.08643324                0.32302624                2.73923719
               7.20096949                4.05768035               43.49004649                0.42901639               -0.41154588               -0.23845589                1.13520728               -0.10739775                1.56689996               -2.46783908
               8.19728386                3.53838902               43.23593193                0.02868277                0.14966034                0.32439224                0.49378302               -1.58079447                7.13558089               -8.07607081
               9.20396269                2.99168607               43.06833277                0.00010000                1.22399702               -0.81490104                0.19687399               -4.12694732               13.93547559               -4.13388269
              10.22176380                2.41489791               42.94894156                0.00010000                1.88988058               -1.38752497               -0.55374095               -5.96424145               16.20613106               -1.06524081
              11.24176030                1.82580502               42.82563597                0.00010000                1.90915767               -1.05397243               -1.11757708               -6.70178018               16.10953010                0.97551026
              12.25994695                1.22561741               42.70291739                0.00010000                1.85353671               -0.40112007               -1.63594198               -6.57209914               16.23711853                2.88600423
              13.27883104                0.62120133               42.58062467                0.01511438                1.79918217               -0.16935087               -2.15028552               -4.96032350               14.19245977                5.63971055
              14.29593060                0.03021773               42.41565721                0.17149458                1.34342473               -0.88326964               -2.31912342               -2.17909674                8.82178242                9.82388818
              15.30569953               -0.54551896               42.18285339                0.42679764                0.96913563                0.36717480               -2.87225103               -0.68695771                3.20308621                3.81720456
              16.31531331               -1.11590202               41.90471141                0.82053765                0.96137763                1.68088063               -3.60723887               -0.53301201                0.97135358               -2.41474759
               6.71929749                5.56791005               43.67447011                0.91875028               -0.36904159               -0.64409414                1.70310798               -0.06018431                0.05902462                2.65196551
               7.71560708                5.05621799               43.36744707                0.39601646               -0.30343279               -0.10344858                0.76513981               -0.01397978                0.54154549               -2.52788140
               8.71322884                4.54367365               43.07018568                0.01180177                0.56366289                0.53470481               -0.10913287               -2.37526115               12.09137579               -8.63934386
               9.72688034                3.98177870               42.99414692                0.00010000                1.68162046               -0.65943472               -0.44270064               -4.98910830               23.17177825               -3.80229122
              10.74686125                3.40438588               42.91714509                0.00010000                2.15654379               -0.91052566               -0.84437323               -6.03219427               23.48764753               -1.47909515
              11.77001121                2.81523626               42.84563628                0.00010000                2.40618013               -1.04321352               -1.26136696               -6.65474082               23.89282779                0.99364045
              12.79498485                2.21755476               42.77450021                0.00010000                2.47815367               -0.95578144               -1.61783724               -6.64110257               23.87642682                3.42721752
              13.81957428                1.61660988               42.70032387                0.01872126                2.70276257               -0.88458249               -1.87631055               -6.38973735               24.25681619                5.88911063
              14.84904010                1.01023561               42.63413741                0.16881971                2.27719401               -1.84800995               -2.01624802               -3.29690700               13.84613433               10.63648926
              15.86511816                0.45412832               42.34899882                0.40157088                1.20649280               -0.00321363               -2.43808578               -0.30914129                1.51137557                3.71694314
              16.87316996               -0.09541662               42.03403516                0.79719540                0.80517918                1.94310565               -3.28080899               -0.11178699                0.06626048               -2.22755367
               7.22769521                6.56194450               43.57922856                0.90434456               -0.27689190               -0.54871742                1.45328464               -0.05632550                0.05437684                2.64016553
               8.22492629                6.05561138               43.24700968                0.37710621               -0.17386432               -0.01851778                0.40773451                0.02564041                0.36289684               -2.37804853
               9.22421792                5.54908311               42.92103761                0.00341928                0.92710053                0.55855816               -0.59051175               -3.03061614               16.13867179               -7.53133898
              10.24346830                4.97849738               42.90420255                0.00010000                2.17222190               -0.17446735               -0.87661108               -6.21811235               31.58022925               -4.50636561
              11.26766236                4.39668740               42.88501618                0.00010000                2.60141496               -0.67403628               -1.15150414               -6.84193365               31.58791447               -1.57073334
              12.29549660                3.80494075               42.86595192                0.00010000                2.90444581               -1.03368103               -1.40237628               -7.22796371               31.77241888                1.00850036
              13.32575128                3.20650178               42.84766604                0.00010000                3.14294251               -1.24668425               -1.59591686               -7.29834254               32.06374467                3.54233808
              14.35835545                2.60350968               42.83138191                0.02429805                3.33613718               -1.45080525               -1.70046600               -7.31464677               32.52431538                6.25254786
              15.39247402                1.99325753               42.81920284                0.17639362                2.34067411               -1.49870560               -1.62324069               -3.90655543               17.75821818                8.41032016
              16.40516893                1.45441676               42.50403976                0.41086196                0.98467141                0.08096935               -2.03819488               -0.29127614                1.36015798                2.84248528
              17.41216745                0.92296010               42.16176972                0.80284473                0.69985165                1.67854536               -2.97379156               -0.02435750                0.04574048               -2.54355643
               7.73083723                7.55693570               43.48462967                0.89158808               -0.18559577               -0.45455428                1.20535724               -0.05483860                0.05330967                2.67726018
               8.72898127                7.05584763               43.12740371                0.36155705               -0.05533584                0.06832204                0.04765749                0.04063169                0.39216487               -2.30549734
               9.72973051                6.55484481               42.77699709                0.00249859                1.29662646                0.60958844               -1.04788743               -3.58925086               20.17570037               -7.18007679
              10.75491380                5.97828936               42.81522689                0.00010000                2.69243444                0.08594171               -1.25401576               -7.30275679               39.63599368               -4.37056221
              11.78357920                5.39090515               42.85123594                0.00010000                3.03618797               -0.49962638               -1.41895715               -7.83963615               39.63554604               -1.62173406
              12.81563756                4.79456264               42.88633224                0.00010000                3.34349348               -1.04195024               -1.53724080               -8.17192478               39.77886442                1.00818348
              13.85044907                4.19262108               42.92176699                0.00010000                3.54440178               -1.45309577               -1.58685818               -8.24844686               40.04481893                3.55510826
              14.88652560                3.58759378               42.95857963                0.02995430                3.47764184               -1.61213452               -1.53558337               -8.30749224               40.21353307                5.98517414
              15.92000191                2.98026149               42.99380452                0.18451927                2.15322411               -1.16099513               -1.16919585               -4.46556295               21.52891549                7.66929529
              16.92959008                2.45574771               42.65296122                0.42140105                0.77971169                0.14697842               -1.64686883               -0.27361814                1.42113397                2.34651236
              17.93559614                1.93815429               42.28408454                0.80933105                0.60060637                1.38738615               -2.68650968               -0.02274982                0.05933998               -2.96186355
               8.22877457                8.55285342               43.39040711                0.87979411               -0.09447578               -0.36266807                0.95717078               -0.05382391                0.05537848                2.68893529
               9.22782981                8.05697782               43.00837456                0.34767464                0.06083066                0.15907236               -0.31205231                0.04590139                0.46165589               -2.25795874
              10.22999118                7.56127488               42.63447047                0.00210391                1.67615079                0.68279067               -1.49878117               -4.07227192               24.22853309               -7.04065800
              11.26135283                6.98021621               42.72747408                0.00010000                3.23025872                0.28820642               -1.60624155               -8.27932995               47.61879718               -4.21946980
              12.29459636                6.38669487               42.81779550                0.00010000                3.44946740               -0.36391138               -1.66225234               -8.83895885               47.60533468               -1.55010301
              13.33034217                5.78410175               42.90659145                0.00010000                3.65774208               -1.03653298               -1.66188718               -9.13803167               47.72917594                0.99340180
              14.36775120                5.17743986               42.99520820                0.00010000                3.71115074               -1.53555026               -1.58454895               -9.14750281               47.95213689                3.48138350
              15.40456519                4.57126699               43.08426682                0.03587915                3.36288170               -1.63879964               -1.39263290               -8.94074361               47.72751599                5.91927974
              16.43500883                3.97003763               43.16447839                0.19295434                1.86192922               -0.92482037               -0.68547325               -4.69290590               25.15264745                7.36024928
              17.44180377                3.45735633               42.79788815                0.43230446                0.59452292                0.15023242               -1.25928855               -0.23392108                1.46708940                2.05721840
              18.44689929                2.95070782               42.40265212                0.81590451                0.50955164                1.14106462               -2.40976320               -0.02221954                0.07427193               -3.21045984
               8.72151195                9.54968234               43.29628858                0.86895239               -0.00341135               -0.27204280                0.70798139               -0.05328201                0.05608616                2.67056398
               9.72147783                9.05902908               42.88961799                0.33521497                0.17673671                0.25240447               -0.67175084                0.04412632                0.54958675               -2.23286553
              10.72504668                8.56850063               42.49277897                0.00188316                2.12146898                0.76098452               -1.94522736               -4.50356244               28.31863673               -6.92707579
              11.76390721                7.98405349               42.64109600                0.00010000                3.89339061                0.41733238               -1.94051104               -9.02184221               55.59039514               -3.98509796
              12.80291449                7.38362692               42.78522077                0.00010000                3.91123637               -0.34372640               -1.88510089               -9.51358896               55.48969361               -1.41125465
              13.84213194                6.77383198               42.92663248                0.00010000                3.87096410               -1.01738536               -1.77636031               -9.64171755               55.59504398                0.93475993
              14.88033377                6.16191007               43.06782131                0.00010000                3.64905097               -1.48265295               -1.59331196               -9.60667182               55.87268940                3.30512574
              15.91511296                5.55481779               43.20997673                0.04216936                2.98603370               -1.60747492               -1.29252922               -9.12163565               55.17670217                5.88452798
              16.94005445                4.96176509               43.33309753                0.20173082                1.45642548               -0.75136051               -0.18115220               -4.70210111               28.64664324                7.18321991
              17.94424147                4.45875236               42.94056065                0.44334621                0.41971651                0.11395044               -0.87026007               -0.19701915                1.49361331                1.93158238
              18.94844878                3.96097558               42.51911907                0.82246429                0.42073102                0.92438156               -2.13552788               -0.02447307                0.08756407               -3.29627717
               9.20901544               10.54741256               43.20190967                0.85894003                0.08786071               -0.18260809                0.45668979               -0.05326968                0.06882669                2.64825008
              10.20989405               10.06202591               42.77092131                0.32413284                0.29400429                0.34880374               -1.03175001                0.03047448                0.67722124               -2.25854700
              11.21489553                9.57649457               42.35202050                0.00165032                2.79478179                0.82506169               -2.38380574               -4.95632242               32.53706553               -6.61092071
              12.26578968                8.98856286               42.55772896                0.00010000                4.98252777                0.17481684               -2.25042580               -9.39021156               63.60411371               -3.39563628
              13.31454608                8.37982035               42.75455573                0.00010000                4.67174931               -0.72646524               -2.08080106               -9.07916735               63.19055293               -1.12816131
              14.35922467                7.76375404               42.94589420                0.00010000                4.00429347               -0.97631148               -1.87498014               -8.84119771               63.25364872                0.76454656
              15.39463195                7.14778680               43.13787089                0.00010000                3.15263958               -1.08280620               -1.61548271               -8.96544896               63.80470999                2.77723619
              16.42227746                6.53911749               43.33479083                0.04883821                2.12001432               -1.28787955               -1.25610471               -8.77681969               62.68946815                5.43744273
              17.43703224                5.95501042               43.50023609                0.21092577                0.81877163               -0.59571767                0.33796617               -4.62258273               32.13055494                6.81652425
              18.43865290                5.45963534               43.08237523                0.45459306                0.24655697                0.05262383               -0.47523724               -0.18505013                1.55232657                1.97686473
              19.44196338                4.96919545               42.63504838                0.82897635                0.33104830                0.72795267               -1.85727580               -0.02913031                0.11764627               -3.26275833
               9.69121985               11.54603018               43.10751980                0.84899111                0.17854523               -0.09461408                0.20576806               -0.05308603               -0.02094975                2.29404174
              10.69300531               11.06600516               42.65140786                0.31355788                0.40817115                0.44702527               -1.39570348               -0.00773093                1.02548023               -2.03293498
              11.69938328               10.58500186               42.21610265                0.00107819                3.98859503                0.83216441               -2.79605711               -5.68030609               37.21240168               -4.91877030
              12.77277721                9.98754982               42.48310883                0.00010000                7.33783441               -1.58076106               -2.51088101               -7.54102133               71.59466489               -2.01315937
              13.84613997                9.36909762               42.72811779                0.00010000                6.22821597               -1.37785907               -2.23408823               -6.24668898               70.39752632               -0.64696074
              14.89734153                8.75430575               42.96315851                0.00010000                3.97606891               -0.89880416               -1.94461708               -5.56581119               70.36175181                0.43867073
              15.92566134                8.14025395               43.20034417                0.00010000                1.75057113               -0.34462645               -1.63061044               -6.06646144               71.47232361                1.64423476
              16.93235295                7.52906020               43.45154872                0.05616853                0.07117996                0.12100271               -1.29633647               -6.52381654               70.32572911                3.60417619
              17.92708494                6.94985073               43.66132892                0.22074750               -0.29987575               -0.34606087                0.84215307               -4.49546773               36.05946161                4.85964738
              18.92635543                6.45980483               43.22530618                0.46611774                0.08305050               -0.02286558               -0.06764288               -0.22014544                1.91152204                1.84123698
              19.92874595                5.97553464               42.75124122                0.83520440                0.23905187                0.55353442               -1.57222189               -0.04160809                0.04686181               -2.70625940
              10.16800376               12.54552028               43.00619732                0.92162246                0.27639849               -0.05098989               -0.07229404                0.22300433                1.05984595                1.94206329
              11.17076775               12.07096641               42.53690618                0.65414812                0.58704885                0.49612571               -1.73491769                0.15712325                3.12190718               -1.76336948
              12.17974474               11.59313786               42.10868873                0.48603328                8.00528764                0.81360024               -3.08511967               -7.66479249               42.61890604               -3.48488635
              13.33087350               10.95694764               42.42808226                0.44590592               12.15558187               -3.06021826               -2.68092117               -6.23410561               78.64259886               -1.17141221
              14.42285638               10.35226316               42.70842785                0.43584717                7.29393074               -1.68344531               -2.32798620               -2.88684310               76.55414709               -0.40634865
              15.47675211                9.74577796               42.97709237                0.44620214                3.78459500               -0.85277928               -1.97343911               -2.62738570               76.48176047                0.19326488
              16.49854828                9.14089427               43.24858241                0.47627891                0.27261167                0.06403244               -1.60520853               -2.92332736               77.92744041                0.86825794
              17.48220435                8.54153754               43.53991917                0.53063255               -4.10850151                1.24773479               -1.27605372               -4.65511382               77.04653362                2.14707060
              18.41637825                7.94808920               43.78878765                0.61389649               -3.68191317               -0.17615329                1.17775065               -5.18864546               41.23863533                3.25412697
              19.40856608                7.45917803               43.36377154                0.73717947               -0.33533168               -0.06268058                0.32302766               -0.17008816                4.43508967                1.64799511
              20.40967161                6.98026614               42.87736382                0.91964161                0.11055283                0.47315017               -1.23889240                0.20137691                1.39782447               -2.16451086
               5.39888166                2.71321106               44.98956939                1.00000000               -0.70685294               -0.76669903                2.58644027               -0.14752798               -1.85590361                2.11597584
               6.39181313                2.16338062               44.73339205                0.87009151               -0.69666489               -0.49083788                1.91180110               -0.11462005               -2.40765909               -0.99614576
               7.38494836                1.61101789               44.46650421                0.61505077               -0.96797337               -0.26195885                1.14579913               -0.53852880               -2.20102184               -1.13576982
               8.37245366                1.04377379               44.21491058                0.50157089               -1.39537130               -0.11855162                0.43862334               -0.70334807               -0.16222984               -0.24748184
               9.35704094                0.44846428               43.98935238                0.45384332               -1.30511072                0.10008499               -0.31811635               -0.61541587                2.18069207               -0.20367261
              10.34635145               -0.17702819               43.78496489                0.45513105               -0.43907077                0.30997804               -1.11717921               -0.35082477                3.31263716                0.00416798
              11.34825952               -0.81801436               43.58239694                0.50192324                0.68607170                0.52060310               -1.88697197               -0.33773241                2.40396042                0.19687759
              12.36007288               -1.45437557               43.36039738                0.60102511                1.31360211                0.72314277               -2.57405161               -0.41777936                0.31092075                0.32504272
              13.37453156               -2.07719209               43.11621690                0.77029039                1.39805227                0.89510788               -3.20833760               -0.35331224               -1.65434067                0.50366052
              14.38803393               -2.68882551               42.85448490                1.00000000                1.32846772                1.06768346               -3.85032238               -0.19709546               -2.10691497                1.07301026
              15.40110092               -3.29583979               42.60015502                1.00000000                1.30669894                1.32517383               -4.52431184               -0.18147876               -1.65926167               -1.64757468
               5.94723682                3.70554407               44.88517077                1.00000000               -0.54733035               -0.75020577                2.24693830               -0.05495454                0.36074854                2.48981293
               6.94176351                3.15847224               44.62454252                0.58220806               -0.39351654               -0.41010959                1.54815961               -0.08134966                1.31244550               -1.71770271
               7.93936649                2.60839830               44.38312764                0.13236420                0.24667353               -0.05880251                1.00697458               -0.86081932                3.58142558               -4.08491435
               8.94669699                2.04258828               44.16774267                0.00717462                1.09606394               -0.41381286                0.37761979               -2.02362860                5.80439258               -2.76434587
               9.96128777                1.44946513               43.97031637                0.01008648                1.46927676               -0.81846391               -0.28638798               -3.21899104                7.87506243               -0.59698502
              10.97608252                0.82607160               43.79598036                0.01283344                1.11340616               -0.38440691               -1.01760876               -3.94236108                9.15799547                0.38163598
              11.98355589                0.18719167               43.62380942                0.01301653                0.47007159                0.24623447               -1.72928442               -3.64086276                8.33110982                1.27034934
              12.98548395               -0.44714414               43.43220455                0.11276756                0.23337601                0.42586496               -2.35177636               -2.36867590                6.32982409                3.09105853
              13.98822341               -1.06824101               43.21925659                0.35946592                0.49514358                0.56675853               -2.92288159               -0.93942349                4.60796709                4.03676025
              14.99538682               -1.67814868               42.99264305                0.76429818                0.90384982                0.93361654               -3.47034930               -0.27224924                2.67716339                2.28040563
              16.00630041               -2.28258805               42.74034135                1.00000000                1.09135821                1.34650579               -4.08734159               -0.15327028                1.45062160               -2.19391119
               6.49192622                4.69820694               44.78860325                0.92987148               -0.45943174               -0.71783446                1.97416764               -0.08629645                0.34732327                2.84923617
               7.48733191                4.15517843               44.50136957                0.41457965               -0.41551413               -0.23765315                1.13356149               -0.11569599                1.67304212               -2.59081032
               8.48361594                3.60984184               44.24083003                0.02491492                0.17911769                0.35365943                0.48563080               -1.67948207                7.49491578               -8.48799159
               9.49091426                3.03549754               44.07010787                0.00010000                1.27809282               -0.82347384                0.15397757               -4.23622585               14.23124195               -4.50918551
              10.50917780                2.43209500               43.94311295                0.00010000                1.94317132               -1.39935825               -0.61228434               -6.04945816               16.35465943               -1.39807944
              11.52977769                1.81528368               43.81406906                0.00010000                1.97401039               -1.07385946               -1.19620646               -6.82879807               16.35739740                0.72274504
              12.54865800                1.18691033               43.68607983                0.00010000                1.91771792               -0.42303369               -1.73237901               -6.69772440               16.49886034                2.74201825
              13.56813204                0.55414173               43.55859550                0.01153109                1.90448103               -0.18648854               -2.25725840               -5.08339127               14.62568652                5.61852921
              14.58674762               -0.06585692               43.39205216                0.16341312                1.44019706               -0.90307003               -2.39845620               -2.26104734                9.23350084                9.94646460
              15.59693599               -0.67015318               43.15372676                0.41028323                1.00833162                0.36284192               -2.96326216               -0.70039411                3.32384567                3.92602567
              16.60691426               -1.26890967               42.86808381                0.80871480                0.99782722                1.71561073               -3.73737197               -0.54041472                0.99862012               -2.51809798
               7.03156792                5.69118738               44.69169152                0.90621100               -0.37532192               -0.65632404                1.74462758               -0.05907148                0.05476471                2.77968674
               8.02781470                5.15371918               44.37510500                0.38211949               -0.30550902               -0.10360901                0.76718639               -0.00886982                0.56873882               -2.63842005
               9.02545774                4.61547149               44.06893962                0.00832553                0.59523015                0.56231930               -0.14093813               -2.44896850               12.42552303               -9.04350723
              10.03971930                4.02611880               43.98942572                0.00010000                1.75273617               -0.61447284               -0.50253686               -5.12384448               23.73031276               -4.29204219
              11.06051246                3.42147797               43.90829112                0.00010000                2.24859643               -0.91086914               -0.92846636               -6.14934002               23.98907897               -1.81216896
              12.08469123                2.80459441               43.83251019                0.00010000                2.51154441               -1.05005864               -1.36671367               -6.78433092               24.40009718                0.74597935
              13.11074335                2.17873100               43.75772537                0.00010000                2.59460707               -0.96612146               -1.74165028               -6.78081142               24.44799191                3.27947136
              14.13658337                1.54912608               43.68091660                0.01516251                2.82770097               -0.91005023               -2.01219527               -6.53045582               24.91857280                5.88896957
              15.16729737                0.91369759               43.61317804                0.16103432                2.39241627               -1.88534528               -2.18455181               -3.42157756               14.42376294               10.71223750
              16.18443170                0.32910816               43.32417740                0.38629594                1.28538624               -0.03145004               -2.52759721               -0.33787669                1.74304570                3.78688547
              17.19300509               -0.24827584               43.00062027                0.78631158                0.85733966                1.96260192               -3.40842253               -0.10425037                0.06975574               -2.34743193
               7.56568120                6.68508046               44.59394525                0.89221577               -0.28107952               -0.56265355                1.49278622               -0.05661008                0.05556943                2.75760606
               8.56287040                6.15310625               44.25106018                0.36374237               -0.17221230               -0.01767522                0.40166159                0.03488097                0.38833715               -2.48842459
               9.56223695                5.62108823               43.91492781                0.00329029                0.97802460                0.57857928               -0.63347655               -3.09938377               16.54737490               -7.86332197
              10.58243089                5.02320808               43.89506142                0.00010000                2.27392207               -0.14177916               -0.95345649               -6.35396238               32.33542761               -4.86103083
              11.60771539                4.41387762               43.87299369                0.00010000                2.72035716               -0.65990007               -1.25620827               -6.97359972               32.34254439               -1.88544328
              12.63683804                3.79428250               43.85131490                0.00010000                3.03973532               -1.03076335               -1.53038381               -7.36778022               32.54791819                0.77302677
              13.66851010                3.16758790               43.83101361                0.00010000                3.28591495               -1.24882121               -1.74289971               -7.44833594               32.89255040                3.39768639
              14.70255633                2.53594072               43.81362015                0.02051608                3.49119498               -1.45177217               -1.86405440               -7.49282559               33.46068219                6.20996329
              15.73833400                1.89643618               43.80201286                0.16843593                2.47977724               -1.52218867               -1.83102353               -4.03889590               18.54329270                8.59166943
              16.75215188                1.32921782               43.48316647                0.39539530                1.06316235                0.07601498               -2.13972508               -0.33281888                1.65322397                2.88856356
              17.75959724                0.77034237               43.13139349                0.79185742                0.74453649                1.70800222               -3.10939279               -0.02236386                0.05508981               -2.69671203
               8.09438415                7.67993431               44.49685226                0.87977239               -0.18795888               -0.46761511                1.24105812               -0.05550145                0.05472275                2.79508580
               9.09250456                7.15336568               44.12780883                0.34863931               -0.05079568                0.07215127                0.03247101                0.04996618                0.42656148               -2.41730611
              10.09336823                6.62704308               43.76625576                0.00239793                1.36730506                0.63016630               -1.10263540               -3.66197689               20.68998100               -7.49893129
              11.11985066                6.02328322               43.80223947                0.00010000                2.82989050                0.11206571               -1.34613410               -7.45354996               40.59697204               -4.67930253
              12.14996604                5.40827997               43.83646095                0.00010000                3.18873435               -0.48220116               -1.54068779               -7.99015952               40.62025686               -1.89442031
              13.18362535                4.78397914               43.87027379                0.00010000                3.50761847               -1.03361183               -1.68204465               -8.32180915               40.79912016                0.79475780
              14.22011841                4.15375457               43.90514760                0.00010000                3.71266188               -1.44643553               -1.74860678               -8.40423762               41.12801350                3.41801723
              15.25787858                3.52009064               43.94244487                0.02599863                3.65619714               -1.60147194               -1.70830788               -8.50328949               41.47301895                5.94765261
              16.29324236                2.88325382               43.98108318                0.17635759                2.29952749               -1.17352114               -1.39468104               -4.61794424               22.53142157                7.91202471
              17.30386913                2.33062846               43.63595770                0.40567447                0.85331836                0.16274738               -1.75912677               -0.31781314                1.73970975                2.38842708
              18.31030872                1.78588421               43.25653862                0.79820782                0.64395892                1.42572494               -2.83197355               -0.01987325                0.07181024               -3.13798193
               8.61770844                8.67572816               44.40012861                0.86836607               -0.09474771               -0.37423634                0.98847411               -0.05485443                0.05681055                2.80554138
               9.61676096                8.15454927               44.00513211                0.33522132                0.06857171                0.16615224               -0.33738266                0.05441883                0.50718575               -2.36926820
              10.61907987                7.63369155               43.61915190                0.00201312                1.76810223                0.70650759               -1.56641046               -4.15329938               24.86072787               -7.35349754
              11.65212300                7.02544939               43.71090052                0.00010000                3.40682047                0.30916418               -1.71187069               -8.44635383               48.79614440               -4.50009757
              12.68721628                6.40423360               43.80052865                0.00010000                3.64021203               -0.35282875               -1.79688663               -9.00472017               48.81497784               -1.78764038
              13.72492724                5.77361027               43.88924498                0.00010000                3.85487817               -1.03225568               -1.81676739               -9.29374412               48.98308004                0.80861535
              14.76431384                5.13865919               43.97860573                0.00010000                3.90320286               -1.53003028               -1.75006299               -9.30004917               49.28144972                3.35795709
              15.80299130                4.50391128               44.06961905                0.03177711                3.55617250               -1.62339253               -1.55689095               -9.14945525               49.33577937                5.87154094
              16.83543729                3.87296576               44.15656737                0.18454418                2.00869628               -0.92671300               -0.91949065               -4.85759239               26.38702849                7.64118328
              17.84316523                3.33247277               43.78473612                0.41623365                0.66254953                0.17783032               -1.37849746               -0.27237093                1.79601018                2.10340333
              18.84868828                2.79885686               43.37783743                0.80460540                0.55230571                1.18524338               -2.56349975               -0.01895599                0.08890214               -3.39472209
               9.13564483                9.67244958               44.30349444                0.85777252               -0.00152874               -0.28194881                0.73431495               -0.05448585                0.05776977                2.78501245
              10.13562955                9.15668872               43.88272691                0.32319601                0.18786471                0.26311327               -0.70755964                0.05110964                0.60841888               -2.34364790
              11.13940213                8.64117323               43.47293590                0.00179345                2.23759955                0.78791867               -2.02492963               -4.59916670               29.07730547               -7.23201513
              12.18038154                8.02946650               43.62112447                0.00010000                4.11543199                0.42847755               -2.05732695               -9.20911329               56.99231021               -4.23726393
              13.22171077                7.40122339               43.76568476                0.00010000                4.14716672               -0.34963765               -2.02858889               -9.68919391               56.92168823               -1.61067738
              14.26332487                6.76333403               43.90812853                0.00010000                4.10528232               -1.02917536               -1.93487254               -9.79111467               57.06996022                0.78340362
              15.30381641                6.12315397               44.05116874                0.00010000                3.86290215               -1.48713843               -1.75249331               -9.74109523               57.42720293                3.19374599
              16.34058291                5.48762279               44.19645334                0.03777902                3.18563062               -1.59496497               -1.43391026               -9.32696648               57.15401041                5.80577181
              17.36752903                4.86471956               44.33024500                0.19299010                1.59738465               -0.74402362               -0.41343649               -4.87138220               30.13846710                7.49394946
              18.37253061                4.33418507               43.93129618                0.42695047                0.48161902                0.14712754               -0.99150148               -0.22823222                1.82460607                1.98851441
              19.37716141                3.80958908               43.49702496                0.81095902                0.46307991                0.97193832               -2.29481188               -0.02114250                0.10441702               -3.47723843
               9.64814044               10.67008919               44.20657880                0.84805442                0.09190626               -0.19082772                0.47806901               -0.05451577                0.07111735                2.76133571
              10.64905951               10.15981154               43.76037767                0.31252166                0.30891551                0.36329051               -1.07824681                0.03441735                0.75343099               -2.37054878
              11.65431875                9.64944992               43.32774088                0.00156211                2.94155333                0.85176821               -2.47362647               -5.07696488               33.43414307               -6.89781987
              12.70789057                9.03401894               43.53461389                0.00010000                5.26230611                0.16148659               -2.37600802               -9.60160960               65.23835482               -3.60323790
              13.75956488                8.39724085               43.73303679                0.00010000                4.96418990               -0.76522550               -2.22970384               -9.24732945               64.83825526               -1.27778508
              14.80717437                7.75302676               43.92640918                0.00010000                4.28191480               -1.01340594               -2.03268125               -8.96315521               64.92698671                0.65575776
              15.84520317                7.10891642               44.12106190                0.00010000                3.38560049               -1.10590390               -1.76179474               -9.05863586               65.54535369                2.68499661
              16.87488638                6.47201198               44.32179269                0.04421062                2.31220996               -1.28480823               -1.36370884               -8.94206942               65.05262395                5.30947156
              17.89144737                5.85808528               44.50263323                0.20187968                0.94223413               -0.57412187                0.11550106               -4.79048053               33.91780004                7.13764141
              18.89373106                5.33541532               44.07707596                0.43786731                0.30050214                0.08717893               -0.59390217               -0.21214622                1.88123371                2.05097914
              19.89745741                4.81829563               43.61572343                0.81723845                0.37263507                0.77680527               -2.01873592               -0.02656760                0.13650297               -3.43298772
              10.15510981               11.66863303               44.10965652                0.83833952                0.18473449               -0.10112091                0.22234547               -0.05430772               -0.02385100                2.39303990
              11.15695715               11.16395453               43.63717348                0.30240405                0.42728084                0.46498387               -1.45282580               -0.01115339                1.13091478               -2.13300201
              12.16365543               10.65820859               43.18765865                0.00102015                4.18006355                0.84819803               -2.89458726               -5.83363962               38.27388155               -5.12938608
              13.24055842               10.03269623               43.45735758                0.00010000                7.70504688               -1.65977028               -2.64233705               -7.72677930               73.46491102               -2.14129984
              14.31775636                9.38591888               43.70504862                0.00010000                6.59138824               -1.45200605               -2.38619527               -6.36469806               72.23806704               -0.72786266
              15.37238619                8.74306591               43.94298490                0.00010000                4.29510545               -0.96024488               -2.10030874               -5.63351124               72.20296715                0.38301877
              16.40365847                8.10103589               44.18343940                0.00010000                2.00932376               -0.39120484               -1.76465911               -6.10379723               73.33575192                1.59071335
              17.41257266                7.46192663               44.43830541                0.05132959                0.23288052                0.10122225               -1.36928704               -6.61121814               73.06115060                3.48229986
              18.40831608                6.85323712               44.66883757                0.21136049               -0.22476644               -0.28832849                0.63405675               -4.62085299               38.19017121                5.09728988
              19.40807734                6.33592865               44.22411930                0.44899301                0.12766717                0.01051703               -0.17875411               -0.25241751                2.25084536                1.92103818
              20.41086943                5.82512518               43.73477166                0.82320097                0.27920903                0.60196572               -1.73208188               -0.04101762                0.06276407               -2.84135459
              10.65641129               12.66806677               44.00552656                0.91640523                0.28495899               -0.05662608               -0.06136420                0.23459276                1.10319975                2.02686199
              11.65926088               12.16911122               43.51923746                0.64879867                0.62464865                0.51566875               -1.80093553                0.14772814                3.33163723               -1.84944475
              12.66890426               11.66641389               43.07733990                0.48496566                8.31919111                0.82052942               -3.18596854               -7.88950056               43.88222316               -3.63644812
              13.82564470               11.00082354               43.40061212                0.44587445               12.64984912               -3.18726938               -2.81562955               -6.40203073               80.68562710               -1.22965073
              14.92190124               10.36820072               43.68440491                0.43597184                7.68712190               -1.77181567               -2.48223405               -2.93559598               78.53466751               -0.43844539
              15.97938714                9.73382186               43.95662304                0.44596345                4.11826334               -0.92440443               -2.12963764               -2.65532525               78.45485795                0.17412445
              17.00426651                9.10109233               44.23193800                0.47528239                0.55368260                0.00564346               -1.73617412               -2.92846803               79.89645339                0.84705576
              17.99046079                8.47403643               44.52693627                0.52810709               -3.96191082                1.21098029               -1.33506756               -4.64986822               80.02507462                2.05520484
              18.92502829                7.85231871               44.79968122                0.60914399               -3.68330675               -0.09184073                0.97666948               -5.24931762               43.69438978                3.42410911
              19.91679465                7.33562566               44.36654269                0.72849561               -0.33921510               -0.03029884                0.22331472               -0.22745669                4.89731072                1.72560594
              20.91824399                6.83033495               43.86426202                0.91357713                0.14493370                0.52097634               -1.39048082                0.20838520                1.47708915               -2.26840144
               5.63964592                2.84072452               46.01573972                1.00000000               -0.72327777               -0.78805980                2.64828024               -0.15290932               -1.90542022                2.15927024
               6.63241314                2.26363579               45.75267244                0.86021832               -0.71629495               -0.49802569                1.94488794               -0.12580674               -2.50196603               -1.08828132
               7.62532002                1.68381527               45.47800121                0.61084921               -0.99174381               -0.26535675                1.15293691               -0.55046339               -2.30978013               -1.12104427
               8.61257827                1.08870895               45.21920494                0.50024497               -1.41438199               -0.11164291                0.41838531               -0.70239328               -0.26023474               -0.26123248
               9.59703238                0.46526934               44.98595154                0.45355419               -1.32035375                0.11667567               -0.36393577               -0.61166398                2.04525707               -0.21162518
              10.58617119               -0.18851674               44.77345412                0.45474580               -0.46377450                0.33609962               -1.18827506               -0.34897459                3.17418054               -0.00088846
              11.58775689               -0.85823411               44.56306252                0.50056505                0.66087092                0.55353650               -1.98495707               -0.32759464                2.31581898                0.19659256
              12.59938861               -1.52399713               44.33405312                0.59763361                1.31495545                0.76170852               -2.70404616               -0.40599375                0.27955292                0.33023588
              13.61405600               -2.17663754               44.08332837                0.76377886                1.43722454                0.94384789               -3.38105656               -0.34995550               -1.67232293                0.49646025
              14.62813310               -2.81812941               43.81486631                1.00000000                1.39503403                1.12804856               -4.07720300               -0.20314312               -2.14422174                1.07519409
              15.64195668               -3.45482635               43.55353880                1.00000000                1.38235803                1.39850947               -4.79995232               -0.19737059               -1.71030353               -1.67583709
               6.21520556                3.83284392               45.90781062                1.00000000               -0.55958538               -0.77170846                2.29856932               -0.05470454                0.42205310                2.57409795
               7.20960970                3.25865553               45.64017321                0.56521262               -0.39633725               -0.41670656                1.58549407               -0.09459076                1.44371986               -1.84558477
               8.20727881                2.68116170               45.39324696                0.12633783                0.26087982               -0.04990309                1.01711509               -0.89695818                3.74264365               -4.26686872
               9.21482730                2.08759252               45.17146757                0.00721467                1.11248871               -0.44448160                0.36719927               -2.04996326                5.89823322               -2.86967616
              10.22952859                1.46643610               44.96730539                0.01000534                1.48029351               -0.81538778               -0.31548696               -3.24424220                7.90562171               -0.79224018
              11.24443317                0.81484426               44.78557018                0.01273425                1.13462786               -0.38765851               -1.06434396               -3.96823256                9.15049395                0.22804895
              12.25222114                0.14730126               44.60619379                0.01318412                0.50486106                0.23879622               -1.79441158               -3.67917365                8.37054982                1.17858385
              13.25453039               -0.51638005               44.40826148                0.10756398                0.27007209                0.44284992               -2.44145655               -2.42582490                6.44011813                3.02141213
              14.25762258               -1.16719906               44.18943329                0.34869273                0.53328423                0.59315539               -3.04923199               -0.95277630                4.75901549                4.15491100
              15.26519607               -1.80684892               43.95706945                0.74522488                0.95286653                0.97983057               -3.64724311               -0.28152479                2.80846909                2.35278421
              16.27667992               -2.44084125               43.69836765                1.00000000                1.14838404                1.41417266               -4.30855513               -0.16848699                1.54976482               -2.26287699
               6.78692860                4.82529035               45.80860846                0.91728802               -0.47250544               -0.73410697                2.04144683               -0.08085521                0.36342259                2.98319316
               7.78220355                4.25530166               45.51271772                0.40036073               -0.42423640               -0.24482759                1.14743817               -0.11745461                1.78983344               -2.72501094
               8.77844388                3.68281721               45.24564455                0.02116582                0.20505281                0.37720139                0.47692237               -1.76712890                7.86480285               -8.92215169
               9.78630461                3.07981931               45.07141232                0.00010000                1.32259609               -0.83041026                0.10429624               -4.32739112               14.53309595               -4.91606026
              10.80489580                2.44896158               44.93669588                0.00010000                1.98183857               -1.40871672               -0.67231485               -6.10297262               16.52054597               -1.77557224
              11.82594138                1.80373009               44.80171184                0.00010000                2.02509625               -1.09671268               -1.27684124               -6.91370182               16.62197421                0.41641772
              12.84539772                1.14654182               44.66826981                0.00010000                1.97155273               -0.45454255               -1.83309146               -6.77765428               16.78572346                2.53705560
              13.86537243                0.48485987               44.53547950                0.00790633                2.00358138               -0.21276669               -2.37226928               -5.16767841               15.11889575                5.53012414
              14.88546935               -0.16477443               44.36768808                0.15527160                1.53861829               -0.91406403               -2.47962325               -2.33803427                9.70095147                9.99383555
              15.89614480               -0.79853280               44.12358815                0.39397753                1.05511254                0.36376208               -3.07319072               -0.72138421                3.45920714                4.01773178
              16.90657160               -1.42654289               43.82996398                0.79708374                1.04268037                1.75831597               -3.89514105               -0.55103926                1.02958719               -2.64595849
               7.35356583                5.81816178               45.70936266                0.89394693               -0.38320770               -0.66772340                1.79286583               -0.05787270                0.05373389                2.91346187
               8.34973375                5.25375898               45.38279080                0.36825689               -0.30736264               -0.10813038                0.77118932                0.00254370                0.60263684               -2.74811395
               9.34741858                4.68870573               45.06736692                0.00626246                0.62006715                0.58416674               -0.17232302               -2.50271844               12.77105583               -9.46824209
              10.36213510                4.07098431               44.98409618                0.00010000                1.80698887               -0.56781522               -0.56424195               -5.23188018               24.30223662               -4.80630091
              11.38355836                3.43826176               44.89857576                0.00010000                2.32218995               -0.90764429               -1.01696264               -6.23551714               24.50531597               -2.18636279
              12.40857890                2.79291000               44.81830201                0.00010000                2.59899623               -1.05462009               -1.47900677               -6.87788450               24.92441319                0.44817116
              13.43553828                2.13821041               44.73966720                0.00010000                2.69570873               -0.97542712               -1.87690971               -6.88230371               25.04170337                3.07370132
              14.46249307                1.47936462               44.66007996                0.01153393                2.93581403               -0.93395974               -2.16574587               -6.62466692               25.59677591                5.82193595
              15.49425456                0.81451966               44.59044637                0.15323452                2.50218906               -1.90198925               -2.37908079               -3.53070473               15.07303131               10.67333734
              16.51253685                0.20042632               44.29844687                0.37103131                1.37123810               -0.05297384               -2.62662036               -0.37433032                2.04672091                3.80572276
              17.52167932               -0.40567493               43.96586671                0.77555143                0.91424708                1.98251957               -3.55203572               -0.09794499                0.07642067               -2.51195478
               7.91457675                6.81193588               45.60908429                0.88011673               -0.28662707               -0.57538617                1.53734441               -0.05704743                0.05677237                2.88121094
               8.91171048                6.25313905               45.25504291                0.35041780               -0.17062853               -0.01647016                0.39500399                0.04699554                0.41908636               -2.60308020
               9.91116418                5.69450054               44.90836808                0.00314113                1.02002451                0.59681845               -0.67956825               -3.14975641               16.96847209               -8.20881675
              10.93211097                5.06846301               44.88513342                0.00010000                2.35477927               -0.10600537               -1.03379802               -6.45894472               33.10387597               -5.24205939
              11.95825976                4.43080870               44.85989201                0.00010000                2.81620360               -0.63899902               -1.36778395               -7.07168265               33.11202744               -2.23639053
              12.98843504                3.78263769               44.83534424                0.00010000                3.15186346               -1.01911420               -1.67036701               -7.47105017               33.33980113                0.49344620
              14.02129703                3.12703328               44.81280804                0.00010000                3.40674010               -1.24105525               -1.90899255               -7.55785188               33.73891093                3.20400800
              15.05656984                2.46618067               44.79410083                0.01668290                3.62482616               -1.44083419               -2.05697216               -7.61450818               34.40216778                6.11456096
              16.09379356                1.79718578               44.78258237                0.16042947                2.61414705               -1.52860873               -2.07634740               -4.14549992               19.40613071                8.70779611
              17.10885278                1.20040773               44.46124526                0.37997918                1.15108247                0.07601382               -2.25212761               -0.38431560                2.02980543                2.88433363
              18.11681521                0.61310750               44.09958186                0.78100369                0.79624218                1.73128215               -3.26318358               -0.02046401                0.06772521               -2.89490751
               8.47001854                7.80665406               45.50945084                0.86796910               -0.19095346               -0.48069061                1.28064901               -0.05609632                0.05623479                2.91790640
               9.46810901                7.25342958               45.12805313                0.33572859               -0.04595241                0.07676613                0.01585808                0.06138990                0.46736893               -2.53447392
              10.46909949                6.70064210               44.75494438                0.00228090                1.42695191                0.65121259               -1.16099854               -3.71461131               21.21836577               -7.83083853
              11.49664805                6.06886420               44.78830420                0.00010000                2.94252652                0.14331272               -1.44364622               -7.56861630               41.57280772               -5.01237244
              12.52795002                5.42548178               44.82042219                0.00010000                3.31426345               -0.45452177               -1.67218590               -8.10223962               41.62161173               -2.19840417
              13.56293331                4.77252772               44.85269134                0.00010000                3.64441181               -1.01091861               -1.84351743               -8.43004113               41.83768184                0.54596944
              14.60083826                4.11338930               44.88679485                0.00010000                3.85585427               -1.42277061               -1.93652492               -8.51353487               42.23161398                3.24534019
              15.64005040                3.45054794               44.92441347                0.02201749                3.81396236               -1.57456659               -1.91958173               -8.63462590               42.73443235                5.88107851
              16.67711751                2.78394749               44.96591090                0.16818701                2.44392133               -1.17431578               -1.66712583               -4.73812849               23.60816695                8.11515437
              17.68892883                2.20194660               44.61777869                0.39002922                0.93764965                0.18390968               -1.88535983               -0.36978223                2.14385102                2.39103254
              18.69587050                1.62895071               44.22744507                0.78718159                0.69416739                1.46097728               -2.99800526               -0.01661267                0.08723356               -3.35272371
               9.01990378                8.80232207               45.41017659                0.85687365               -0.09535426               -0.38608336                1.02271433               -0.05557730                0.05845758                2.92680884
              10.01895024                8.25467438               45.00162691                0.32269809                0.07667731                0.17404893               -0.36458640                0.06492309                0.56092022               -2.48683916
              11.02143733                7.70752479               44.60314227                0.00190779                1.84743597                0.73146195               -1.63774715               -4.21246871               25.51075981               -7.68042760
              12.05589896                7.07132926               44.69323667                0.00010000                3.55570645                0.33653166               -1.82398437               -8.57250095               49.99202580               -4.80169275
              13.09255146                6.42171826               44.78185777                0.00010000                3.80138687               -0.32882732               -1.94375398               -9.12578847               50.04580036               -2.05017233
              14.13192670                5.76241932               44.87025611                0.00010000                4.02273316               -1.00959348               -1.99217827               -9.40132774               50.26123298                0.59855725
              15.17300612                5.09857786               44.96020694                0.00010000                4.06962237               -1.50302401               -1.94713560               -9.40076080               50.64056605                3.21454333
              16.21331914                4.43468934               45.05312900                0.02761422                3.73131033               -1.58941765               -1.76721772               -9.29059450               50.94269079                5.81756632
              17.24763233                3.77369947               45.14608858                0.17609255                2.15673853               -0.91846345               -1.20631985               -4.98699893               27.68763213                7.89867317
              18.25645391                3.20408592               44.77031820                0.40030475                0.74211982                0.21181040               -1.51487859               -0.31738076                2.21186285                2.12053971
              19.26247472                2.64232704               44.35138212                0.79340430                0.60208090                1.22970496               -2.73997437               -0.01543458                0.10710641               -3.61171139
               9.56420239                9.79893239               45.31097488                0.84654975                0.00023618               -0.29224393                0.76317764               -0.05536979                0.05978361                2.90403152
              10.56420475                9.25691056               44.87546680                0.31121141                0.19964226                0.27469938               -0.74581575                0.05946480                0.67757942               -2.46104696
              11.56819523                8.71527134               44.45228038                0.00169058                2.33999043                0.81453185               -2.10710353               -4.67054369               29.85910041               -7.55044257
              12.61100456                8.07559484               44.59994946                0.00010000                4.30744858                0.44678645               -2.18121292               -9.35020929               58.41845453               -4.50627106
              13.65434420                7.41890523               44.74464899                0.00010000                4.35213009               -0.34087405               -2.18589076               -9.81472719               58.38176093               -1.82835654
              14.69804716                6.75233585               44.88793503                0.00010000                4.31044093               -1.02032478               -2.11640995               -9.88819055               58.57899225                0.61681143
              15.74055302                6.08332882               45.03277144                0.00010000                4.05348739               -1.46808925               -1.94653900               -9.82134358               59.02626022                3.07669604
              16.77911691                5.41875958               45.18129853                0.03338887                3.37139636               -1.56172439               -1.62520726               -9.46555653               59.12998819                5.74094593
              17.80798095                4.76557822               45.32482880                0.18429035                1.74183651               -0.72643942               -0.70242440               -5.00520701               31.68656654                7.79570616
              18.81395364                4.20618280               44.92073062                0.41068183                0.55493070                0.18729393               -1.13269261               -0.26499783                2.24165458                2.02603681
              19.81907956                3.65354481               44.47322283                0.79955684                0.51259261                1.02309718               -2.47869560               -0.01761033                0.12472198               -3.68496869
              10.10284005               10.79647719               45.21147105                0.83710042                0.09605380               -0.19945882                0.50145400               -0.05555687                0.07368344                2.87924358
              11.10380059               10.26016836               44.74935638                0.30098436                0.32510607                0.37873840               -1.12771301                0.03774828                0.84320771               -2.48932020
              12.10934217                9.72381543               44.30254797                0.00146304                3.07301412                0.87718948               -2.56538664               -5.17108953               34.36098172               -7.19558474
              13.16526087                9.08026499               44.51020880                0.00010000                5.50868632                0.15653774               -2.50856580               -9.76168754               66.90387322               -3.82331198
              14.21951590                8.41490078               44.70996166                0.00010000                5.22392114               -0.78664958               -2.39290108               -9.36611927               66.52227354               -1.43912805
              15.26973930                7.74201282               44.90524058                0.00010000                4.53198073               -1.02917940               -2.21423813               -9.03608842               66.64640410                0.53990341
              16.31015551                7.06921608               45.10263500                0.00010000                3.60096617               -1.10683501               -1.94391241               -9.10275569               67.35056186                2.59679325
              17.34175862                6.40345485               45.30751666                0.03964483                2.49747247               -1.25984867               -1.52005888               -9.04922568               67.41511480                5.20911943
              18.36010496                5.75917068               45.50254611                0.19284226                1.07143720               -0.54148405               -0.16627751               -4.92647645               35.74870576                7.46121560
              19.36318736                5.20783180               45.07049718                0.42123407                0.36467697                0.12880318               -0.73370860               -0.24485401                2.29567748                2.11427745
              20.36739850                4.66278899               44.59467366                0.80559824                0.42111405                0.83120752               -2.20488431               -0.02343368                0.15964918               -3.62371383
              10.63570891               11.79494321               45.11196671                0.82766719                0.19125702               -0.10798832                0.24044271               -0.05549356               -0.02684131                2.49661665
              11.63762148               11.26448533               44.62235134                0.29130809                0.44839523                0.48405972               -1.51359957               -0.01707601                1.25359926               -2.23900421
              12.64467681               10.73281513               44.15821091                0.00095699                4.35319886                0.86154842               -2.99378487               -5.95436817               39.37383428               -5.34724579
              13.72468545               10.07872559               44.43026209                0.00010000                8.02985896               -1.72097244               -2.77996750               -7.86913648               75.37407845               -2.27687458
              14.80527399                9.40317224               44.68039388                0.00010000                6.91623194               -1.50595552               -2.55203003               -6.44752108               74.12173584               -0.81432795
              15.86301009                8.73175226               44.92115233                0.00010000                4.58909435               -1.00143286               -2.27913706               -5.67016120               74.10077991                0.32516769
              16.89705588                8.06119212               45.16505098                0.00010000                2.25838499               -0.41889418               -1.93265900               -6.10905276               75.28438585                1.54339605
              17.90817779                7.39356261               45.42416298                0.04640927                0.40092979                0.09625273               -1.48599611               -6.66197954               75.80080985                3.38494556
              18.90507447                6.75474854               45.67401005                0.20198997               -0.13697714               -0.21433000                0.36702622               -4.71245422               40.35550571                5.34171150
              19.90543825                6.20875887               45.22173110                0.43205632                0.18110198                0.05057811               -0.31051446               -0.29177164                2.67473429                1.99734902
              20.90869651                5.67016896               44.71659958                0.81132756                0.32582631                0.65642084               -1.91526143               -0.04017817                0.08285281               -2.98944109
              11.16264596               12.79431742               45.00497004                0.91115942                0.29412004               -0.06257902               -0.04961732                0.24691864                1.14873572                2.11583932
              12.16558716               12.26984956               44.50088747                0.64339778                0.66842921                0.53642312               -1.87126671                0.13301708                3.56641422               -1.94049911
              13.17601454               11.74104640               44.04496936                0.48391922                8.59669326                0.82312723               -3.28712798               -8.06642725               45.19445126               -3.79359582
              14.33752102               11.04584554               44.37176967                0.44584902               13.07621327               -3.28800481               -2.95522207               -6.52967907               82.76964597               -1.28953659
              15.43753881               10.38478167               44.65878317                0.43604011                8.03975831               -1.83905720               -2.64848217               -2.96658702               80.56096737               -0.47103797
              16.49831619                9.72198416               44.93449961                0.44574774                4.43126514               -0.97680979               -2.30671375               -2.66656376               80.48821284                0.15672182
              17.52616411                9.06083820               45.21385893                0.47429330                0.83232122               -0.03539273               -1.89776913               -2.91938927               81.95965927                0.83321179
              18.51496262                8.40537991               45.51321782                0.52558841               -3.77522455                1.18172975               -1.43275498               -4.61922333               83.01474300                1.98351229
              19.45065962                7.75488408               45.80832104                0.60434505               -3.65155553                0.01355448                0.71904185               -5.26831236               46.19219215                3.60295152
              20.44193150                7.20884336               45.36823784                0.71991019               -0.34424333                0.00844937                0.10530332               -0.29900811                5.45037830                1.80381317
              21.44377475                6.67591741               44.84955421                0.90756115                0.18432492                0.57484440               -1.56233545                0.21522860                1.56314843               -2.37990673
               5.88690781                2.97225465               47.04253499                1.00000000               -0.73954955               -0.80973682                2.71402719               -0.15963012               -1.95742531                2.21437358
               6.87951231                2.36661345               46.77228981                0.85041495               -0.73437764               -0.50981832                1.98087056               -0.13853096               -2.59792832               -1.17086167
               7.87222026                1.75810551               46.48956295                0.60653558               -1.01068386               -0.26879179                1.15903255               -0.55900493               -2.41879897               -1.10872480
               8.85929864                1.13402387               46.22327828                0.49877298               -1.42616828               -0.10364999                0.39590303               -0.69861237               -0.35781927               -0.27539915
               9.84369689                0.48152409               45.98207366                0.45327284               -1.32872810                0.13519042               -0.41385750               -0.60502616                1.91122539               -0.21945736
              10.83272408               -0.20127806               45.76119939                0.45436376               -0.48599944                0.36529217               -1.26616743               -0.34546387                3.03926742               -0.00567736
              11.83397690               -0.90034503               45.54269779                0.49928237                0.63370110                0.59010924               -2.09416854               -0.31560746                2.23279321                0.19615613
              12.84539810               -1.59618757               45.30631645                0.59439055                1.31475064                0.80452871               -2.85099492               -0.39151416                0.25102353                0.33396258
              13.86027192               -2.27947274               45.04859577                0.75752934                1.47704783                0.99702317               -3.57177146               -0.34463505               -1.69162670                0.48857151
              14.87493905               -2.95172792               44.77294084                1.00000000                1.46389692                1.19130925               -4.31311865               -0.20879461               -2.18465191                1.07497104
              15.88954985               -3.61901422               44.50415597                1.00000000                1.46108001                1.47434594               -5.08070315               -0.21368372               -1.76107773               -1.70406699
               6.49095271                3.96415728               46.93114215                1.00000000               -0.57511308               -0.79679385                2.36819436               -0.06078350                0.49130181                2.67632777
               7.48520158                3.36151527               46.65625240                0.54833948               -0.40138555               -0.42764121                1.62703188               -0.10797588                1.58197001               -1.97685537
               8.48292500                2.75541759               46.40346994                0.12029604                0.27008233               -0.04133315                1.02912605               -0.92653772                3.91228645               -4.46307990
               9.49060322                2.13298737               46.17508666                0.00727645                1.11863005               -0.47380735                0.35720479               -2.06576920                6.00629048               -3.00228366
              10.50529760                1.48287599               45.96400663                0.00995977                1.48003874               -0.81054525               -0.34461090               -3.25101029                7.95368353               -1.01387264
              11.52020400                0.80237486               45.77469348                0.01270012                1.14889933               -0.39208701               -1.11216671               -3.97003890                9.16484738                0.04158738
              12.52827558                0.10555606               45.58792119                0.01344408                0.54214048                0.22615312               -1.86407441               -3.69446206                8.43204542                1.04784662
              13.53104681               -0.58814228               45.38337542                0.10248803                0.31600792                0.45566492               -2.54165639               -2.46824860                6.56537512                2.91425005
              14.53459574               -1.26950251               45.15827195                0.33815821                0.57875212                0.62397288               -3.18863655               -0.96432276                4.91350023                4.26895686
              15.54262185               -1.93981483               44.91969819                0.72633565                1.00517858                1.02759806               -3.83141351               -0.29315369                2.94019484                2.43006887
              16.55469931               -2.60427076               44.65417025                1.00000000                1.20774640                1.48431581               -4.53403294               -0.18536853                1.65304643               -2.32732760
               7.09097617                4.95631877               46.82943219                0.90478788               -0.48836772               -0.75882422                2.11795218               -0.08413350                0.36441591                3.12391144
               8.08609249                4.35806063               46.52431833                0.38626100               -0.43793854               -0.25417786                1.17418927               -0.11891647                1.90797554               -2.87356365
               9.08221740                3.75727884               46.25036848                0.01731820                0.22161801                0.39827661                0.47132030               -1.84322116                8.24237997               -9.38123599
              10.09052485                3.12454773               46.07219379                0.00010000                1.35359013               -0.83578478                0.04992583               -4.40068444               14.84858055               -5.35962422
              11.10928920                2.46531318               45.92966666                0.00010000                2.00591909               -1.41607088               -0.73489058               -6.12760863               16.71071553               -2.20436145
              12.13064323                1.79088020               45.78853223                0.00010000                2.06578044               -1.12247182               -1.36221736               -6.96255487               16.90650407                0.04656457
              13.15060481                1.10417803               45.64941800                0.00010000                2.02242289               -0.49446305               -1.94293451               -6.82152954               17.09817265                2.25766106
              14.17109169                0.41292573               45.51115011                0.00424783                2.10266008               -0.24571185               -2.50225437               -5.22391959               15.67251992                5.36139949
              15.19265801               -0.26699328               45.34245970                0.14708949                1.63762735               -0.91137222               -2.57033207               -2.41531751               10.21828662                9.94935131
              16.20384424               -0.93117596               45.09226294                0.37772294                1.10481672                0.36901693               -3.19624610               -0.75053503                3.60393378                4.09427568
              17.21475434               -1.58932791               44.79018099                0.78554498                1.09101073                1.80689719               -4.06468578               -0.56546830                1.05876286               -2.79179351
               7.68578633                5.94898080               46.72754884                0.88165529               -0.39231524               -0.68511326                1.84908427               -0.05874712                0.05568049                3.04482869
               8.68186318                5.35643171               46.39052879                0.35444855               -0.31064279               -0.11391565                0.77939847                0.01390855                0.64530230               -2.86518154
               9.67957347                4.76338312               46.06549316                0.00604017                0.63460095                0.60277939               -0.20192372               -2.54307753               13.13097811               -9.91301617
              10.69455520                4.11627168               45.97814088                0.00010000                1.84197398               -0.51944311               -0.62718204               -5.31844610               24.88914294               -5.34635754
              11.71641295                3.45455457               45.88795186                0.00010000                2.37664304               -0.90048988               -1.11057445               -6.29451649               25.03854457               -2.60742470
              12.74208806                2.77992543               45.80293006                0.00010000                2.66932567               -1.05590539               -1.60063440               -6.94064905               25.46690529                0.09043596
              13.76979947                2.09566680               45.72018718                0.00010000                2.78258341               -0.98188068               -2.02804313               -6.95275122               25.65670061                2.79661853
              14.79773972                1.40694348               45.63760168                0.00784373                3.02958089               -0.95136504               -2.34343922               -6.68315386               26.28623517                5.66967789
              15.83039108                0.71227005               45.56559643                0.14538891                2.61030253               -1.89395747               -2.61481658               -3.63619011               15.80076753               10.49953687
              16.84994577                0.06756551               45.27164499                0.35583828                1.46513740               -0.06256792               -2.74335578               -0.42493031                2.43048512                3.77363163
              17.85969383               -0.56813282               44.92957955                0.76485577                0.97480571                2.00968821               -3.71482178               -0.09362281                0.08602116               -2.72642899
               8.27489940                6.94261651               46.62469214                0.86808290               -0.29310602               -0.58903301                1.58687228               -0.05752261                0.05816726                3.01177565
               9.27196834                6.35578231               46.25896026                0.33703522               -0.16917601               -0.01697569                0.38964342                0.06065706                0.45679685               -2.72206714
              10.27151588                5.76933443               45.90133644                0.00297262                1.05080686                0.61344976               -0.72605418               -3.18562248               17.40547135               -8.57064584
              11.29298447                5.11415887               45.87438546                0.00010000                2.41146226               -0.06695793               -1.11728826               -6.53786170               33.88835288               -5.65238105
              12.31974512                4.44730339               45.84563801                0.00010000                2.88667771               -0.61042224               -1.48697644               -7.13992927               33.89669503               -2.62927630
              13.35071803                3.76976209               45.81790756                0.00010000                3.23933035               -0.99693826               -1.82472541               -7.54223528               34.14657673                0.16047945
              14.38453173                3.08454041               45.79283376                0.00010000                3.50536657               -1.22021601               -2.09893591               -7.63172849               34.59821240                2.94796148
              15.42082536                2.39389843               45.77248071                0.01284785                3.73902254               -1.41297219               -2.28793460               -7.68506933               35.34356156                5.94895128
              16.45931218                1.69512757               45.76048591                0.15246200                2.74615693               -1.51096738               -2.37106642               -4.23381740               20.36021734                8.73973793
              17.47574850                1.06757268               45.43812392                0.36468853                1.24831783                0.09053297               -2.38276261               -0.44977500                2.50664996                2.82309197
              18.48427854                0.45086586               45.06612982                0.77020994                0.85300387                1.75811473               -3.43862439               -0.01934203                0.08397184               -3.14693002
               8.85830426                7.93720014               46.52246524                0.85621309               -0.19458698               -0.49381040                1.32419017               -0.05691667                0.05776922                3.04627937
               9.85635839                7.35609220               46.12812600                0.32279012               -0.04098958                0.08082523               -0.00134970                0.07486634                0.51630143               -2.65676404
              10.85748447                6.77565212               45.74303579                0.00214647                1.47353071                0.67062841               -1.22235571               -3.74951248               21.76393498               -8.17754686
              11.88582901                6.11493252               45.77336655                0.00010000                3.02633342                0.18057081               -1.54597356               -7.65212215               42.56458975               -5.37197638
              12.91801114                5.44234613               45.80301724                0.00010000                3.40886570               -0.41500202               -1.81432905               -8.17890661               42.63841207               -2.53919749
              13.95400632                4.75998666               45.83340344                0.00010000                3.75087108               -0.97121815               -2.02440871               -8.49994785               42.89050904                0.25312310
              14.99302856                4.07126248               45.86641710                0.00010000                3.97224299               -1.37834752               -2.15628341               -8.57910430               43.34863293                3.02510669
              16.03345118                3.37868404               45.90405324                0.01806133                3.95059615               -1.52604347               -2.17925601               -8.70368254               43.99083973                5.77025203
              17.07204048                2.68205070               45.94774066                0.15994461                2.58804025               -1.15531262               -2.00135822               -4.83096582               24.77930623                8.26239940
              18.08521199                2.06937617               45.59825051                0.37448542                1.03400727                0.21794738               -2.03215220               -0.43303922                2.65596923                2.34514173
              19.09272063                1.46702948               45.19657852                0.77628140                0.75086436                1.49895064               -3.18890500               -0.01346701                0.10687044               -3.61509479
               9.43597694                8.93274030               46.42058290                0.84535184               -0.09632590               -0.39821918                1.06024427               -0.05652835                0.06031955                3.05333193
              10.43501368                8.35739882               45.99784038                0.31032910                0.08541801                0.18230586               -0.39352818                0.07619686                0.62413245               -2.61051085
              11.43768530                7.78274700               45.58639695                0.00178690                1.91171664                0.75532778               -1.71146192               -4.25057673               26.18126879               -8.02025960
              12.47324802                7.11777028               45.67442083                0.00010000                3.67137731                0.37182143               -1.94217060               -8.65953239               51.20670797               -5.12602406
              13.51111285                6.43900334               45.76165357                0.00010000                3.92773534               -0.28968808               -2.10392942               -9.20416350               51.29466047               -2.34258537
              14.55180272                5.75033773               45.84940141                0.00010000                4.15697091               -0.96504387               -2.19146434               -9.46269680               51.55759014                0.35566629
              15.59425227                5.05697346               45.93966302                0.00010000                4.20803797               -1.45013198               -2.18257146               -9.45053084               52.01974370                3.04095426
              16.63596348                4.36337756               46.03427469                0.02339036                3.88742328               -1.53149900               -2.03517068               -9.36390031               52.54185330                5.74466300
              17.67200073                3.67202132               46.13244097                0.16765044                2.30727279               -0.89372778               -1.56186717               -5.08290761               29.07787214                8.12202392
              18.68210894                3.07193163               45.75443855                0.38448155                0.83509208                0.25753289               -1.67453500               -0.37093830                2.73835453                2.09997672
              19.68870258                2.48084487               45.32303794                0.78232919                0.65936360                1.27843427               -2.94450229               -0.01113593                0.12989362               -3.86901324
              10.00785666                9.92923575               46.31875799                0.83533482                0.00189722               -0.30290384                0.79479688               -0.05641823                0.06181377                3.02829158
              11.00787563                9.35973831               45.86781060                0.29918651                0.21224080                0.28708871               -0.78672941                0.06779864                0.75995098               -2.58503572
              12.01210147                8.79075867               45.43079383                0.00157337                2.42531921                0.84303517               -2.18990680               -4.71843530               30.66651709               -7.87857301
              13.05638201                8.12236895               45.57750021                0.00010000                4.46294740                0.47348998               -2.31202999               -9.44499857               59.86744977               -4.79378650
              14.10136042                7.43655237               45.72196694                0.00010000                4.52001262               -0.31449752               -2.35823215               -9.89087221               59.86543193               -2.06805696
              15.14678227                6.74068578               45.86580033                0.00010000                4.48088473               -0.98651040               -2.32501809               -9.93330708               60.11427181                0.42894442
              16.19097812                6.04225984               46.01223796                0.00010000                4.21715270               -1.42003580               -2.18378087               -9.84728319               60.65849614                2.94600763
              17.23112532                5.34805406               46.16394919                0.02899105                3.54250737               -1.50238177               -1.87979043               -9.53848061               61.09550674                5.68193332
              18.26182826                4.66417615               46.31619652                0.17554940                1.89221730               -0.69464877               -1.06591575               -5.10435034               33.31292140                8.08041221
              19.26896967                4.07452682               45.90864233                0.39456157                0.64215778                0.23843789               -1.29932589               -0.30849300                2.76950839                2.03653857
              20.27467142                3.49259816               45.44745104                0.78828923                0.57017529                1.07998672               -2.69222312               -0.01312294                0.14998711               -3.92532668
              10.57384346               10.92668222               46.21660788                0.82621245                0.10032822               -0.20846917                0.52689195               -0.05681003                0.07626362                3.00228901
              11.57484674               10.36314059               45.73782341                0.28944218                0.34212530                0.39525211               -1.18048920                0.04173965                0.95032804               -2.61467671
              12.58068596                9.79960770               45.27643315                0.00135264                3.18538051                0.90418051               -2.65854306               -5.23903080               35.32099870               -7.50156088
              13.63855435                9.12724008               45.48444257                0.00010000                5.71463044                0.16144635               -2.64740230               -9.87096521               68.59818993               -4.05648615
              14.69497857                8.43271339               45.68517877                0.00010000                5.44373822               -0.78707776               -2.57182487               -9.43460741               68.23725324               -1.61483381
              15.74742911                7.73060752               45.88212441                0.00010000                4.74798802               -1.01877800               -2.42440767               -9.05891131               68.40302742                0.41268283
              16.78993833                7.02857275               46.08218365                0.00010000                3.79242242               -1.07899771               -2.17117622               -9.09600858               69.20811935                2.50785245
              17.82327756                6.33332992               46.29139151                0.03498778                2.67513136               -1.20648423               -1.74321085               -9.09699675               69.76609213                5.13304138
              18.84344096                5.65812834               46.49930768                0.18381606                1.21197511               -0.49398627               -0.52406122               -5.02998651               37.64435993                7.78190859
              19.84751706                5.07670038               46.06240179                0.40473890                0.44282406                0.18040748               -0.90030329               -0.28354546                2.81964132                2.16133501
              20.85229744                4.50244461               45.57162575                0.79410491                0.47803762                0.89288260               -2.42135563               -0.01967259                0.18805718               -3.83900458
              11.13380372               11.92506637               46.11446537                0.81704118                0.19812255               -0.11526627                0.25992907               -0.05691673               -0.03014752                2.60473900
              12.13578494               11.36764336               45.60690149                0.28024245                0.47088261                0.50441999               -1.57825146               -0.02404950                1.39919306               -2.35052269
              13.14322137               10.80884228               45.12778295                0.00088965                4.50360379                0.87086774               -3.09073386               -6.04101799               40.51579375               -5.57017115
              14.22585702               10.12559788               45.40175823                0.00010000                8.30397321               -1.76112180               -2.92326997               -7.96810018               77.31850685               -2.41965711
              15.30930083                9.42081081               45.65400802                0.00010000                7.19438346               -1.53559986               -2.73285636               -6.49377915               76.04311788               -0.90795388
              16.36974469                8.72031022               45.89740216                0.00010000                4.85173553               -1.01728934               -2.48615616               -5.67422056               76.04640512                0.26281179
              17.40633554                8.02067988               46.14478622                0.00010000                2.49425517               -0.42160364               -2.14530076               -6.07913485               77.30703473                1.50018506
              18.41962979                7.32392437               46.40858548                0.04149420                0.57612641                0.11335328               -1.66661207               -6.66837459               78.53330688                3.31249190
              19.41785807                6.65429642               46.67617809                0.19265090               -0.03236483               -0.11862874                0.02337903               -4.76891184               42.57346314                5.58944927
              20.41898249                6.07813497               46.21790901                0.41519935                0.24657256                0.09940353               -0.46890900               -0.33943091                3.20718114                2.06744464
              21.42278952                5.51045581               45.69646643                0.79961810                0.38070292                0.71914761               -2.12788822               -0.03907728                0.10849907               -3.15234707
              11.68755115               12.92437690               46.00453422                0.90595334                0.30386879               -0.06894725               -0.03721724                0.25995274                1.19643942                2.20875751
              12.69058984               12.37322899               45.48181213                0.63796289                0.71799671                0.55856362               -1.94617688                0.11289749                3.83189782               -2.03597247
              13.70191108               11.81702506               45.01159734                0.48280861                8.83169888                0.81827761               -3.38497291               -8.19159596               46.55864120               -3.95403062
              14.86722381               11.09201765               45.34150768                0.44583110               13.42397792               -3.35802310               -3.09917262               -6.61450338               84.89332561               -1.35115705
              15.97039064               10.40200140               45.63143527                0.43615256                8.34259092               -1.88094155               -2.82743754               -2.97881470               82.62866474               -0.50506848
              17.03407563                9.71026173               45.91048877                0.44549042                4.71754228               -1.00484887               -2.50922766               -2.65994157               82.57383025                0.13989432
              18.06474149                9.02014068               46.19398261                0.47331689                1.11089496               -0.05392078               -2.10132280               -2.89264301               84.10716021                0.82583429
              19.05629353                8.33559699               46.49828117                0.52301445               -3.54446833                1.16726166               -1.58822400               -4.55287121               86.00300809                1.93398258
              19.99385212                7.65575577               46.81406206                0.59960674               -3.58622392                0.14593468                0.38666281               -5.24602183               48.74653045                3.78841918
              20.98456905                7.07868845               46.36864876                0.71140719               -0.34889533                0.05534810               -0.03696717               -0.38775454                6.11861180                1.88148246
              21.98687421                6.51682756               45.83301531                0.90160560                0.23051603                0.63717443               -1.76108352                0.22237944                1.65834517               -2.49956240
               6.14098778                3.10779767               48.07002026                1.00000000               -0.75611586               -0.83243874                2.78220883               -0.16809699               -2.00895043                2.27343387
               7.13342662                2.47229338               47.79228985                0.84057212               -0.75161044               -0.52034741                2.01800472               -0.14907495               -2.69295597               -1.25331078
               8.12595557                1.83382678               47.50118186                0.60222004               -1.02577239               -0.27322089                1.16607920               -0.56198651               -2.52760070               -1.09362934
               9.11291117                1.17958422               47.22712300                0.49741407               -1.43098912               -0.09528844                0.37385216               -0.69010236               -0.45608349               -0.28984365
              10.09733579                0.49701424               46.97767439                0.45299293               -1.32893825                0.15514017               -0.46724123               -0.59416974                1.77677268               -0.22674847
              11.08633241               -0.21561847               46.74813078                0.45408576               -0.50200478                0.39616273               -1.35087056               -0.34028538                2.90391877               -0.01038577
              12.08729569               -0.94475777               46.52117915                0.49812725                0.60893497                0.62957595               -2.21483190               -0.30242537                2.14912108                0.19529680
              13.09851111               -1.67143581               46.27703322                0.59124628                1.31516957                0.85071113               -3.01175221               -0.37543235                0.22113519                0.33696855
              14.11359908               -2.38621847               46.01189294                0.75137658                1.51843792                1.05346172               -3.77573744               -0.33836988               -1.71342729                0.48043900
              15.12887986               -3.09014469               45.72860393                1.00000000                1.53528914                1.25750371               -4.56008231               -0.21370845               -2.22772423                1.07384062
              16.14430487               -3.78893625               45.45192474                1.00000000                1.54250011                1.55234245               -5.36998176               -0.22997120               -1.81431504               -1.73110486
               6.77481110                4.09947328               47.95517451                0.98897570               -0.58897860               -0.82178881                2.43641188               -0.06549503                0.56358389                2.78411484
               7.76892131                3.46708990               47.67271385                0.53143218               -0.40604072               -0.43696893                1.66357197               -0.11892768                1.72907166               -2.10998201
               8.76669028                2.83109457               47.41382948                0.11421466                0.27475528               -0.03287585                1.04395832               -0.94990617                4.09534120               -4.66875994
               9.77441642                2.17863133               47.17861167                0.00736373                1.11525747               -0.50058069                0.34861735               -2.07310320                6.12982092               -3.16557344
              10.78899543                1.49856565               46.96041317                0.00995169                1.46995717               -0.80425592               -0.37500730               -3.24261472                8.01944182               -1.26434056
              11.80381556                0.78834316               46.76332684                0.01272710                1.15923384               -0.39783625               -1.16334909               -3.95199744                9.19831451               -0.18188074
              12.81218011                0.06153799               46.56891230                0.01378578                0.58357849                0.20934113               -1.94237925               -3.69121258                8.50856458                0.87389395
              13.81548713               -0.66292870               46.35742835                0.09753445                0.36948553                0.46487051               -2.65297255               -2.49759076                6.69842599                2.76490651
              14.81956982               -1.37568385               46.12566056                0.32763398                0.63072698                0.65532943               -3.33944798               -0.97588904                5.06949243                4.38118354
              15.82810167               -2.07756965               45.88044118                0.70758045                1.06134483                1.07753026               -4.02413730               -0.30533284                3.07313753                2.51075216
              16.84079672               -2.77341283               45.60768699                1.00000000                1.26950466                1.55740922               -4.76552443               -0.20402277                1.75913043               -2.39097826
               7.40444463                5.09136189               47.85096751                0.89219028               -0.50178594               -0.78374388                2.18890431               -0.08536683                0.36186076                3.26786930
               8.39942677                4.46355400               47.53620150                0.37213808               -0.45143077               -0.26382373                1.20190621               -0.12092294                2.02991096               -3.03044848
               9.39541602                3.83316927               47.25507096                0.01363783                0.22756324                0.41914325                0.47041048               -1.91228156                8.62087468               -9.86537386
              10.40397804                3.16957260               47.07241084                0.00010000                1.36778263               -0.83829183               -0.00770978               -4.45986513               15.17460518               -5.84224062
              11.42277167                2.48092913               46.92199807                0.00010000                2.01710401               -1.42118657               -0.80066408               -6.13015789               16.92773964               -2.68950598
              12.44432012                1.77642481               46.77446749                0.00010000                2.09858160               -1.14998813               -1.45486849               -6.98169753               17.21017404               -0.39435244
              13.46474330                1.05942905               46.62941112                0.00010000                2.07305067               -0.54054844               -2.06511799               -6.83713253               17.43269276                1.89481854
              14.48578113                0.33786160               46.48543441                0.00061007                2.19894746               -0.28218596               -2.64988908               -5.26097674               16.28525801                5.10042382
              15.50872225               -0.37311188               46.31628144                0.13889554                1.73605257               -0.89159820               -2.67360233               -2.48994475               10.78836458                9.79566494
              16.52050218               -1.06859408               46.05966322                0.36153638                1.15942565                0.38038144               -3.32690885               -0.78072140                3.75586568                4.14918545
              17.53191076               -1.75778807               45.74867026                0.77397639                1.14085809                1.86302446               -4.24019161               -0.58270364                1.08726788               -2.96430534
               8.02871955                6.08379840               47.74634435                0.86946689               -0.40240676               -0.70534501                1.91214595               -0.06053575                0.05669759                3.17910855
               9.02469548                5.46181343               47.39837876                0.34085028               -0.31467494               -0.12267491                0.79219346                0.02271898                0.69208962               -2.99360455
              10.02242605                4.83947744               47.06332845                0.00579538                0.63818887                0.61878661               -0.22976358               -2.57577716               13.50322047              -10.38021181
              11.03745926                4.16186550               46.97155254                0.00010000                1.85570133               -0.46914420               -0.69124997               -5.38685526               25.49110367               -5.91325199
              12.05954007                3.47014191               46.87636427                0.00010000                2.41112151               -0.88856634               -1.20995328               -6.33111049               25.58825798               -3.08031680
              13.08568169                2.76534340               46.78628932                0.00010000                2.72302972               -1.05254565               -1.73352815               -6.97820939               26.02598769               -0.33500012
              14.11400067                2.05072702               46.69910634                0.00010000                2.85634204               -0.98332344               -2.19827581               -6.99854922               26.28890654                2.43702650
              15.14280853                1.33142758               46.61321118                0.00406360                3.11129678               -0.95767274               -2.55026948               -6.71175221               26.97640358                5.41584275
              16.17622660                0.60648418               46.53815004                0.13749503                2.71774503               -1.85259052               -2.89827115               -3.73785774               16.61295070               10.16560500
              17.19716343               -0.06996202               46.24357976                0.34074643                1.56520044               -0.05709344               -2.87804365               -0.48984114                2.90790291                3.68463877
              18.20753061               -0.73615234               45.89157028                0.75429508                1.03671853                2.04789997               -3.89496956               -0.09042756                0.09743786               -3.00013033
               8.64720386                7.07725499               47.64082173                0.85609129               -0.30017488               -0.60547562                1.64157271               -0.05880529                0.05988720                3.14743127
               9.64420211                6.46110050               47.26283578                0.32376590               -0.16777296               -0.01996276                0.38648614                0.07295106                0.50227458               -2.84969038
              10.64384840                5.84554500               46.89384699                0.00278808                1.06871710                0.62766039               -0.77191151               -3.20995940               17.85821579               -8.94845899
              11.66557646                5.16018972               46.86278766                0.00010000                2.44115781               -0.02380980               -1.20345022               -6.59440321               34.68844342               -6.09530870
              12.69267156                4.46315780               46.83015248                0.00010000                2.92971841               -0.57298226               -1.61427052               -7.18372633               34.69523401               -3.06906224
              13.72417082                3.75537389               46.79884973                0.00010000                3.30082864               -0.96235319               -1.99528432               -7.58666385               34.96447515               -0.23414534
              14.75868813                3.03976258               46.77082932                0.00010000                3.58090477               -1.18324199               -2.31646735               -7.67526480               35.46269405                2.61710970
              15.79578892                2.31870814               46.74834213                0.00898348                3.83332806               -1.36342936               -2.56272275               -7.70955810               36.27406531                5.69456408
              16.83535469                1.58983631               46.73516104                0.14449458                2.87764795               -1.46218824               -2.72896013               -4.30821673               21.41983701                8.67428498
              17.85334188                0.93026405               46.41359000                0.34944805                1.35640742                0.12484088               -2.53724832               -0.53097250                3.10255459                2.69993288
              18.86248284                0.28316993               46.03080937                0.75959302                0.91409633                1.79465140               -3.63947515               -0.01834822                0.10504058               -3.46247377
               9.25985242                8.07168889               47.53593464                0.84445841               -0.19879283               -0.50795142                1.37186172               -0.05790466                0.05967021                3.18037880
              10.25786449                7.46141417               47.12802613                0.30999733               -0.03573905                0.08395272               -0.01861293                0.08792362                0.57416036               -2.78597140
              11.25913764                6.85203065               46.73049727                0.00199489                1.50469494                0.69082802               -1.28419046               -3.76955129               22.32856270               -8.53761842
              12.28795839                6.16138930               46.75738473                0.00010000                3.07718674                0.22426991               -1.65242572               -7.70741687               43.57316080               -5.76090072
              13.32068138                5.45868227               46.78413561                0.00010000                3.46926175               -0.36204754               -1.96748722               -8.22502213               43.66773803               -2.92195238
              14.35734363                4.74609633               46.81220317                0.00010000                3.82398743               -0.91190688               -2.22677625               -8.53609324               43.95149346               -0.09211391
              15.39716112                4.02706218               46.84366918                0.00010000                4.06000054               -1.30932450               -2.41240923               -8.60488820               44.46823948                2.74493365
              16.43854364                3.30415899               46.88082835                0.01397757                4.06726192               -1.45107494               -2.49634597               -8.71162099               45.22965002                5.59940667
              17.47850636                2.57724042               46.92588374                0.15181639                2.73333578               -1.10761077               -2.40971914               -4.89764892               26.06208277                8.33537533
              18.49321035                1.93253480               46.57713564                0.35906614                1.14227592                0.27147924               -2.20643340               -0.51087883                3.30136029                2.24339033
              19.50135188                1.29974069               46.16366697                0.76548632                0.81415273                1.54521606               -3.41095415               -0.00986190                0.13226046               -3.93512189
               9.86659520                9.06709596               47.43138147                0.83388902               -0.09763729               -0.41078284                1.10113344               -0.05758973                0.06239221                3.18551266
              10.86561883                8.46277956               46.99375635                0.29789557                0.09435240                0.19063182               -0.42402352                0.08845156                0.70000197               -2.74074589
              11.86848225                7.85936156               46.56891303                0.00164944                1.95788336                0.78165150               -1.78414331               -4.27030597               26.87445350               -8.36860171
              12.90477650                7.16467512               46.65439326                0.00010000                3.74909181                0.41540326               -2.06591565               -8.71113331               52.43894773               -5.47576837
              13.94346409                6.45591685               46.73977918                0.00010000                4.01462767               -0.23316859               -2.27767587               -9.24340054               52.55721423               -2.66945089
              14.98506905                5.73713576               46.82642682                0.00010000                4.25318113               -0.89522990               -2.41715329               -9.48114050               52.86361075                0.07211796
              16.02852771                5.01357609               46.91655552                0.00010000                4.31546046               -1.36669184               -2.46245551               -9.45180786               53.40547578                2.82607998
              17.07137826                4.28968664               47.01242559                0.01917582                4.02491005               -1.44387798               -2.37134224               -9.36835737               54.11992400                5.63922112
              18.10902591                3.56768409               47.11485123                0.15922406                2.46228853               -0.84603324               -2.00254995               -5.14765647               30.57923833                8.29574937
              19.12062403                2.93569363               46.73682750                0.36882620                0.94239523                0.32077692               -1.86456163               -0.43654587                3.40377704                2.03421207
              20.12787382                2.31407425               46.29249207                0.77139922                0.72497847                1.33548908               -3.18375005               -0.00643856                0.15862112               -4.17483670
              10.46733344               10.06347323               47.32687081                0.82419033                0.00344867               -0.31401876                0.82895138               -0.05768909                0.06377576                3.15791572
              11.46736793                9.46522681               46.85973221                0.28717252                0.22512581                0.30021899               -0.83012107                0.07767492                0.85973023               -2.71536767
              12.47183596                8.86766368               46.40848224                0.00144228                2.49062541                0.87167659               -2.27435252               -4.74343534               31.50312261               -8.21700975
              13.51718044                8.16969737               46.55370886                0.00010000                4.57583850                0.51010665               -2.44805274               -9.49711130               61.33659561               -5.10056446
              14.56335273                7.45401890               46.69748435                0.00010000                4.64405686               -0.26769102               -2.54604573               -9.91952984               61.36683688               -2.33375076
              15.61006157                6.72819173               46.84143466                0.00010000                4.61106755               -0.92355547               -2.56387200               -9.92823232               61.66508504                0.21311227
              16.65557408                5.99972834               46.98909583                0.00010000                4.35034572               -1.33756094               -2.47172860               -9.81936035               62.30819377                2.79298076
              17.69706849                5.27528143               47.14370272                0.02457368                3.69860815               -1.41036276               -2.21180104               -9.54152034               63.03710362                5.61676414
              18.72954624                4.56031975               47.30351049                0.16685857                2.05103934               -0.64284098               -1.52177462               -5.16875632               35.04414911                8.33803559
              19.73808927                3.93895034               46.89474410                0.37863108                0.74578132                0.30490898               -1.49839678               -0.36155967                3.43872948                2.01381684
              20.74446187                3.32645047               46.41937837                0.77719227                0.63725934                1.14596258               -2.94235638               -0.00808994                0.18140147               -4.20378235
              11.06193427               11.06081559               47.22200889                0.81531665                0.10476172               -0.21807859                0.55429341               -0.05815150                0.07900955                3.13066542
              12.06298188               10.46878394               46.72574659                0.27798648                0.36043600                0.41296728               -1.23656878                0.04496677                1.07817586               -2.74621624
              13.06914299                9.87679509               46.24937711                0.00123105                3.27485832                0.92919194               -2.74875864               -5.28033483               36.31809667               -7.81537144
              14.12847905                9.17487725               46.45726076                0.00010000                5.87180675                0.17849878               -2.79133477               -9.92909910               70.31921453               -4.30302821
              15.18657912                8.45056303               46.65852516                0.00010000                5.61579545               -0.76311158               -2.76680259               -9.45364566               69.97565230               -1.80788423
              16.24079496                7.71866465               46.85675242                0.00010000                4.92358410               -0.97737934               -2.66694546               -9.03198671               70.18487304                0.26905964
              17.28505080                6.98682487               47.05921147                0.00010000                3.95807401               -1.01657382               -2.45291624               -9.03730460               71.09996726                2.41171933
              18.31995644                6.26147939               47.27265244                0.03031011                2.84655381               -1.11793232               -2.04969915               -9.08070164               72.09357546                5.07427053
              19.34198188                5.55482727               47.49206489                0.17488291                1.36528391               -0.42683080               -0.97899277               -5.10068048               39.63141023                8.09287818
              20.34726212                4.94179181               47.05249112                0.38844649                0.53649298                0.24552290               -1.10051205               -0.33147560                3.48367628                2.18713496
              21.35271174                4.33699351               46.54624655                0.78278134                0.54496221                0.96409933               -2.67508392               -0.01534176                0.22321274               -4.08216132
              11.65023372               12.05911166               47.11716529                0.80638257                0.20540445               -0.12303520                0.28076908               -0.05831772               -0.03335497                2.71783368
              12.65228776               11.47348616               46.59078632                0.26911629                0.49511142                0.52624484               -1.64715762               -0.03420169                1.57361140               -2.46751872
              13.66013594               10.88624752               46.09639623                0.00082074                4.62713783                0.87709583               -3.18490760               -6.09349929               41.70534616               -5.79521643
              14.74483052               10.17326734               46.37179669                0.00010000                8.51782377               -1.77768734               -3.06990501               -8.02101489               79.29536061               -2.57082341
              15.83049242                9.43875667               46.62573676                0.00010000                7.41647386               -1.53686131               -2.92879064               -6.50356494               77.99450629               -1.01011205
              16.89315999                8.70864415               46.87142921                0.00010000                5.07604125               -1.00279049               -2.72533269               -5.64546540               78.02700208                0.19306164
              17.93201324                7.97939687               47.12214497                0.00010000                2.71460296               -0.39313895               -2.41309896               -6.01286295               79.38557081                1.45663701
              18.94745205                7.25292279               47.39083074                0.03659725                0.76034806                0.15943958               -1.93116833               -6.63134173               81.24408089                3.26489777
              19.94722021                6.55178314               47.67447764                0.18338011                0.09207383                0.00286311               -0.41825876               -4.79106155               44.86829316                5.83597858
              20.94929353                5.94386079               47.21235292                0.39861062                0.32657210                0.16008501               -0.66106945               -0.39811523                3.87854610                2.12838758
              21.95375165                5.34573246               46.67404182                0.78803095                0.44581176                0.79174538               -2.37688623               -0.03799206                0.14065612               -3.33175003
              12.23201893               13.05835488               47.00422570                0.90072632                0.31430719               -0.07567782               -0.02425730                0.27391576                1.24665908                2.30613457
              13.23516200               12.47930883               46.46196393                0.63261245                0.77364453                0.58226762               -2.02639832                0.08652982                4.13596255               -2.13610455
              14.24749182               11.89433701               45.97726991                0.48170036                9.01938033                0.80894913               -3.48048137               -8.26367924               47.98706781               -4.11963029
              15.41554960               11.13932351               46.30978621                0.44578256               13.68196017               -3.39438374               -3.24381759               -6.65365164               87.05447905               -1.41483225
              16.52113102               10.41982580               46.60223442                0.43622888                8.58479246               -1.89308642               -3.01870037               -2.97187349               84.73186533               -0.54144369
              17.58724545                9.69860884               46.88431506                0.44527447                4.96919442               -1.00353108               -2.74064006               -2.63463957               84.69904141                0.12195966
              18.62051491                8.97896209               47.17183247                0.47230691                1.38489399               -0.04347718               -2.35687877               -2.84686656               86.32176884                0.82221655
              19.61494333                8.26466818               47.48145334                0.52049268               -3.26461326                1.17453941               -1.82374930               -4.45474997               88.97075872                1.90909747
              20.55522264                7.55488454               47.81605430                0.59488476               -3.47964199                0.31013978               -0.04248987               -5.18348962               51.38052890                3.97911512
              21.54535049                6.94499351               47.36749849                0.70299451               -0.35070379                0.11327212               -0.21139551               -0.49710984                6.93159218                1.95737878
              22.54820857                6.35282841               46.81433254                0.89572793                0.28580739                0.70959547               -1.99399837                0.22918187                1.76206638               -2.62811015
               6.40218962                3.24741482               49.09817917                1.00000000               -0.76980285               -0.85224938                2.84463971               -0.17594966               -2.05723735                2.33646259
               7.39449159                2.58069924               48.81264990                0.83071575               -0.76772648               -0.52952644                2.05247201               -0.16021243               -2.78624799               -1.33243466
               8.38683509                1.91093768               48.51288453                0.59793452               -1.04035775               -0.27843851                1.17804378               -0.56258826               -2.63845722               -1.07581984
               9.37368444                1.22524966               48.23075533                0.49597582               -1.43052615               -0.08615914                0.35276656               -0.67815435               -0.55943400               -0.30471515
              10.35822457                0.51151156               47.97272884                0.45269245               -1.31933750                0.17539424               -0.52345118               -0.58170944                1.63692489               -0.23434857
              11.34729769               -0.23187791               47.73418198                0.45392009               -0.50838458                0.42784432               -1.44262820               -0.33350089                2.76409861               -0.01477857
              12.34805688               -0.99190539               47.49840116                0.49693305                0.59046642                0.67073558               -2.34594411               -0.28917847                2.06073156                0.19378948
              13.35910702               -1.75023846               47.24608141                0.58816796                1.31878895                0.89931111               -3.18530571               -0.35868640                0.18655754                0.33972888
              14.37443266               -2.49739921               46.97308102                0.74542085                1.56228740                1.11318688               -3.99313424               -0.33034785               -1.73958403                0.47246315
              15.39035277               -3.23392561               46.68173919                1.00000000                1.60946422                1.32665334               -4.81880379               -0.21753961               -2.27361832                1.07157921
              16.40662194               -3.96516082               46.39675633                1.00000000                1.62691767                1.63249714               -5.66906596               -0.24668355               -1.86933019               -1.75841031
               7.06714571                4.23889233               48.97987039                0.97526695               -0.60176709               -0.84542499                2.50236012               -0.07104723                0.64038375                2.89892067
               8.06112804                3.57540397               48.68952384                0.51437641               -0.41058567               -0.44562484                1.69793520               -0.13216828                1.88446462               -2.24529610
               9.05893400                2.90815330               48.42434911                0.10811645                0.27439567               -0.02326408                1.06226514               -0.97127193                4.29084973               -4.88336523
              10.06661595                2.22438807               48.18205900                0.00746507                1.10186313               -0.52438068                0.34124946               -2.07411930                6.26421712               -3.36194529
              11.08097126                1.51326551               47.95650649                0.00997206                1.45276015               -0.79698028               -0.40731082               -3.22123842                8.10031819               -1.54582687
              12.09567116                0.77240053               47.75142650                0.01280710                1.16870533               -0.40457081               -1.22067231               -3.91637886                9.24663122               -0.44468548
              13.10434537                0.01480196               47.54907360                0.01419842                0.62979529                0.18928745               -2.02970708               -3.67055105                8.59575691                0.65376836
              14.10826706               -0.74124535               47.33031597                0.09258064                0.43136945                0.46949179               -2.77490694               -2.51248961                6.83734807                2.56959705
              15.11297276               -1.48626734               47.09148299                0.31728962                0.68955549                0.69148771               -3.50006422               -0.98249502                5.22738438                4.48855289
              16.12205817               -2.22065908               46.83921544                0.68896693                1.12087776                1.12973927               -4.22400874               -0.31742688                3.20859652                2.59392218
              17.13539031               -2.94883585               46.55885976                1.00000000                1.33321391                1.63317601               -5.00238992               -0.22449230                1.86877995               -2.45616024
               7.72774539                5.23050632               48.87321027                0.87971192               -0.51581285               -0.80917928                2.26207418               -0.08667174                0.35785354                3.41845516
               8.72258726                4.57178674               48.54835646                0.35799374               -0.46599166               -0.27393136                1.22959284               -0.12205492                2.15636865               -3.19789075
               9.71842556                3.91047240               48.25977669                0.01343072                0.22512905                0.44247752                0.47165672               -1.97472913                8.99766828              -10.37756403
              10.72708984                3.21476205               48.07203960                0.00010000                1.36808901               -0.83791263               -0.06795049               -4.50874769               15.50885171               -6.36588164
              11.74578734                2.49557196               47.91365338                0.00010000                2.01719049               -1.42358436               -0.87095848               -6.11306528               17.17123348               -3.23434743
              12.76743365                1.76003067               47.75943486                0.00010000                2.12521997               -1.17786765               -1.55608113               -6.97485072               17.53089271               -0.91153252
              13.78829174                1.01188036               47.60811564                0.00010000                2.12464392               -0.59064190               -2.20089629               -6.82844615               17.78649469                1.44081017
              14.80992653                0.25915138               47.45815233                0.00010000                2.29523765               -0.32010196               -2.81666203               -5.27463902               16.95806949                4.73666776
              15.83419649               -0.48356946               47.28898765                0.13074312                1.83231005               -0.85150554               -2.78844422               -2.55867235               11.41795553                9.51371413
              16.84657273               -1.21133083               47.02572477                0.34537584                1.21445704                0.39952906               -3.46215352               -0.81512102                3.91985119                4.17433226
              17.85848563               -1.93249730               46.70537716                0.76257040                1.19128985                1.92806536               -4.41978546               -0.60308509                1.11521079               -3.17384681
               8.38285144                6.22270874               48.76579176                0.85733612               -0.41305761               -0.72657428                1.97917543               -0.06215684                0.05754717                3.31637646
               9.37872087                5.56992535               48.40637266                0.32715524               -0.31936670               -0.13228016                0.80636766                0.03477037                0.74335888               -3.13506609
              10.37646411                4.91700285               48.06089789                0.00553022                0.63102877                0.63620162               -0.25679917               -2.59963869               13.88625280              -10.87561589
              11.39134144                4.20762982               47.96431588                0.00010000                1.84886100               -0.41707764               -0.75691536               -5.44255105               26.10700951               -6.50791715
              12.41344133                3.48479382               47.86375280                0.00010000                2.42621504               -0.87105755               -1.31551775               -6.34931234               26.15326952               -3.60842241
              13.43986574                2.74884318               47.76825949                0.00010000                2.76072056               -1.04326690               -1.87872882               -6.99538271               26.59895862               -0.83410343
              14.46865574                2.00298913               47.67622166                0.00010000                2.91791769               -0.97802960               -2.38914296               -7.02445478               26.93295397                1.98488256
              15.49822410                1.25235262               47.58659629                0.00032941                3.18128878               -0.94894246               -2.78822391               -6.71190826               27.65682054                5.04439422
              16.53228152                0.49670255               47.50763100                0.12962752                2.82297485               -1.77754857               -3.22656251               -3.83782768               17.51756427                9.63897893
              17.55468359               -0.21266850               47.21408411                0.32575647                1.66900180               -0.03268607               -3.02960737               -0.56992799                3.49459696                3.52560017
              18.56566155               -0.91027454               46.85168016                0.74384487                1.09779577                2.10084946               -4.09210710               -0.08785531                0.11156138               -3.34951002
               9.03206905                7.21597484               48.65752359                0.84419624               -0.30804829               -0.62303866                1.70094325               -0.06020815                0.06191897                3.28763536
              10.02898857                6.56914114               48.26668998                0.31055190               -0.16703689               -0.02365730                0.38431228                0.08898500                0.55563179               -2.98877836
              11.02872831                5.92319643               47.88589821                0.00259172                1.07296414                0.64154333               -0.81789988               -3.22438136               18.32774584               -9.34684575
              12.05044785                5.20642050               47.85031645                0.00010000                2.44297078                0.02395436               -1.29189145               -6.63665923               35.50404868               -6.57296949
              13.07758773                4.47815081               47.81335260                0.00010000                2.94414204               -0.52567150               -1.74977203               -7.20745117               35.50543868               -3.55948259
              14.10933069                3.73916534               47.77800187                0.00010000                3.33527398               -0.91379434               -2.18287044               -7.60970845               35.78882689               -0.69751751
              15.14429321                2.99231977               47.74650441                0.00010000                3.63221273               -1.12770839               -2.56338731               -7.69401911               36.32382510                2.19968415
              16.18197495                2.24017253               47.72122625                0.00509206                3.90839210               -1.28819500               -2.88468067               -7.69173316               37.17958709                5.33274315
              17.22246105                1.48087957               47.70590671                0.13653060                3.00881572               -1.38172639               -3.15762145               -4.37318708               22.59950496                8.49171007
              18.24215126                0.78801545               47.38737895                0.33437911                1.47397794                0.18374860               -2.71916589               -0.62937582                3.84076310                2.50481614
              19.25194061                0.10951969               46.99334031                0.74908224                0.97893485                1.84594390               -3.87011873               -0.01749430                0.13174308               -3.85578602
               9.67531468                8.21024797               48.54990248                0.83281782               -0.20357078               -0.52302301                1.42340590               -0.05927748                0.06170553                3.32007752
              10.67327897                7.56945220               48.12775374                0.29712131               -0.03087784                0.08683416               -0.03617489                0.10396723                0.64398393               -2.92392749
              11.67469712                6.92983371               47.71735198                0.00182961                1.51874548                0.70967775               -1.34435591               -3.77670738               22.91427667               -8.91267851
              12.70365388                6.20810890               47.74031803                0.00010000                3.09251700                0.27551450               -1.76219274               -7.74201770               44.59705824               -6.18144809
              13.73654746                5.47428039               47.76366749                0.00010000                3.49243661               -0.29426122               -2.13129998               -8.24528829               44.70623417               -3.35079272
              14.77350262                4.73056729               47.78886791                0.00010000                3.86103501               -0.83083715               -2.45146091               -8.54387599               45.01346478               -0.49755888
              15.81376816                3.98043496               47.81816892                0.00010000                4.11635061               -1.21256738               -2.70766371               -8.59543856               45.57768936                2.39212183
              16.85582963                3.22658872               47.85412632                0.00996108                4.16033439               -1.34424569               -2.87614115               -8.66378198               46.43665875                5.34973756
              17.89697485                2.46906802               47.89954628                0.14361746                2.88131656               -1.02850089               -2.90699098               -4.94298525               27.47878788                8.31955329
              18.91345596                1.79100647               47.55412184                0.34378771                1.26641668                0.34959776               -2.41491952               -0.60156511                4.10684727                2.07863435
              19.92230319                1.12664434               47.12835944                0.75494532                0.88472273                1.60585217               -3.67130069               -0.00595133                0.16446348               -4.32305972
              10.31247504                9.20551438               48.44260556                0.82246594               -0.09928725               -0.42406591                1.14514233               -0.05892097                0.06460472                3.32346312
              11.31148217                8.57087782               47.98935991                0.28545115                0.10312090                0.19942568               -0.45607423                0.10277194                0.79278643               -2.87817574
              12.31453746                7.93738999               47.55071409                0.00149787                1.98393254                0.80603407               -1.85708919               -4.27284424               27.59426720               -8.73249678
              13.35116082                7.21193079               47.63310252                0.00010000                3.78430564                0.46906290               -2.19312127               -8.73332339               53.68632300               -5.85112286
              14.39022357                6.47226558               47.71610006                0.00010000                4.05688903               -0.15745093               -2.46441403               -9.24791497               53.82839483               -3.03509592
              15.43229860                5.72254859               47.80105834                0.00010000                4.30697211               -0.79724348               -2.67039386               -9.46136439               54.16912037               -0.25996933
              16.47636302                4.96806842               47.89041391                0.00010000                4.38838219               -1.24857321               -2.79083020               -9.40776028               54.78141699                2.55751110
              17.52006625                4.21328762               47.98684785                0.01494394                4.14102852               -1.32131133               -2.78475521               -9.30678792               55.65982977                5.48389676
              18.55918359                3.46030955               48.09238997                0.15086549                2.62386970               -0.76724079               -2.54562685               -5.17925998               32.21866542                8.40387342
              19.57254364                2.79500741               47.71714732                0.35334165                1.06811340                0.40665360               -2.09269268               -0.51262037                4.24128409                1.91657678
              20.58054585                2.14163673               47.25936294                0.76067973                0.80022145                1.40618511               -3.46608955               -0.00068092                0.19509859               -4.53632265
              10.94340938               10.20176665               48.33533702                0.81303165                0.00494271               -0.32566632                0.86562914               -0.05893413                0.06607461                3.29349750
              11.94345880                9.57344071               47.85120818                0.27532129                0.23889496                0.31421719               -0.87610774                0.08738031                0.97889836               -2.85226870
              12.94818728                8.94595439               47.38530678                0.00129758                2.53265081                0.89981505               -2.35652258               -4.74771397               32.37247657               -8.56295355
              13.99411182                8.21749016               47.52853916                0.00010000                4.63920408                0.55804536               -2.58761828               -9.50966289               62.82511236               -5.42768756
              15.04097136                7.47113137               47.67104603                0.00010000                4.71803360               -0.19811388               -2.74842599               -9.90456812               62.87822481               -2.62917877
              16.08847249                6.71462242               47.81452289                0.00010000                4.69512898               -0.82772122               -2.83465618               -9.87631075               63.21845658               -0.03788013
              17.13487394                5.95546349               47.96280339                0.00010000                4.44901205               -1.21552130               -2.81620182               -9.73926443               63.95496700                2.60629572
              18.17745273                5.20016249               48.11971317                0.02016150                3.83979627               -1.28001504               -2.63393340               -9.47554399               64.93649974                5.53134628
              19.21166986                4.45372320               48.28576102                0.15826635                2.22118192               -0.56453986               -2.08886676               -5.19880216               36.90831969                8.55352357
              20.22187637                3.79913955               47.87867439                0.36288488                0.86805248                0.39134281               -1.73814593               -0.42449370                4.28532428                1.95178215
              21.22903091                3.15476804               47.38860392                0.76625615                0.71545404                1.22505992               -3.23786831               -0.00190172                0.22127496               -4.52565813
              11.56794824               11.19900105               48.22769375                0.80447739                0.10937966               -0.22802091                0.58363306               -0.05962886                0.08199246                3.26520581
              12.56904203               10.57716216               47.71309204                0.26638527                0.37927471                0.43174656               -1.29617443                0.04763326                1.23509380               -2.88428138
              13.57553373                9.95538629               47.22145798                0.00109902                3.33742764                0.95453807               -2.83330520               -5.29699138               37.35680777               -8.13105650
              14.63579059                9.22309169               47.42861588                0.00010000                5.97331084                0.20828930               -2.93786679               -9.93855491               72.06140559               -4.56384356
              15.69499995                8.46830331               47.62984272                0.00010000                5.73248372               -0.71160269               -2.97670778               -9.42552223               71.72879510               -2.02102250
              16.75044026                7.70599417               47.82878551                0.00010000                5.05188569               -0.90068029               -2.94403439               -8.95706441               71.97623477                0.10327218
              17.79603766                6.94375799               48.03312533                0.00010000                4.09276972               -0.91359347               -2.79707253               -8.92676790               73.00308576                2.29977212
              18.83229566                6.18768732               48.25039753                0.02567606                3.00964110               -0.98705325               -2.45430220               -9.00066131               74.37543284                5.02228404
              19.85623049                5.44901876               48.47972782                0.16595482                1.53566363               -0.33483110               -1.55505288               -5.14105827               41.74109607                8.38439174
              20.86300893                4.80283426               48.04039155                0.37239443                0.65101728                0.32779016               -1.34275425               -0.38839812                4.32672109                2.18701511
              21.86925083                4.16613793               47.51812407                0.77163013                0.62419019                1.04833919               -2.97525145               -0.00993579                0.26704382               -4.35590025
              12.18589457               12.19720623               48.12008075                0.79576541                0.21316591               -0.13111341                0.30299936               -0.06007766               -0.03682674                2.83645125
              13.18802623               11.58207565               47.57395834                0.25821884                0.52116736                0.54947547               -1.72072533               -0.04691179                1.78361498               -2.59030561
              14.19631792               10.96504516               47.06408480                0.00075196                4.71987362                0.87494071               -3.27266150               -6.10616379               42.94913375               -6.02509046
              15.28242370               10.22165595               47.34036013                0.00010000                8.66202577               -1.76748744               -3.21644443               -8.02937712               81.30066853               -2.72815320
              16.36955844                9.45689932               47.59543221                0.00010000                7.57264058               -1.50630507               -3.13839888               -6.47739891               79.96606560               -1.12280423
              17.43387652                8.69660882               47.84289550                0.00010000                5.25434983               -0.95324728               -2.99895638               -5.58447735               80.02568953                0.11252622
              18.47464543                7.93719163               48.09652424                0.00010000                2.91511126               -0.32739956               -2.74501319               -5.90932371               81.49484672                1.40862532
              19.49217874                7.18042142               48.36996212                0.03170201                0.95281581                0.24232064               -2.29922637               -6.54869108               83.91121925                3.23501721
              20.49370175                6.44702658               48.66781292                0.17424035                0.24052459                0.15829925               -0.98330268               -4.77695059               47.27278793                6.07735257
              21.49698923                5.80569535               48.20468762                0.38226480                0.42615533                0.23553137               -0.89560258               -0.46890141                4.72764949                2.17688670
              22.50222486                5.17573482               47.64892871                0.77661074                0.52356220                0.87729907               -2.67091860               -0.03622153                0.18168696               -3.52732303
              12.79700786               13.19637878               48.00404907                0.89554742                0.32570134               -0.08274512               -0.01092667                0.28861814                1.29939810                2.40838074
              13.80026488               12.58815167               47.44128416                0.62729907                0.84111443                0.60760291               -2.11236835                0.04918044                4.48452664               -2.24121977
              14.81383015               11.97288510               46.94198771                0.48059010                9.15420035                0.78399463               -3.56327474               -8.26926334               49.48188054               -4.28903056
              15.98334888               11.18774194               47.27663133                0.44573137               13.83344743               -3.39140054               -3.38609632               -6.64287696               89.25322603               -1.47991892
              17.09049910               10.43817720               47.57106126                0.43630616                8.75547607               -1.87221129               -3.21994977               -2.94656949               86.86127667               -0.58176395
              18.15845841                9.68692922               47.85567596                0.44501494                5.17697413               -0.96795953               -3.00260127               -2.59017116               86.84786817                0.10077505
              19.19403858                8.93721000               48.14684504                0.47130710                1.65142361                0.00183759               -2.67272910               -2.78045966               88.57717025                0.82024729
              20.19148688                8.19253373               48.46180619                0.51792757               -2.93105184                1.21123043               -2.16212317               -4.32044928               91.89706187                1.90419271
              21.13541755                7.45218474               48.81321226                0.59021646               -3.32821100                0.51581606               -0.59325097               -5.07786206               54.12343692                4.17189595
              22.12492266                6.80754489               48.36442085                0.69472826               -0.34850484                0.18495407               -0.42723473               -0.63169893                7.92662324                2.02903684
              23.12844745                6.18368391               47.79313534                0.88994597                0.35247921                0.79490901               -2.26999124                0.23616191                1.87604668               -2.76340726
               6.67090156                3.39114448               50.12691305                1.00000000               -0.79052638               -0.87238867                2.92431472               -0.18373426               -2.10252619                2.42495589
               7.66299629                2.69189682               49.83333929                0.82097154               -0.79102781               -0.54193862                2.09821670               -0.17460294               -2.87986023               -1.40538775
               8.65508100                1.98938123               49.52474274                0.59356197               -1.05590523               -0.28461169                1.19490466               -0.56160134               -2.75432571               -1.05897975
               9.64187819                1.27088256               49.23417833                0.49445443               -1.42166833               -0.07744060                0.33150570               -0.66394413               -0.67212950               -0.31969474
              10.62664764                0.52477197               48.96720537                0.45246566               -1.29680660                0.19526005               -0.58345360               -0.56561552                1.49019158               -0.24146593
              11.61594206               -0.25040308               48.71927821                0.45366098               -0.50183729                0.45996425               -1.54207800               -0.32604120                2.61814015               -0.01921789
              12.61661089               -1.04222688               48.47426027                0.49579347                0.58101670                0.71257497               -2.48761666               -0.27587504                1.96558542                0.19193511
              13.62756239               -1.83311036               48.21332711                0.58519743                1.32693647                0.95026751               -3.37129915               -0.34108200                0.14498195                0.34237347
              14.64314962               -2.61357315               47.93203025                0.73967629                1.60848966                1.17537194               -4.22292144               -0.32092083               -1.77101093                0.46510389
              15.65973219               -3.38366560               47.63222786                0.99754479                1.68671792                1.39888224               -5.09071234               -0.22044405               -2.32293887                1.06795974
              16.67688398               -4.14831131               47.33854342                1.00000000                1.71517925                1.71544581               -5.98153346               -0.26460141               -1.92662022               -1.78785131
               7.36831188                4.38242059               50.00522171                0.96165065               -0.61799902               -0.86674243                2.58172332               -0.07392714                0.72350540                3.03304668
               8.36213189                3.68647743               49.70667255                0.49767702               -0.41698806               -0.45747242                1.73896862               -0.14470166                2.05095877               -2.38180357
               9.35997211                2.98653512               49.43507478                0.10189738                0.27057482               -0.01560147                1.08340307               -0.98820165                4.49827346               -5.11113585
              10.36754338                2.27010816               49.18543666                0.00757249                1.08310942               -0.54422353                0.33326837               -2.07051790                6.40844289               -3.59393831
              11.38163430                1.52672457               48.95226695                0.01001966                1.43188436               -0.78880499               -0.44368513               -3.18790804                8.19475955               -1.85927931
              12.39618107                0.75419656               48.73891340                0.01293817                1.17857367               -0.41178788               -1.28573240               -3.86460243                9.30889926               -0.74769888
              13.40520578               -0.03510113               48.52831816                0.01467876                0.68218181                0.16620368               -2.12538936               -3.63297005                8.69503809                0.38483978
              14.40982471               -0.82360768               48.30193021                0.08779552                0.50061292                0.47124932               -2.90603637               -2.51050917                6.98336813                2.32256262
              15.41521803               -1.60181943               48.05565928                0.30710314                0.75360617                0.72937674               -3.66754160               -0.98548990                5.38910561                4.58964778
              16.42489683               -2.36967678               47.79596101                0.67062393                1.18328199                1.18447472               -4.42957819               -0.32799580                3.34777608                2.67797786
              17.43888367               -3.13115686               47.50763919                0.98893062                1.39868458                1.71129560               -5.24473014               -0.24669684                1.98293702               -2.52623454
               8.06130933                5.37380963               49.89620899                0.86732322               -0.53216021               -0.83039886                2.34048375               -0.08638504                0.35331860                3.58069107
               9.05598773                4.68274737               49.56079336                0.34383575               -0.48115469               -0.28494213                1.25829173               -0.12078912                2.29181692               -3.37437167
              10.05168624                3.98906920               49.26450409                0.01316375                0.21453244                0.46542400                0.47205133               -2.02567550                9.37381507              -10.92022546
              11.06027838                3.25999809               49.07105183                0.00010000                1.35574154               -0.83389288               -0.13118478               -4.54360899               15.85386819               -6.93380785
              12.07880107                2.50899587               48.90457890                0.00010000                2.00986628               -1.42251632               -0.94649253               -6.08046904               17.44212227               -3.84042995
              13.10047571                1.74136116               48.74334587                0.00010000                2.14773293               -1.20511219               -1.66619145               -6.94438750               17.86787309               -1.50786215
              14.12175573                0.96109719               48.58539320                0.00010000                2.17973996               -0.64314876               -2.35028364               -6.79646783               18.15627318                0.88855894
              15.14407051                0.17631463               48.42910117                0.00010000                2.38765958               -0.35753909               -3.00012540               -5.26859574               17.69337560                4.25844666
              16.16950892               -0.59898561               48.26051256                0.12258282                1.92195964               -0.79179342               -2.91015412               -2.62093550               12.11155893                9.07679076
              17.18250970               -1.35997611               47.99042015                0.32929380                1.27006351                0.42862894               -3.59597518               -0.84952062                4.09764154                4.15711099
              18.19491019               -2.11408540               47.66027455                0.75116539                1.24004930                2.00255826               -4.59884448               -0.62662593                1.14245814               -3.43350107
               8.74870869                6.36581261               49.78592785                0.84524550               -0.42521694               -0.74563232                2.05044705               -0.06339546                0.05921589                3.45864630
               9.74445652                5.68077859               49.41450612                0.31364778               -0.32504078               -0.14017567                0.81952755                0.04916940                0.80142669               -3.28836285
              10.74220788                4.99584360               49.05819246                0.00524229                0.61440075                0.65423959               -0.28423256               -2.61288401               14.28435451              -11.40208756
              11.75674454                4.25343030               48.95641423                0.00010000                1.82269880               -0.36349577               -0.82468815               -5.48223480               26.73796059               -7.12943877
              12.77866185                3.49827424               48.85005392                0.00010000                2.42237265               -0.84712074               -1.42739651               -6.35210713               26.73275413               -4.19294605
              13.80519199                2.73009432               48.74871474                0.00010000                2.78305477               -1.02730204               -2.03629879               -6.99592518               27.18359266               -1.41144743
              14.83432295                1.95203590               48.65132348                0.00010000                2.96718021               -0.96440934               -2.60037408               -7.03341268               27.58455229                1.43127826
              15.86453560                1.16924154               48.55744670                0.00010000                3.23835574               -0.92408258               -3.05612505               -6.68916662               28.32155169                4.53900350
              16.89909006                0.38234470               48.47361879                0.12180017                2.92353055               -1.66295764               -3.59662852               -3.93312827               18.52627890                8.88107569
              17.92300621               -0.36110420               48.18298761                0.31085283                1.77398394                0.01493795               -3.19848473               -0.66182784                4.20425871                3.27875306
              18.93456974               -1.09110569               47.80972813                0.73352468                1.15635356                2.17301714               -4.30886923               -0.08590962                0.12976670               -3.79543464
               9.43010947                7.35889698               49.67484060                0.83241541               -0.31693406               -0.64020700                1.76420677               -0.06154673                0.06408872                3.43326486
              10.42694013                6.67994385               49.27052202                0.29745390               -0.16663140               -0.02564467                0.38143517                0.10475819                0.61892648               -3.13843272
              11.42677685                6.00215400               48.87748900                0.00238292                1.06314533                0.65588019               -0.86376579               -3.22823391               18.81667747               -9.76500940
              12.44820304                5.25272818               48.83694983                0.00010000                2.41590324                0.07719865               -1.38230147               -6.66305205               36.33570243               -7.08529430
              13.47509491                4.49205345               48.79515704                0.00010000                2.92962542               -0.46776411               -1.89309027               -7.21593666               36.32554639               -4.10268807
              14.50679555                3.72081512               48.75519232                0.00010000                3.34226720               -0.85028163               -2.38720777               -7.61624720               36.61551101               -1.23540868
              15.54194026                2.94180901               48.71956158                0.00010000                3.65914076               -1.05203883               -2.83962354               -7.69242904               37.17350644                1.68435458
              16.57997836                2.15783298               48.69064852                0.00114210                3.96259202               -1.18546952               -3.25382497               -7.63449575               38.04722484                4.84364077
              17.62119210                1.36775524               48.67200862                0.12857287                3.13725869               -1.25982390               -3.65763150               -4.42568978               23.91526280                8.15769091
              18.64272354                0.64032265               48.35920669                0.31945747                1.60014409                0.27216589               -2.93265267               -0.74261813                4.74539905                2.22406589
              19.65319498               -0.07062506               47.95340700                0.73874388                1.04714398                1.91812810               -4.13667225               -0.01496058                0.16578691               -4.34380235
              10.10538401                8.35300847               49.56440276                0.82123057               -0.20893407               -0.53831465                1.47819818               -0.06082122                0.06415016                3.46559351
              11.10329467                7.68026569               49.12730264                0.28442176               -0.02625681                0.09088738               -0.05477051                0.11893161                0.72877754               -3.07039733
              12.10485888                7.00896120               48.70361015                0.00165132                1.51446854                0.73014136               -1.40302085               -3.77216406               23.52432857               -9.30289309
              13.13358404                6.25497427               48.72214088                0.00010000                3.06986513                0.33516802               -1.87386648               -7.75641468               45.63572369               -6.63319473
              14.16625618                5.48891896               48.74150961                0.00010000                3.47637256               -0.21085299               -2.30468907               -8.24521711               45.75058140               -3.82866146
              15.20311149                4.71308868               48.76317395                0.00010000                3.86001656               -0.72668615               -2.69800591               -8.52908929               46.06939799               -0.97018215
              16.24345651                3.93099512               48.78951591                0.00010000                4.13939799               -1.08585827               -3.04245758               -8.55651241               46.66507297                1.95363038
              17.28589945                3.14553215               48.82330553                0.00588333                4.23150442               -1.20276280               -3.32102694               -8.56132307               47.59211373                5.00047234
              18.32808660                2.35714823               48.86774392                0.13553180                3.03173436               -0.91042090               -3.50122748               -4.96426894               29.04986360                8.18812114
              19.34653414                1.64433912               48.52883725                0.32869401                1.40396766                0.45749831               -2.66437157               -0.70690766                5.10707083                1.84028485
              20.35616595                0.94725687               48.09024095                0.74443818                0.96318106                1.68641907               -3.97857963               -0.00074617                0.20583621               -4.79205732
              10.77437861                9.34813069               49.45428432                0.81111921               -0.10125704               -0.43767379                1.19212144               -0.06047862                0.06711176                3.46794754
              11.77336604                8.68176160               48.98463486                0.27313024                0.11231894                0.20918078               -0.49001090                0.11537998                0.90423028               -3.02294303
              12.77662499                8.01675682               48.53177124                0.00133263                1.98754762                0.83497569               -1.92793274               -4.26172158               28.34410528               -9.10436692
              13.81311699                7.25943154               48.61053083                0.00010000                3.77255862                0.53279920               -2.32159880               -8.72805205               54.94954233               -6.25344840
              14.85207616                6.48783639               48.69049090                0.00010000                4.05103076               -0.06131506               -2.66238506               -9.22364120               55.10232683               -3.44258989
              15.89413760                5.70628140               48.77301894                0.00010000                4.31451934               -0.66908570               -2.95074895               -9.40913512               55.46370821               -0.64832883
              16.93836654                4.92009184               48.86073891                0.00010000                4.42305957               -1.09261415               -3.16928979               -9.32385248               56.13020215                2.22162937
              17.98259880                4.13377772               48.95673048                0.01071924                4.23666022               -1.15867346               -3.28098587               -9.18018138               57.13988454                5.25758250
              19.02309975                3.34954682               49.06393870                0.14258091                2.79389730               -0.65479258               -3.20629175               -5.18201447               34.02154106                8.42814585
              20.03847674                2.64947262               48.69497365                0.33805119                1.21223978                0.52013148               -2.36791636               -0.60123852                5.28990680                1.73931299
              21.04734454                1.96310332               48.22317028                0.75010444                0.88678035                1.49596564               -3.80207814                0.00618871                0.24161160               -4.96261538
              11.43691261               10.34425500               49.34418340                0.80197046                0.00635227               -0.33773603                0.90472860               -0.06062160                0.06835616                3.43579399
              12.43697613                9.68444931               48.84221006                0.26326165                0.25209479                0.32932724               -0.92481576                0.09796097                1.12548849               -2.99579990
              13.44195451                9.02566072               48.36135179                0.00114060                2.54836490                0.93195588               -2.43288668               -4.73443669               33.28018886               -8.91424349
              14.48794343                8.26563026               48.50195650                0.00010000                4.64894940                0.61739349               -2.72771195               -9.48813117               64.32886331               -5.77542444
              15.53493350                7.48769266               48.64251583                0.00010000                4.73649549               -0.10399974               -2.96304445               -9.85070238               64.39223080               -2.95747981
              16.58267334                6.69970697               48.78474154                0.00010000                4.72748193               -0.69619625               -3.13716733               -9.78251905               64.75998537               -0.33167671
              17.62948313                5.90914284               48.93277179                0.00010000                4.50837542               -1.04961882               -3.22055273               -9.61071700               65.57595802                2.37289478
              18.67284085                5.12235868               49.09102405                0.01575525                3.96341408               -1.10508004               -3.15497934               -9.34133247               66.77035675                5.40715902
              19.70875142                4.34405238               49.26173315                0.14976272                2.40560080               -0.45418022               -2.78917900               -5.19534514               38.93718871                8.71021933
              20.72095287                3.65474175               48.85998118                0.34732262                1.01384496                0.50231336               -2.02856621               -0.49763203                5.35192403                1.84465666
              21.72902832                2.97717618               48.35462100                0.75543805                0.80754485                1.32236934               -3.59088157                0.00559587                0.27223843               -4.89643807
              12.09277755               11.34137597               49.23368155                0.79360790                0.11419881               -0.23848136                0.61493329               -0.06131210                0.08529722                3.40653416
              13.09391954               10.68834815               48.69982310                0.25493961                0.39888778                0.45193052               -1.35960800                0.04999293                1.42755209               -3.02877924
              14.10075530               10.03539594               48.19271100                0.00096056                3.37014431                0.97776302               -2.91298622               -5.29032092               38.44530614               -8.45167665
              15.16132242                9.27177941               48.39850342                0.00010000                6.01150468                0.25292850               -3.08208369               -9.90432495               73.82210044               -4.83755991
              16.22098540                8.48575640               48.59899101                0.00010000                5.78573115               -0.63053105               -3.19883882               -9.35385362               73.48659834               -2.25718211
              17.27703705                7.69235747               48.79787174                0.00010000                5.12575501               -0.78513787               -3.25578876               -8.83742611               73.75930300               -0.09108515
              18.32350050                6.89909947               49.00327002                0.00010000                4.19127808               -0.76465866               -3.20840315               -8.76604587               74.88986584                2.16124185
              19.36086261                6.11167612               49.22356639                0.02105905                3.16546410               -0.80721037               -2.97168242               -8.85446717               76.58517456                4.96179011
              20.38680978                5.34046321               49.46096383                0.15720580                1.72688429               -0.21033133               -2.27447864               -5.14790981               44.00997407                8.64292820
              21.39540029                4.65951888               49.02563603                0.35657077                0.78889035                0.43137415               -1.63752612               -0.45673213                5.39627792                2.15671736
              22.40258759                3.98955071               48.48674152                0.76062839                0.71872934                1.14992720               -3.33407861               -0.00307259                0.32192940               -4.66309064
              12.74174201               12.33948537               49.12322528                0.78525609                0.22140071               -0.13950521                0.32654749               -0.06178700               -0.04045934                2.96094767
              13.74395602               11.69348792               48.55637181                0.24716716                0.54874083                0.57423219               -1.79902971               -0.06375181                2.03926322               -2.71880153
              14.75271683               11.04521598               48.03094300                0.00068714                4.77702294                0.86773139               -3.34652716               -6.08860675               44.25624381               -6.25089317
              15.83949648               10.27068883               48.30746780                0.00010000                8.72807658               -1.72983383               -3.35842721               -7.99578947               83.33071681               -2.89343449
              16.92727836                9.47508204               48.56296878                0.00010000                7.65426379               -1.44119932               -3.35826943               -6.41790466               81.94689079               -1.24749553
              17.99258175                8.68400421               48.81145008                0.00010000                5.37826038               -0.86470268               -3.30715952               -5.49251893               82.02264154                0.01729315
              19.03484357                7.89384966               49.06724470                0.00010000                3.09030037               -0.21870115               -3.14709261               -5.76810751               83.60302186                1.34969122
              20.05438776                7.10621447               49.34484621                0.02685078                1.15534462                0.36938856               -2.78793553               -6.41745868               86.50487443                3.21256586
              21.05795046                6.33984575               49.65481158                0.16530092                0.41714845                0.35302791               -1.70075884               -4.72891519               49.82205797                6.30651866
              22.06273073                5.66336923               49.19444087                0.36612892                0.54763775                0.32944567               -1.18321498               -0.55557170                5.80333383                2.21058329
              23.06890321                5.00017473               48.62062345                0.76538995                0.61724848                0.97981517               -3.02284723               -0.03380320                0.23482713               -3.74024147
              13.38353671               13.33858586               49.00400716                0.89033225                0.33771865               -0.08995058                0.00278434                0.30416228                1.35464228                2.51534768
              14.38691389               12.69983279               48.41971656                0.62194816                0.91227772                0.63448708               -2.20383519                0.00402282                4.89604336               -2.35112803
              15.40178226               12.05275057               47.90600441                0.47948172                9.23133392                0.75345940               -3.63023844               -8.22595961               51.06002197               -4.45111820
              16.57154057               11.23718273               48.24206429                0.44561150               13.87648287               -3.35060957               -3.52004647               -6.58649844               91.48234080               -1.54955155
              17.67931192               10.45693241               48.53783542                0.43637131                8.84392351               -1.81496254               -3.42709539               -2.90260976               89.00904616               -0.62707404
              18.74841904                9.67506342               48.82426304                0.44479460                5.33080859               -0.89407948               -3.29437693               -2.52661959               89.00071205                0.07362326
              19.78592809                8.89472544               49.11837789                0.47033047                1.90491532                0.08757801               -3.05471952               -2.69152394               90.83953583                0.81594058
              20.78651735                8.11906389               49.43821088                0.51537813               -2.54256858                1.28494228               -2.61962661               -4.14712480               94.74846435                1.91341330
              21.73507672                7.34752377               49.80418928                0.58566302               -3.12787339                0.76780228               -1.29656332               -4.93517893               57.00318181                4.36137923
              22.72395988                6.66610780               49.35895380                0.68658980               -0.33880968                0.27385684               -0.69527707               -0.79592289                9.15101681                2.09545960
              23.72830052                6.00914701               48.76893271                0.88422615                0.43406443                0.89722843               -2.60305042                0.24365253                2.00329842               -2.90579245
               6.94728663                3.53929662               51.15666546                1.00000000               -0.82219207               -0.90392960                3.04426721               -0.19441486               -2.16929805                2.53280958
               7.93906471                2.80592496               50.85461424                0.81151671               -0.81885452               -0.56111266                2.16788100               -0.18718741               -2.99098133               -1.48268286
               8.93090954                2.06909399               50.53678263                0.58934884               -1.06427439               -0.29247667                1.21429993               -0.55670999               -2.87994949               -1.04230258
               9.91777922                1.31633911               50.23738544                0.49297638               -1.39905079               -0.07033016                0.30934338               -0.64540339               -0.79203297               -0.33447562
              10.90292852                0.53655908               49.96105976                0.45210307               -1.25868153                0.21473151               -0.64825586               -0.54746809                1.33714975               -0.24813999
              11.89260559               -0.27153264               49.70334042                0.45344261               -0.48044152                0.49115386               -1.64947312               -0.31784209                2.46474537               -0.02384041
              12.89331969               -1.09618246               49.44864882                0.49476510                0.58155432                0.75482943               -2.63895478               -0.26226560                1.86153686                0.19021917
              13.90423668               -1.92059720               49.17865543                0.58232390                1.33959984                1.00290361               -3.56835863               -0.32297324                0.09476055                0.34487858
              14.92011169               -2.73535519               48.88862259                0.73412821                1.65720715                1.23984935               -4.46486067               -0.31053792               -1.80988003                0.45827512
              15.93738082               -3.54003272               48.57992495                0.98878654                1.76733625                1.47409026               -5.37682301               -0.22241366               -2.37815958                1.06385978
              16.95545841               -4.33910939               48.27712566                1.00000000                1.80775947                1.80177184               -6.30953600               -0.28423891               -1.98851203               -1.81968602
               7.67871414                4.53025733               51.03150486                0.94862127               -0.64199960               -0.89413085                2.68534060               -0.07652958                0.80458223                3.18170777
               8.67229415                3.80031383               50.72430321                0.48127704               -0.42893912               -0.47296077                1.79383147               -0.15121515                2.22493165               -2.52640460
               9.67013536                3.06616923               50.44601717                0.09584683                0.26492485               -0.00718917                1.10479409               -0.99720828                4.71807696               -5.35295010
              10.67759264                2.31563581               50.18872437                0.00769862                1.06271769               -0.56153954                0.32155250               -2.05748272                6.56436778               -3.86028028
              11.69138972                1.53870639               49.94763279                0.01010378                1.41026464               -0.77913419               -0.48641950               -3.14248435                8.30438466               -2.20372289
              12.70579794                0.73337890               49.72571185                0.01312540                1.19197998               -0.41976390               -1.35763925               -3.79846682                9.38919910               -1.09164902
              13.71522931               -0.08863417               49.50656582                0.01523014                0.73976837                0.14143379               -2.22826401               -3.58024293                8.80729511                0.06409543
              14.72059331               -0.91056816               49.27219524                0.08300729                0.57473782                0.47005111               -3.04348310               -2.49422577                7.13802610                2.01897631
              15.72672407               -1.72295669               49.01813216                0.29700010                0.82202382                0.76810179               -3.84031193               -0.98633285                5.55733814                4.68091953
              16.73703378               -2.52529182               48.75062388                0.65233607                1.24843091                1.24087564               -4.63991114               -0.33761106                3.49216502                2.76461816
              17.75169269               -3.32109167               48.45396516                0.97636420                1.46589080                1.79265620               -5.49261072               -0.27160552                2.10255822               -2.60209649
               8.40564303                5.52141401               50.92001995                0.85507868               -0.55145221               -0.85036303                2.42546811               -0.08657171                0.35049313                3.75239210
               9.40012850                4.79646574               50.57352229                0.33000319               -0.49998159               -0.29422022                1.28826476               -0.11365754                2.44000511               -3.56004373
              10.39564339                4.06895021               50.26921771                0.01283434                0.19819487                0.49034814                0.46988396               -2.06248483                9.75489231              -11.48840324
              11.40409240                3.30510832               50.06941590                0.00010000                1.33461744               -0.82463848               -0.19741738               -4.56636312               16.21279393               -7.54224933
              12.42233574                2.52097639               49.89472352                0.00010000                1.99422054               -1.41748209               -1.02701253               -6.03150259               17.74208426               -4.50703830
              13.44397681                1.72007208               49.72611104                0.00010000                2.16630755               -1.23055626               -1.78508148               -6.89300410               18.22097236               -2.18548161
              14.46566189                0.90664621               49.56110997                0.00010000                2.23489362               -0.69597599               -2.51171345               -6.74413706               18.54364189                0.23121252
              15.48867468                0.08880383               49.39814982                0.00010000                2.47233975               -0.39232510               -3.19678490               -5.24364224               18.49677223                3.65192868
              16.51510869               -0.71999315               49.23078457                0.11443153                2.00444434               -0.71076518               -3.04019766               -2.67384615               12.88395644                8.46508678
              17.52876357               -1.51521521               48.95380526                0.31317583                1.32586565                0.47059241               -3.72560200               -0.88187351                4.29781916                4.08362632
              18.54162600               -2.30325626               48.61340027                0.73980258                1.28624306                2.08879927               -4.77707359               -0.64994796                1.17169562               -3.76122328
               9.12687923                6.51325007               50.80680070                0.83328549               -0.43944428               -0.76243866                2.12639111               -0.06481649                0.06099216                3.60935136
              10.12248479                5.79442943               50.42276321                0.30012862               -0.33180738               -0.14448882                0.83183374                0.06581596                0.87043200               -3.44936831
              11.12024309                5.07597619               50.05521324                0.00492503                0.58772042                0.67641746               -0.31176138               -2.61478625               14.70173811              -11.94813501
              12.13423920                4.29914304               49.94782212                0.00010000                1.77764058               -0.30601798               -0.89455433               -5.51089957               27.38619263               -7.77547783
              13.15579590                3.51035675               49.83520487                0.00010000                2.40144171               -0.81675179               -1.54522439               -6.34274225               27.32747985               -4.83396416
              14.18226803                2.70876778               49.72753352                0.00010000                2.79094667               -1.00370647               -2.20559341               -6.98254362               27.77912127               -2.07054675
              15.21161483                1.89744631               49.62421418                0.00010000                3.00458947               -0.94158914               -2.83028771               -7.02685966               28.24171388                0.76762915
              16.24235982                1.08158534               49.52547379                0.00010000                3.28256748               -0.88086577               -3.35070938               -6.64102936               28.96581480                3.88069757
              17.27726618                0.26282800               49.43569843                0.11404746                3.01497991               -1.50492937               -4.00409997               -4.01829282               19.64988985                7.85504186
              18.30265942               -0.51587997               49.15011442                0.29602387                1.87548282                0.09311676               -3.38808247               -0.76231997                5.05283212                2.91802856
              19.31477584               -1.27931568               48.76550278                0.72334001                1.21164162                2.26935427               -4.55159839               -0.08208531                0.15378687               -4.36878741
               9.84198797                7.50616523               50.69280773                0.82063542               -0.32692741               -0.65669735                1.83106339               -0.06299179                0.06650747                3.58623387
              10.83871870                6.79357597               50.27431868                0.28442297               -0.16769583               -0.02490059                0.37729421                0.12378348                0.69566911               -3.29555117
              11.83863406                6.08247856               49.86862289                0.00215638                1.03875756                0.67587070               -0.90758477               -3.22428201               19.32960086              -10.19508455
              12.85949385                5.29898796               49.82267042                0.00010000                2.36110526                0.13604827               -1.47400276               -6.68037525               37.18529798               -7.63045426
              13.88585616                4.50464136               49.77549079                0.00010000                2.88712635               -0.39917214               -2.04328045               -7.21299418               37.15484613               -4.69921307
              14.91723638                3.69999796               49.73025772                0.00010000                3.32254885               -0.77153726               -2.60721178               -7.61053427               37.44164520               -1.85255338
              15.95230714                2.88781443               49.68971194                0.00010000                3.66180143               -0.95580391               -3.14349156               -7.67441167               38.00617153                1.06020129
              16.99047241                2.07118651               49.65614975                0.00010000                3.99505006               -1.05345698               -3.66711413               -7.54110491               38.86614050                4.20572296
              18.03220814                1.24990826               49.63275408                0.12059009                3.25942258               -1.09638210               -4.22294203               -4.46825799               25.38354937                7.63794456
              19.05566086                0.48664713               49.32872590                0.30473250                1.73237905                0.39625891               -3.18472414               -0.86682616                5.83948607                1.83921776
              20.06685572               -0.25786918               48.91060687                0.72860100                1.11948637                2.01777949               -4.44800553               -0.00979705                0.20950013               -4.94994884
              10.55079793                8.50011612               50.57946644                0.80960112               -0.21507965               -0.55362711                1.53661933               -0.06205922                0.06719846                3.61897590
              11.54864713                7.79393142               50.12665833                0.27164055               -0.02262392                0.09677859               -0.07502651                0.13693192                0.83280046               -3.22431134
              12.55034545                7.08949360               49.68929156                0.00145741                1.49108821                0.75412221               -1.45964496               -3.75889365               24.16346163               -9.70106370
              13.57846890                6.30186401               49.70284071                0.00010000                3.00902840                0.40291192               -1.98543956               -7.75910671               46.69001449               -7.11498424
              14.61052602                5.50237331               49.71757371                0.00010000                3.42076884               -0.11168979               -2.48587032               -8.23005678               46.79810419               -4.35662823
              15.64688428                4.69333703               49.73490780                0.00010000                3.82060115               -0.59917642               -2.96486904               -8.49773492               47.11348484               -1.51606868
              16.68693804                3.87833023               49.75731977                0.00010000                4.12798093               -0.92846537               -3.41541283               -8.49362268               47.71943661                1.41642521
              17.72944389                3.06051620               49.78770578                0.00181201                4.27511808               -1.02328821               -3.82932002               -8.41190634               48.68157339                4.52800761
              18.77244041                2.24090036               49.82952173                0.12741290                3.18282216               -0.75125130               -4.19460697               -4.96539438               30.80087546                7.90835316
              19.79310034                1.49204521               49.50083441                0.31386631                1.55860499                0.60013031               -2.96324691               -0.82055611                6.33266088                1.51581282
              20.80361250                0.76103991               49.04878784                0.73423866                1.05121679                1.79367762               -4.34324556                0.00592470                0.25855796               -5.35641315
              11.25311620                9.49509269               50.46644799                0.79980555               -0.10363427               -0.45154073                1.24212844               -0.06185280                0.06979088                3.62035002
              12.25207985                8.79551154               49.97955969                0.26079588                0.12036994                0.22025290               -0.52611802                0.13106784                1.04144721               -3.17449318
              13.25552359                8.09756100               49.51215543                0.00115421                1.96760804                0.86180798               -1.99233156               -4.23830888               29.13007924               -9.48366339
              14.29143201                7.30704620               49.58667054                0.00010000                3.71292034                0.60725411               -2.44840691               -8.70486467               56.22633047               -6.68031769
              15.32978200                6.50240756               49.66285235                0.00010000                3.99463693                0.05541799               -2.86885986               -9.17634315               56.37403779               -3.89382112
              16.37132475                5.68801443               49.74204337                0.00010000                4.27367585               -0.51004671               -3.25631617               -9.33152362               56.73741298               -1.10006451
              17.41525552                4.86924512               49.82702811                0.00010000                4.41696997               -0.89699772               -3.59717202               -9.20605685               57.43517265                1.80368269
              18.45966415                4.05072075               49.92122813                0.00654973                4.30578622               -0.95232200               -3.86143537               -8.99536369               58.53832746                4.93631173
              19.50137124                3.23488324               50.02826413                0.13429799                2.97230187               -0.49989523               -3.99494202               -5.15274569               36.02150761                8.33861783
              20.51911019                2.49864973               49.66978899                0.32297159                1.38067874                0.66625439               -2.70097965               -0.69760992                6.59174886                1.49343582
              21.52898482                1.77800438               49.18332138                0.73965773                0.98746283                1.61140675               -4.20456216                0.01464091                0.30126444               -5.46330835
              11.94872318               10.49108530               50.35343159                0.79084424                0.00769984               -0.35014191                0.94633424               -0.06213919                0.07126154                3.58584429
              12.94880018                9.79833647               49.83271186                0.25146367                0.26607174                0.34566456               -0.97653942                0.10641136                1.30542795               -3.14575969
              13.95404461                9.10672976               49.33664904                0.00097455                2.53624354                0.96002720               -2.50162605               -4.70457207               34.23358116               -9.26945889
              14.99952505                8.31400909               49.47398492                0.00010000                4.59931578                0.68914969               -2.86313742               -9.43637571               65.84660659               -6.14126648
              16.04603093                7.50348167               49.61178514                0.00010000                4.69455962                0.01495775               -3.18636704               -9.76456958               65.90036479               -3.32097529
              17.09341624                6.68313610               49.75177954                0.00010000                4.70398287               -0.52752512               -3.46931875               -9.65344171               66.27512837               -0.67584194
              18.14011059                5.86039028               49.89839234                0.00010000                4.52411332               -0.83676040               -3.68528228               -9.43907668               67.14791655                2.07812350
              19.18389851                5.04146976               50.05661358                0.01134068                4.06729584               -0.88098939               -3.78008003               -9.14233168               68.51023605                5.21940143
              20.22145650                4.23090246               50.22997744                0.14137323                2.60642457               -0.30421724               -3.64124769               -5.15551876               41.16908477                8.78801765
              21.23602700                3.50537030               49.83810307                0.33204242                1.18697675                0.64295945               -2.38178693               -0.57939024                6.68916533                1.68606475
              22.24519604                2.79326804               49.31678629                0.74485740                0.91690402                1.44346516               -4.01583912                0.01445591                0.33684828               -5.32208994
              12.63737107               11.48808985               50.23999242                0.78283941                0.11925480               -0.24928648                0.64826428               -0.06304470                0.08875915                3.55569393
              13.63856362               10.80242483               49.68589988                0.24346904                0.41942331                0.47348415               -1.42706837                0.04826476                1.66348524               -3.17985849
              14.64575954               10.11676155               49.16319825                0.00081848                3.36944878                1.00020616               -2.97871401               -5.26467213               39.59236599               -8.76742064
              15.70595260                9.32082919               49.36697420                0.00010000                5.98020305                0.31086517               -3.21867290               -9.82838085               75.59911811               -5.12346259
              16.76536360                8.50270672               49.56586594                0.00010000                5.76973543               -0.51883380               -3.42861709               -9.24411148               75.23793152               -2.51844645
              17.82134730                7.67746392               49.76366973                0.00010000                5.13883612               -0.62863575               -3.60006227               -8.67798100               75.51516894               -0.32092986
              18.86814032                6.85250992               49.96895727                0.00010000                4.24790176               -0.56563478               -3.68886876               -8.55819052               76.72953997                1.98335247
              19.90630534                6.03310096               50.19096388                0.01648332                3.31100034               -0.57207508               -3.61098815               -8.64500885               78.69175814                4.87275298
              20.93436033                5.22879889               50.43423825                0.14859197                1.94257290               -0.04854755               -3.16147606               -5.12501463               46.47504631                8.85065207
              21.94515680                4.51150892               50.00764103                0.34107959                0.95590569                0.56094763               -1.99694966               -0.53540820                6.74541462                2.09199642
              22.95347844                3.80687368               49.45144250                0.74980582                0.83216447                1.27353795               -3.76534403                0.00448617                0.39055876               -5.00571989
              13.31879233               12.48609957               50.12661170                0.77472450                0.23014462               -0.14839391                0.35131354               -0.06379986               -0.04426226                3.09196233
              14.32109378               11.80780616               49.53797774                0.23627812                0.57772385                0.60073892               -1.88220118               -0.08704061                2.35531187               -2.85280173
              15.33034681               11.12673389               48.99715425                0.00063269                4.79592433                0.84891852               -3.40086501               -6.03282195               45.63917118               -6.47236860
              16.41701226               10.32022639               49.27319159                0.00010000                8.70835804               -1.66356306               -3.48838272               -7.92084006               85.37985885               -3.06475194
              17.50451397                9.49310499               49.52826682                0.00010000                7.65205789               -1.34021386               -3.58309185               -6.32726658               83.92534591               -1.38588925
              18.57005342                8.67056338               49.77675231                0.00010000                5.43978872               -0.73440725               -3.64755029               -5.37222661               83.99593191               -0.09704611
              19.61330974                7.84907758               50.03358239                0.00010000                3.23279662               -0.06237353               -3.62235218               -5.58969941               85.67401883                1.27154373
              20.63470935                7.03002826               50.31420341                0.02193702                1.36192522                0.54858487               -3.40928270               -6.24033214               88.98910536                3.18694430
              21.64054825                6.22993151               50.63379774                0.15643668                0.62673463                0.59290198               -2.60152178               -4.65305365               52.56141358                6.51167748
              22.64724405                5.51658925               50.18102332                0.35033094                0.70040011                0.44596526               -1.53644680               -0.65749705                7.16508462                2.22733818
              23.65455625                4.81873880               49.58847177                0.75432378                0.73122029                1.10379254               -3.44734771               -0.03118745                0.30250997               -3.97079421
              13.99268191               13.48512197               50.00410476                0.88516923                0.35065851               -0.09776009                0.01703899                0.32072144                1.41320603                2.62768636
              14.99618850               12.81443961               49.39720746                0.61672428                1.00004772                0.66334509               -2.30151446               -0.05963083                5.38030430               -2.46537975
              16.01268287               12.13373992               48.86938294                0.47835700                9.24880974                0.70060316               -3.67521152               -8.11047799               52.73920556               -4.61973539
              17.18116469               11.28755793               49.20623040                0.44548683               13.78992057               -3.26684591               -3.63698437               -6.47663124               93.74534612               -1.62052741
              18.28848128               10.47590244               49.50251935                0.43646947                8.83827441               -1.72025520               -3.63402191               -2.84237673               91.16411757               -0.67964230
              19.35793018                9.66277578               49.78978843                0.44454698                5.42000910               -0.77876022               -3.61271081               -2.44432391               91.13665766                0.03736006
              20.39688146                8.85126244               50.08575065                0.46928458                2.13572978                0.21848608               -3.50510265               -2.57798454               93.07107748                0.80373889
              21.40064477                8.04407266               50.40941366                0.51289188               -2.10715976                1.40443992               -3.20770074               -3.93673358               97.48435708                1.92897910
              22.35473826                7.24065693               50.78728099                0.58124611               -2.87226068                1.07254249               -2.18655713               -4.76321973               60.06982412                4.54429555
              23.34319956                6.52042823               50.35051531                0.67864805               -0.30913377                0.38389790               -1.02910695               -0.98981854               10.66540432                2.15620400
              24.34855559                5.82894953               49.74107433                0.87863059                0.53560273                1.02107284               -3.00829326                0.25206413                2.14492274               -3.05524227
               7.23161805                3.69212188               52.18779840                1.00000000               -0.85585415               -0.94216201                3.18087443               -0.20679009               -2.25441003                2.63609310
               8.22305950                2.92286521               51.87669691                0.80231115               -0.84536178               -0.58239283                2.24936431               -0.19691915               -3.11571468               -1.56750890
               9.21471081                2.15006609               51.54902874                0.58503482               -1.06495550               -0.30250648                1.23766351               -0.54733247               -3.01321731               -1.02252188
              10.20176039                1.36151519               51.24036520                0.49147699               -1.36375772               -0.06431016                0.28647014               -0.62467559               -0.91583197               -0.34977310
              11.18743566                0.54666312               50.95424025                0.45186995               -1.20562442                0.23232247               -0.71714643               -0.52701116                1.17708733               -0.25456347
              12.17764791               -0.29562276               50.68628875                0.45331569               -0.44545191                0.52157168               -1.76329908               -0.30756900                2.30235001               -0.02771334
              13.17852662               -1.15425648               50.42148117                0.49372499                0.59179638                0.79761192               -2.79917935               -0.24931608                1.74690851                0.18836052
              14.18948383               -2.01329241               50.14195994                0.57958689                1.35779411                1.05698659               -3.77640285               -0.30500946                0.03397477                0.34756121
              15.20568250               -2.86342678               49.84273304                0.72875910                1.70910438                1.30637624               -4.71920928               -0.29932689               -1.85771830                0.45198309
              16.22366592               -3.70378627               49.52469140                0.98031966                1.85148992                1.55215390               -5.67720865               -0.22374172               -2.44029641                1.05941158
              17.24271230               -4.53838403               49.21235270                1.00000000                1.90463769                1.89106339               -6.65294215               -0.30577733               -2.05625522               -1.85547524
               7.99880681                4.68270026               52.05892853                0.93580916               -0.66886063               -0.92801263                2.79985776               -0.08107418                0.88158076                3.33123154
               8.99211820                3.91704128               51.74254918                0.46519408               -0.44471579               -0.48893578                1.85669613               -0.15643310                2.40486611               -2.68081623
               9.98991249                3.14704103               51.45717067                0.08980640                0.25484594                0.00194888                1.12680325               -0.99947631                4.95313160               -5.60372594
              10.99721512                2.36087209               51.19186771                0.00786582                1.04110114               -0.57299171                0.30626984               -2.03933137                6.73830227               -4.15736801
              12.01073452                1.54898635               50.94253856                0.01024017                1.39084481               -0.76900519               -0.53418553               -3.08835806                8.43416716               -2.57714687
              13.02503202                0.70959296               50.71176061                0.01337706                1.20668843               -0.42736916               -1.43503751               -3.72029533                9.48811107               -1.47712478
              14.03486829               -0.14628036               50.48375288                0.01585911                0.79934330                0.11647821               -2.33647771               -3.51261724                8.93521981               -0.31249664
              15.04101889               -1.00272255               50.24106055                0.07843940                0.65339372                0.46835356               -3.18580458               -2.46175686                7.30506184                1.65230964
              16.04793616               -1.85036301               49.97885304                0.28702218                0.89441213                0.80883133               -4.01711611               -0.98460392                5.73486862                4.75634060
              17.05890713               -2.68826474               49.70316279                0.63413963                1.31580576                1.29960750               -4.85370117               -0.34629576                3.64402967                2.85243484
              18.07425228               -3.51947339               49.39778698                0.96381598                1.53451478                1.87682694               -5.74506012               -0.29877605                2.22874376               -2.68941613
               8.76131451                5.67356163               51.94471835                0.84309824               -0.57244397               -0.87442004                2.51847995               -0.08767738                0.34817482                3.93033656
               9.75559007                4.91308650               51.58655866                0.31618494               -0.52120169               -0.30232266                1.32099509               -0.10610663                2.60172166               -3.75501549
              10.75089048                4.15010507               51.27390177                0.01243762                0.17191884                0.52173427                0.46809017               -2.08799517               10.14761230              -12.07975120
              11.75902845                3.35005536               51.06710348                0.00010000                1.30285736               -0.81029342               -0.26374103               -4.57802053               16.58875324               -8.18536108
              12.77694762                2.53128302               50.88403865                0.00010000                1.97401324               -1.40793299               -1.11236359               -5.97299802               18.07301464               -5.23218654
              13.79850871                1.69582986               50.70764424                0.00010000                2.18210796               -1.25281317               -1.91200136               -6.82384281               18.59228635               -2.94685284
              14.82058978                0.84807308               50.53515893                0.00010000                2.29113171               -0.74665663               -2.68377959               -6.67032682               18.95070198               -0.53912761
              15.84433135               -0.00392534               50.36516548                0.00010000                2.54714126               -0.42109481               -3.40442997               -5.19872380               19.37395225                2.90447736
              16.87153261               -0.84725015               50.19970860                0.10625786                2.07595181               -0.60804766               -3.18082630               -2.71788557               13.74896256                7.65750998
              17.88585038               -1.67779412               49.91590811                0.29722213                1.38107409                0.53002349               -3.85128103               -0.91229797                4.53033626                3.93535061
              18.89915409               -2.50084749               49.56473308                0.72856092                1.33037070                2.18926768               -4.95538300               -0.67451188                1.20339216               -4.18278489
               9.51800352                6.66521186               51.82845568                0.82135574               -0.45508962               -0.78028548                2.20716791               -0.06654215                0.06288602                3.77045402
              10.51345263                5.91099483               51.43114279                0.28671054               -0.34098960               -0.14743928                0.84487247                0.08560694                0.95316414               -3.61531380
              11.51118373                5.15747571               51.05195724                0.00457730                0.55120696                0.70344563               -0.33890614               -2.61009808               15.14367387              -12.51210897
              12.52447676                4.34466622               50.93852314                0.00010000                1.71581623               -0.24774262               -0.96484263               -5.53176864               28.05506646               -8.44246610
              13.54550005                3.52082769               50.81914943                0.00010000                2.36441693               -0.77913359               -1.66810520               -6.32363049               27.93832988               -5.53090431
              14.57176510                2.68453670               50.70460288                0.00010000                2.78584503               -0.97200447               -2.38583688               -6.95712966               28.38575073               -2.81441357
              15.60121695                1.83878650               50.59471773                0.00010000                3.03012686               -0.90828168               -3.07722806               -7.00496374               28.90515214               -0.01506250
              16.63236764                0.98885556               50.49043251                0.00010000                3.31151379               -0.81796029               -3.66706228               -6.56913906               29.59143550                3.05129584
              17.66744723                0.13747603               50.39353679                0.10621728                3.09454324               -1.30295089               -4.44294395               -4.08827442               20.90126166                6.52897446
              18.69425851               -0.67766427               50.11522596                0.28151005                1.97107666                0.20905721               -3.60028674               -0.86769907                6.05008558                2.41271666
              19.70686876               -1.47568804               49.71869617                0.71332365                1.26102584                2.39691927               -4.82247843               -0.07892985                0.18432937               -5.10209775
              10.26841772                7.65795592               51.71146186                0.80899851               -0.33793691               -0.67320657                1.90186806               -0.06478608                0.06917714                3.74904029
              11.26503835                6.91013771               51.27806791                0.27125673               -0.17002990               -0.02281871                0.37261726                0.14455027                0.79090649               -3.45823159
              12.26501712                6.16417398               50.85933730                0.00191187                1.00013746                0.69658376               -0.94678628               -3.21376019               19.87270942              -10.64020578
              13.28504110                5.34510051               50.80746977                0.00010000                2.27937078                0.20041230               -1.56532403               -6.69241090               38.05391088               -8.20469397
              14.31060454                4.51570035               50.75429144                0.00010000                2.81831023               -0.32014266               -2.19904024               -7.20298083               37.99285146               -5.34855040
              15.34140731                3.67638977               50.70304809                0.00010000                3.27835565               -0.67775169               -2.84164705               -7.59614363               38.26537652               -2.55285098
              16.37617165                2.82990745               50.65669175                0.00010000                3.64258654               -0.83895251               -3.47251310               -7.64220069               38.81845978                0.31598442
              17.41425904                1.97971545               50.61730624                0.00010000                4.00576445               -0.89208164               -4.11886986               -7.41276475               39.63173280                3.39668260
              18.45628694                1.12669083               50.58754978                0.11273644                3.37007178               -0.88353975               -4.84157694               -4.49000914               27.01575553                6.88682413
              19.48166047                0.32638702               50.29551220                0.29012263                1.86680489                0.56282718               -3.48414053               -0.99685973                7.13798459                1.32882131
              20.49362304               -0.45290910               49.86444689                0.71859380                1.19625664                2.15510688               -4.81447783               -0.00153859                0.26636005               -5.69838885
              11.01234421                8.65174773               51.59513514                0.79817327               -0.22186480               -0.56916875                1.59848226               -0.06426159                0.06983954                3.78163496
              12.01012556                7.91053846               51.12580210                0.25901642               -0.01992397                0.10402461               -0.09681132                0.15544274                0.96021099               -3.38403807
              13.01194573                7.17140739               50.67441725                0.00124928                1.44883103                0.77760443               -1.51204320               -3.73826956               24.83890890              -10.11063115
              14.03910218                6.34867447               50.68243209                0.00010000                2.91027203                0.47902322               -2.09389165               -7.75384895               47.76082727               -7.62269035
              15.07015117                5.51442484               50.69179220                0.00010000                3.32664749                0.00240967               -2.67279131               -8.20566255               47.84606938               -4.93462301
              16.10563513                4.67098166               50.70387657                0.00010000                3.74480454               -0.44907042               -3.25004713               -8.45572922               48.14060958               -2.14023129
              17.14504726                3.82200745               50.72120765                0.00010000                4.08469141               -0.74072593               -3.82355544               -8.41270809               48.73282939                0.76731848
              18.18732896                2.97101392               50.74671913                0.00010000                4.29641083               -0.80596502               -4.39638529               -8.21659639               49.68662209                3.90630928
              19.23097548                2.11980524               50.78385178                0.11942368                3.32961415               -0.54136856               -4.97778040               -4.93697716               32.74840661                7.43305505
              20.25392124                1.33359228               50.46957231                0.29924346                1.72273779                0.78428262               -3.32536650               -0.93985671                7.81550337                1.08963106
              21.26543023                0.56741410               50.00337604                0.72410941                1.15089907                1.93739073               -4.78100860                0.01628334                0.32711331               -6.03555392
              11.74955103                9.64657254               51.47912689                0.78848634               -0.10634857               -0.46601351                1.29514891               -0.06377954                0.07262471                3.78186305
              12.74848754                8.91221820               50.97411250                0.24855193                0.12823457                0.23277363               -0.56439517                0.14476043                1.21110964               -3.33225266
              13.75211572                8.17972607               50.49192461                0.00096455                1.92295670                0.89106627               -2.04646404               -4.20649450               29.96019745               -9.86653412
              14.78694668                7.35468097               50.56156270                0.00010000                3.60341860                0.69133992               -2.56936485               -8.66701227               57.51602329               -7.12840633
              15.82418409                6.51574854               50.63311370                0.00010000                3.88817139                0.19173641               -3.08062436               -9.11388034               57.63802973               -4.38918744
              16.86471010                5.66740836               50.70789262                0.00010000                4.18505703               -0.32089486               -3.58426860               -9.23610168               57.98107406               -1.62140257
              17.90788523                4.81509293               50.78879547                0.00010000                4.37096099               -0.66156496               -4.07141858               -9.06260272               58.68109415                1.28893406
              18.95212932                3.96359615               50.87950178                0.00221120                4.35419048               -0.70014819               -4.52363655               -8.75489819               59.82899272                4.49168509
              19.99496904                3.11586346               50.98403986                0.12621143                3.15625757               -0.29833105               -4.90845966               -5.09276639               38.23966836                8.09572644
              21.01525448                2.34207267               50.64095406                0.30820602                1.56680105                0.85093624               -3.10576763               -0.80093300                8.18869672                1.16758425
              22.02630506                1.58583871               50.13907904                0.72949915                1.10505870                1.75995840               -4.68993701                0.02503452                0.37823603               -6.05068969
              12.47977730               10.64242746               51.36311008                0.77984997                0.00899432               -0.36314055                0.99066451               -0.06401338                0.07416943                3.74503867
              13.47986724                9.91519393               50.82267927                0.23965439                0.27878891                0.36334453               -1.03145843                0.11485621                1.52898521               -3.30207344
              14.48535307                9.18922872               50.31131927                0.00080230                2.49361152                0.99081232               -2.55412561               -4.66400420               35.24174806               -9.61821915
              15.52973947                8.36250127               50.44469375                0.00010000                4.48965488                0.77112591               -2.98886876               -9.36393662               67.37517739               -6.52282938
              16.57514617                7.51825956               50.57878849                0.00010000                4.59146219                0.15786239               -3.41374216               -9.65365450               67.39424025               -3.72040829
              17.62156871                6.66456377               50.71535517                0.00010000                4.62306251               -0.32211313               -3.82752630               -9.49722071               67.74963405               -1.07742893
              18.66760742                5.80877615               50.85906614                0.00010000                4.49458761               -0.57582321               -4.20775162               -9.23204469               68.64752071                1.70611259
              19.71146046                4.95701096               51.01542245                0.00698498                4.15181041               -0.60273953               -4.51004161               -8.88250361               70.12393577                4.94125111
              20.75064363                4.11383862               51.18890820                0.13307965                2.82334331               -0.11037522               -4.65223635               -5.08677205               43.63591686                8.75292497
              21.76792733                3.35061100               50.81234545                0.31706542                1.38776069                0.81829413               -2.81231475               -0.66877435                8.34913540                1.46949151
              22.77839884                2.60261327               50.27430422                0.73447614                1.04715120                1.59560587               -4.52916123                0.02476485                0.41886039               -5.80759349
              13.20273781               11.63930973               51.24664683                0.77207366                0.12455927               -0.26075904                0.68354887               -0.06509424                0.09223321                3.71347185
              14.20398341               10.91948509               50.67128174                0.23216340                0.43952419                0.49651872               -1.49840674                0.04425287                1.95864067               -3.33715776
              15.21152830               10.19954232               50.13313672                0.00067898                3.33268446                1.01776005               -3.02190731               -5.22241348               40.81004851               -9.07106095
              16.27063710                9.37010349               50.33412996                0.00010000                5.87601019                0.38181627               -3.34026896               -9.71974555               77.38655614               -5.41822140
              17.32904850                8.51890579               50.53041866                0.00010000                5.68060025               -0.37743620               -3.66009819               -9.10295040               76.97172743               -2.80596052
              18.38424910                7.66096610               50.72587049                0.00010000                5.08743230               -0.43095857               -3.97261756               -8.48566082               77.22422846               -0.59302544
              19.43079715                6.80357646               50.92949265                0.00010000                4.25838444               -0.31444987               -4.23687152               -8.30796559               78.49041453                1.75120501
              20.46941679                5.95154136               51.15134663                0.01191285                3.44182046               -0.27536884               -4.37550227               -8.37132300               80.65631284                4.73005799
              21.49963356                5.11365596               51.39773431                0.14011617                2.18437739                0.15989674               -4.23667522               -5.06938106               49.18401712                8.98296546
              22.51310434                4.35843855               50.98569704                0.32585901                1.15811371                0.72153549               -2.43654131               -0.62370292                8.43770588                1.98895781
              23.52279583                3.61775083               50.41143464                0.73922854                0.96914934                1.42568704               -4.28685280                0.01411192                0.47788746               -5.38554087
              13.91812468               12.63721227               51.13025155                0.76415568                0.23950231               -0.15781254                0.37752724               -0.06591651               -0.04771895                3.23064161
              14.92051971               11.92512430               50.51872778                0.22540408                0.60808629                0.62903365               -1.97067666               -0.11849840                2.74794001               -2.99300676
              15.93028641               11.20958392               49.96292570                0.00059655                4.77306909                0.81780833               -3.42479846               -5.94857886               47.11394005               -6.68031999
              17.01598109               10.37013759               50.23770014                0.00010000                8.59690709               -1.57044650               -3.59741716               -7.80995465               87.44395907               -3.23983479
              18.10222455                9.51071084               50.49130694                0.00010000                7.56018671               -1.20356479               -3.80570893               -6.21026269               85.88820348               -1.53885662
              19.16718482                8.65594460               50.73849908                0.00010000                5.43241501               -0.56138520               -4.01527390               -5.22759414               85.92239553               -0.23498568
              20.21087285                7.80248716               50.99479766                0.00010000                3.33848454                0.14436185               -4.16974486               -5.37568759               87.66830897                1.16427563
              21.23395451                6.95150358               51.27666056                0.01713671                1.57429814                0.78408093               -4.17079967               -6.00966259               91.31485796                3.13990138
              22.24235881                6.11703655               51.60278115                0.14785562                0.87019426                0.88936110               -3.70753962               -4.53619394               55.53933928                6.67670583
              23.25135840                5.36504171               51.16371193                0.33493092                0.88488582                0.59046759               -1.97098064               -0.77696246                8.88335889                2.22407206
              24.26005653                4.63112701               50.55167649                0.74354335                0.86981318                1.25431033               -3.96169585               -0.02721513                0.38882929               -4.21915138
              14.62559543               13.63615348               51.00434794                0.87999945                0.36463703               -0.10587958                0.03174611                0.33830309                1.47535608                2.74700592
              15.62924180               12.93206577               50.37368627                0.61149127                1.09740024                0.69414632               -2.40608716               -0.14054059                5.96344967               -2.58586678
              16.64754343               12.21589849               49.83250018                0.47728997                9.20346413                0.63145696               -3.68183263               -7.94285816               54.53385000               -4.77468522
              17.81331108               11.33869456               50.16932460                0.44542826               13.57464062               -3.14430338               -3.72830323               -6.32020048               96.03479466               -1.69565257
              18.91903624               10.49483449               50.46515498                0.43653420                8.73049113               -1.58763462               -3.83257700               -2.76663876               93.31661722               -0.74039235
              19.98792090                9.64973840               50.75200882                0.44432540                5.43440829               -0.62061989               -3.95196986               -2.34493166               93.23343695               -0.01160477
              21.02772441                8.80646370               51.04827584                0.46827094                2.33766204                0.39765449               -4.02193812               -2.44061505               95.23029594                0.77686092
              22.03467414                7.96722298               51.37405686                0.51040924               -1.61764314                1.57193966               -3.93525816               -3.67906317              100.04767628                1.93891631
              22.99537155                7.13144318               51.76045814                0.57693937               -2.55997561                1.44066271               -3.28246439               -4.54748028               63.35862151                4.70480981
              23.98347463                6.37024791               51.33837166                0.67095212               -0.26453049                0.52061938               -1.44466754               -1.21868380               12.53963635                2.20879912
              24.99008094                5.64283704               50.70876685                0.87316306                0.66063063                1.17100289               -3.50185256                0.26135375                2.30361228               -3.20999445
               7.52440141                3.84975823               53.22028295                1.00000000               -0.88813281               -0.97962276                3.31472093               -0.21849500               -2.34303276                2.73642409
               8.51552008                3.04287024               52.89960152                0.79305983               -0.87122513               -0.60344754                2.33173749               -0.20700123               -3.24478586               -1.65599608
               9.50697690                2.23235970               52.56153590                0.58090097               -1.06345053               -0.31380216                1.26520472               -0.53632403               -3.15143456               -1.00011566
              10.49425107                1.40633863               52.24311484                0.49002908               -1.32150921               -0.05884588                0.26364340               -0.60045290               -1.04388073               -0.36407068
              11.48054672                0.55487118               51.94671683                0.45157919               -1.14197011                0.24938749               -0.78875149               -0.50511910                1.00995414               -0.26066395
              12.47141166               -0.32303063               51.66807443                0.45312845               -0.39800211                0.55115466               -1.88343156               -0.29807407                2.12951253               -0.03232208
              13.47258668               -1.21695866               51.39266524                0.49292992                0.61263215                0.83968004               -2.96744793               -0.23611893                1.61899907                0.18659989
              14.48366431               -2.11184720               51.10312737                0.57698977                1.38195913                1.11196931               -3.99380353               -0.28683639               -0.03893374                0.35033703
              15.50022586               -2.99855553               50.79423841                0.72354821                1.76454599                1.37500798               -4.98636654               -0.28766851               -1.91641310                0.44648281
              16.51895523               -3.87578727               50.46638077                0.97220249                1.93924226                1.63274292               -5.99184620               -0.22407475               -2.51132439                1.05494615
              17.53901070               -4.74708744               50.14406682                1.00000000                2.00554767                1.98270753               -7.01147120               -0.32916963               -2.13060866               -1.89707192
               8.32910445                4.83996200               53.08750201                0.92299929               -0.69551169               -0.96323215                2.91484555               -0.08639835                0.96094684                3.48210743
               9.32214933                4.03683576               52.76143713                0.44933506               -0.46124909               -0.50492071                1.92164916               -0.16404405                2.59313457               -2.84373136
              10.31987947                3.22922168               52.46855324                0.08371000                0.24207317                0.01044592                1.15156503               -1.00058380                5.20411692               -5.86112808
              11.32699079                2.40575017               52.19484977                0.00808005                1.01503450               -0.57964822                0.29027124               -2.01885471                6.93144915               -4.48105929
              12.34018016                1.55736506               51.93694907                0.01043613                1.36775246               -0.75746954               -0.58388955               -3.02803466                8.58633862               -2.97947182
              13.35434584                0.68248092               51.69701110                0.01370018                1.22268085               -0.43383035               -1.51651982               -3.63181621                9.60976820               -1.90675929
              14.36463377               -0.20856186               51.45983626                0.01657131                0.86242677                0.09287342               -2.44820747               -3.43202036                9.08148443               -0.74936259
              15.37159438               -1.10072751               51.20847915                0.07392114                0.73427165                0.46843071               -3.33063035               -2.41519223                7.48667734                1.21721212
              16.37931921               -1.98480545               50.93778984                0.27718190                0.96930290                0.85144141               -4.19684248               -0.98064429                5.92500634                4.80697548
              17.39098044               -2.85945984               50.65354986                0.61615907                1.38499892                1.36079486               -5.06930720               -0.35321618                3.80483467                2.93992532
              18.40701918               -3.72726037               50.33906396                0.95145632                1.60387473                1.96331472               -5.99979537               -0.32839244                2.36215839               -2.79210443
               9.12892592                5.83049359               52.97038955                0.83114912               -0.59463966               -0.90231831                2.61875618               -0.08926261                0.34456691                4.11503194
              10.12297952                5.03277182               52.59994219                0.30259106               -0.54375508               -0.31109305                1.35739627               -0.10138933                2.77619406               -3.96073088
              11.11805082                4.23256862               52.27857952                0.01196666                0.13755335                0.55384019                0.46783082               -2.10847052               10.55066727              -12.68717424
              12.12573059                3.39474566               52.06414108                0.00010000                1.26022298               -0.79113735               -0.32616374               -4.58446408               16.98548703               -8.86404990
              13.14325528                2.53972179               51.87247625                0.00010000                1.94858324               -1.39395925               -1.20153214               -5.90751456               18.43474997               -6.01533558
              14.16470225                1.66829276               51.68787101                0.00010000                2.19497088               -1.27026317               -2.04614361               -6.73770354               18.98279367               -3.79600279
              15.18715470                0.78489881               51.50743437                0.00010000                2.34509000               -0.79129498               -2.86614649               -6.57584421               19.38072917               -1.43100570
              16.21160405               -0.10247859               51.33006122                0.00010000                2.60953034               -0.44009997               -3.62219333               -5.13252092               20.32705560                2.00328596
              17.23934530               -0.98152670               51.16716805                0.09813362                2.13708842               -0.48141148               -3.33740280               -2.74570116               14.71920091                6.63309741
              18.25434582               -1.84857137               50.87677964                0.28128648                1.43493075                0.61150555               -3.96936333               -0.93865650                4.80622016                3.69116916
              19.26804392               -2.70782115               50.51429261                0.71742562                1.36980938                2.30944601               -5.12907319               -0.69983645                1.23737597               -4.72178334
               9.92276272                6.82191564               52.85094406                0.80958897               -0.47162082               -0.80135080                2.29324696               -0.06849793                0.06494000                3.94135768
              10.91804652                6.03061390               52.43966066                0.27339551               -0.35132550               -0.15099001                0.85994552                0.10323574                1.05103391               -3.78753997
              11.91573621                5.24029848               52.04843512                0.00419775                0.50509102                0.73229080               -0.36109903               -2.60254580               15.61414981              -13.09035740
              12.92814834                4.38992742               51.92852527                0.00010000                1.63732757               -0.18802636               -1.03392591               -5.54626318               28.74515858               -9.12965150
              13.94848276                3.52948587               51.80184276                0.00010000                2.31332088               -0.73471072               -1.79512803               -6.29860844               28.56395033               -6.28325455
              14.97441475                2.65707565               51.67981678                0.00010000                2.77027376               -0.93127617               -2.57688028               -6.92161440               29.00280408               -3.64666887
              16.00388824                1.77561224               51.56266962                0.00010000                3.04773592               -0.86273088               -3.34051815               -6.96708367               29.57694750               -0.92540949
              17.03536947                0.89047049               51.45213254                0.00010000                3.33048623               -0.73439359               -4.00338641               -6.47004710               30.20175486                2.03379838
              18.07049796                0.00556632               51.34683955                0.09838241                3.15661420               -1.05717720               -4.89303362               -4.13641176               22.29331084                4.87318027
              19.09850176               -0.84722973               51.07810869                0.26712424                2.05120249                0.37242849               -3.84434671               -0.97300788                7.20582996                1.72543448
              20.11152201               -1.68107145               50.66905321                0.70351595                1.30202588                2.56521591               -5.12942819               -0.07069040                0.22667407               -6.04070359
              10.71015943                7.81446657               52.73084509                0.79728652               -0.34980377               -0.69159207                1.97716739               -0.06655093                0.07218208                3.92267045
              11.70666139                7.02975202               52.28177103                0.25828867               -0.17365264               -0.02039199                0.36832158                0.16352977                0.90961461               -3.62672829
              12.70668638                6.24721443               51.84968717                0.00165028                0.94782692                0.71975947               -0.98078451               -3.20047252               20.45020268              -11.09274303
              13.72561793                5.39098514               51.79136394                0.00010000                2.17242493                0.26949266               -1.65339225               -6.70123483               38.94047270               -8.80497463
              14.75013488                4.52502758               51.73150999                0.00010000                2.72628315               -0.23136459               -2.35938264               -7.18988679               38.83727842               -6.05026437
              15.78014360                3.64966724               51.67342478                0.00010000                3.21416531               -0.56938908               -3.08994031               -7.57585602               39.08434531               -3.33990708
              16.81441818                2.76764419               51.62026168                0.00010000                3.60527194               -0.70196824               -3.82503350               -7.59849347               39.60975142               -0.55812156
              17.85224903                1.88283354               51.57377236                0.00010000                3.99495507               -0.70118235               -4.60147208               -7.25758497               40.34536972                2.39244168
              18.89431728                0.99732976               51.53592254                0.10488034                3.46372005               -0.62474707               -5.49991640               -4.49494748               28.81950277                5.87090940
              19.92152344                0.15887720               51.25904309                0.27584353                1.99981335                0.78128520               -3.84405711               -1.12311023                8.64577044                0.66094537
              20.93431355               -0.65651683               50.81431731                0.70882063                1.27901168                2.33840627               -5.24992174                0.01186172                0.34105251               -6.62593233
              11.49086080                8.80808379               52.61143609                0.78682463               -0.22915515               -0.58557782                1.66378237               -0.06587172                0.07287938                3.95488033
              12.48856925                8.03020606               52.12472210                0.24643379               -0.01835767                0.11186492               -0.11937413                0.17264010                1.11751264               -3.54940235
              13.49049365                7.25469367               51.65905070                0.00102745                1.38706213                0.80569335               -1.55141306               -3.71489073               25.55666019              -10.52134726
              14.51631049                6.39531728               51.66096287                0.00010000                2.77546389                0.56156371               -2.19664115               -7.74448146               48.84764298               -8.15303189
              15.54600293                5.52485858               51.66411788                0.00010000                3.19852623                0.12999720               -2.86342917               -8.17758048               48.89029692               -5.56161602
              16.58028102                4.64568787               51.66990685                0.00010000                3.63745723               -0.27797303               -3.55203636               -8.40824176               49.14610261               -2.84666382
              17.61875207                3.76157288               51.68084866                0.00010000                4.01255965               -0.52394419               -4.26358948               -8.31954837               49.69876279               -0.00577539
              18.66053221                2.87644685               51.69977807                0.00010000                4.29016426               -0.54912060               -5.01323251               -7.98754560               50.60102144                3.10832763
              19.70455536                1.99307138               51.72996612                0.11143394                3.46769639               -0.27942063               -5.83560610               -4.88279111               34.89707810                6.71484367
              20.72988614                1.16839598               51.43432708                0.28483721                1.89959780                1.01755429               -3.76818038               -1.05265997                9.56595879                0.54310254
              21.74254731                0.36569668               50.95316767                0.71432137                1.26611737                2.12896166               -5.31023041                0.02937081                0.41611556               -6.85115182
              12.26459746                9.80275501               52.49235097                0.77744339               -0.10931434               -0.48088312                1.35094325               -0.06619972                0.07547410                3.95340325
              13.26350432                9.03198932               51.96827179                0.23633250                0.13399417                0.24598543               -0.60452440                0.15873631                1.42407393               -3.49545919
              14.26727735                8.26332830               51.47122615                0.00076663                1.85295345                0.92297997               -2.08416811               -4.17007304               30.84318638              -10.24261291
              15.30056339                7.40221641               51.53528325                0.00010000                3.44676613                0.78339783               -2.67975081               -8.62259454               58.81584102               -7.59439182
              16.33621267                6.52762752               51.60123987                0.00010000                3.73505356                0.34549782               -3.29431227               -9.04286198               58.88830290               -4.92742181
              17.37526446                5.64410778               51.67035799                0.00010000                4.05277863               -0.10391132               -3.93171152               -9.13059805               59.18616396               -2.21711829
              18.41726824                4.75716531               51.74559974                0.00010000                4.28675792               -0.38787622               -4.58761436               -8.90075023               59.85468493                0.66308563
              19.46099962                3.87185113               51.83075540                0.00010000                4.37220432               -0.39984598               -5.25799681               -8.47105036               60.99452021                3.89441006
              20.50471233                2.99174134               51.93009494                0.11813202                3.34226593               -0.04024388               -5.93970971               -4.99631759               40.69605614                7.64734290
              21.52784494                2.17922829               51.60767364                0.29369281                1.77936192                1.08105830               -3.60261357               -0.89756985               10.10935531                0.75083553
              22.54029957                1.38606240               51.08952264                0.71947898                1.24546296                1.95319481               -5.28056920                0.03883065                0.47782847               -6.73721698
              13.03106819               10.79846613               52.37324488                0.76895564                0.01024981               -0.37685971                1.03730916               -0.06661292                0.07684092                3.91368841
              14.03117069               10.03512577               51.81208269                0.22787619                0.28984513                0.38219188               -1.08894520                0.12146790                1.81039220               -3.46407443
              15.03686510                9.27315327               51.28556653                0.00062954                2.41943431                1.02028012               -2.58300663               -4.61528007               36.31943019               -9.96064774
              16.07955938                8.41098523               51.41420754                0.00010000                4.31946107                0.86209789               -3.09792381               -9.27731707               68.91088097               -6.91411063
              17.12325432                7.53176854               51.54351030                0.00010000                4.42859450                0.32207661               -3.64010502               -9.52653191               68.86497141               -4.15492023
              18.16813127                6.64360965               51.67522901                0.00010000                4.48696995               -0.08241374               -4.20740946               -9.32298774               69.16994349               -1.54204565
              19.21299372                5.75381535               51.81423730                0.00010000                4.42019508               -0.26814058               -4.78268768               -8.99777458               70.05306787                1.24098010
              20.25653517                4.86844993               51.96641275                0.00257082                4.21290648               -0.26935578               -5.33666554               -8.56792684               71.57983448                4.54140199
              21.29725185                3.99226650               52.13693272                0.12495784                3.05392561                0.14219540               -5.82148101               -4.97274239               46.36224331                8.55409768
              22.31761368                3.19001714               51.78185677                0.30246164                1.62019231                1.03466513               -3.33914448               -0.75701413               10.37912156                1.18620914
              23.32965569                2.40476057               51.22620306                0.72437762                1.20420107                1.78640951               -5.15188219                0.03741412                0.52392238               -6.36111234
              13.78994593               11.79521782               52.25366340                0.76145695                0.13006114               -0.27274166                0.72088595               -0.06760160                0.09603257                3.88064515
              14.79124654               11.03963316               51.65593174                0.22092835                0.45831755                0.52078580               -1.57347172                0.03619086                2.32963370               -3.50097262
              15.79911228               10.28373390               51.10276011                0.00055096                3.25776182                1.03053812               -3.03348924               -5.16933174               42.11667409               -9.35769119
              16.85640178                9.41945837               51.30016882                0.00010000                5.69726681                0.46249114               -3.43728876               -9.58570102               79.17991186               -5.71663680
              17.91305762                8.53406905               51.49266398                0.00010000                5.51780550               -0.20884994               -3.88648634               -8.93870380               78.67560050               -3.11915516
              18.96675789                7.64245951               51.68421738                0.00010000                4.97074265               -0.19421536               -4.36769509               -8.26936055               78.86741573               -0.91308084
              20.01247247                6.75180250               51.88421984                0.00010000                4.22160226               -0.01177235               -4.84653883               -8.02373827               80.14079920                1.44921916
              21.05118993                5.86646401               52.10345383                0.00733747                3.56088958                0.08330633               -5.26134271               -8.03646940               82.43386808                4.50353919
              22.08369026                4.99458525               52.34950474                0.13189672                2.45103252                0.42376456               -5.50215713               -4.97553086               52.16665320                8.99863623
              23.10021059                4.19992159               51.95891020                0.31105704                1.39353632                0.91894631               -2.97504490               -0.71962308               10.53469376                1.84212412
              24.11156099                3.42179059               51.36570544                0.72891703                1.13504050                1.61314957               -4.91949544                0.02430185                0.58836745               -5.80539672
              14.54088548               12.79301130               52.13416225                0.75382051                0.24929436               -0.16742545                0.40527410               -0.06865937               -0.05191239                3.37719022
              15.54337843               12.04554149               51.49856421                0.21463798                0.63838829                0.65860693               -2.06389093               -0.15942803                3.24268300               -3.13959877
              16.55365325               11.29376403               50.92865828                0.00059237                4.70658881                0.76816766               -3.40458023               -5.83485877               48.70236682               -6.86934971
              17.63751020               10.42023506               51.20124324                0.00010000                8.39129279               -1.45312021               -3.67432725               -7.66842449               89.51403217               -3.41627689
              18.72147911                9.52759154               51.45215264                0.00010000                7.37502042               -1.03352725               -4.01782138               -6.07189667               87.82206261               -1.70616542
              19.78501061                8.63972534               51.69644684                0.00010000                5.35176686               -0.34676547               -4.40348413               -5.06457278               87.77905187               -0.40046657
              20.82851444                7.75357991               51.95018749                0.00010000                3.40062079                0.40204074               -4.78321582               -5.13212123               89.54452728                1.01756047
              21.85302303                6.87011605               52.23078741                0.01241664                1.78846051                1.07971763               -5.07026363               -5.73060244               93.42646761                3.04828573
              22.86428365                6.00074179               52.55964695                0.13957928                1.14964253                1.24069465               -5.03097872               -4.39071740               58.78730300                6.77791943
              23.87601588                5.20839607               52.14160371                0.31995528                1.10600346                0.76815866               -2.50561018               -0.91226187               11.02666616                2.19841816
              24.88640372                4.43702357               51.50923785                0.73297897                1.03878435                1.43891673               -4.58719211               -0.02342720                0.49887649               -4.48353324
              15.28351237               13.79186931               52.00473968                0.87489381                0.37928792               -0.11419880                0.04699776                0.35628739                1.54005539                2.87241333
              16.28730525               13.05280530               51.34908572                0.60633686                1.21045826                0.72638117               -2.51600441               -0.24592051                6.67075489               -2.71200110
              17.30772154               12.29909725               50.79574629                0.47619170                9.09502655                0.53332232               -3.63933910               -7.71363785               56.47857452               -4.92435899
              18.46920578               11.39039597               51.13166434                0.44527448               13.22039327               -2.98390904               -3.78063626               -6.11537941               98.34725306               -1.77245885
              19.57212940               10.51339851               51.42586782                0.43664541                8.51361415               -1.41930295               -4.01402981               -2.67855878               95.45502199               -0.81071713
              20.63947806                9.63552420               51.71074903                0.44408256                5.36549660               -0.42011432               -4.30467764               -2.23101452               95.26991599               -0.07654309
              21.67943933                8.75984331               52.00531189                0.46722727                2.49689671                0.62634056               -4.59853797               -2.28080231               97.27321306                0.72794672
              22.68941600                7.88805837               52.33070849                0.50794231               -1.09217181                1.79423137               -4.79889529               -3.38291132              102.37753190                1.92926938
              23.65759590                7.01939915               52.72163171                0.57273451               -2.18662111                1.86573502               -4.60012983               -4.30745564               66.88133041                4.82294832
              24.64568358                6.21528476               52.32162196                0.66336858               -0.18792214                0.68886926               -1.95987401               -1.47474101               14.83949266                2.25197867
              25.65383746                5.45056893               51.67103728                0.86778222                0.81538785                1.35453621               -4.10590055                0.27178984                2.48501430               -3.36613494
               7.82612024                4.01241224               54.25409282                0.99757820               -0.92094018               -1.01764280                3.44844871               -0.23029065               -2.43516107                2.84046790
               8.81691084                3.16607407               53.92333166                0.78396499               -0.89757217               -0.62480841                2.41503290               -0.21727369               -3.37999732               -1.74879144
               9.80816880                2.31602910               53.57433283                0.57667233               -1.06044997               -0.32542542                1.29435037               -0.52416692               -3.29626025               -0.97582864
              10.79570184                1.45076393               53.24563807                0.48845544               -1.27468261               -0.05392645                0.24081323               -0.57754434               -1.17830089               -0.37818340
              11.78267515                0.56098536               52.93846522                0.45138246               -1.07060434                0.26521289               -0.86308242               -0.48284175                0.83330785               -0.26610888
              12.77428976               -0.35414253               52.64862012                0.45308767               -0.34107416                0.58037276               -2.00857018               -0.28755122                1.94525270               -0.03632178
              13.77585366               -1.28486654               52.36213222                0.49200196                0.64211163                0.88297845               -3.14384914               -0.22470958                1.47872753                0.18445065
              14.78713199               -2.21698924               52.06208386                0.57449331                1.41235852                1.16770774               -4.22116310               -0.26998496               -0.12673264                0.35248631
              15.80410083               -3.14159998               51.74300571                0.71862419                1.82395153                1.44468373               -5.26443831               -0.27533935               -1.98846109                0.44193869
              16.82361102               -4.05702552               51.40485447                0.96420255                2.03135954                1.71604183               -6.32122759               -0.22411955               -2.59154792                1.05090716
              17.84472803               -4.96631974               51.07212328                1.00000000                2.11170072                2.07784672               -7.38777092               -0.35550058               -2.21255246               -1.94630529
               8.67015550                5.00223581               54.11722544                0.91021048               -0.72258313               -0.99960101                3.03124160               -0.09196663                1.04587626                3.63872792
               9.66292967                4.15982599               53.78098217                0.43350318               -0.47866515               -0.52128580                1.98849169               -0.17239097                2.79164139               -3.01672604
              10.66058220                3.31277485               53.48020197                0.07762078                0.22592978                0.02253019                1.17943544               -1.00325929                5.46917762               -6.12847104
              11.66744827                2.45022467               53.19767313                0.00833976                0.98588792               -0.58325352                0.27629419               -1.99988731                7.14265063               -4.83001738
              12.68029996                1.56363749               52.93086077                0.01069257                1.34459638               -0.74513722               -0.63363685               -2.96629579                8.76229870               -3.41245072
              13.69434020                0.65166120               52.68143022                0.01409838                1.23649826               -0.43766744               -1.59907172               -3.53787702                9.75622612               -2.38331179
              14.70502992               -0.27603676               52.43478873                0.01737638                0.92293315                0.07430746               -2.56325631               -3.34064358                9.25083346               -1.25268742
              15.71279886               -1.20531216               52.17444794                0.06950186                0.81678293                0.47381089               -3.47780950               -2.35547935                7.68631518                0.70472852
              16.72136558               -2.12715314               51.89491619                0.26759174                1.04654211                0.89810302               -4.37756783               -0.97277855                6.12981661                4.81938633
              17.73372970               -3.03986510               51.60177664                0.59834442                1.45508281                1.42479730               -5.28642909               -0.35744616                3.97858736                3.02636833
              18.75046724               -3.94554127               51.27779107                0.93900591                1.67375380                2.05236649               -6.25771945               -0.36023460                2.50664625               -2.91535076
               9.50910056                5.99242022               53.99709348                0.81943785               -0.61765727               -0.93261716                2.72350700               -0.09150524                0.33907796                4.30760394
              10.50292398                5.15564836               53.61370658                0.28911191               -0.56978111               -0.32053948                1.39646374               -0.09439690                2.96282071               -4.17882467
              11.49770493                4.31647971               53.28325839                0.01142449                0.09587338                0.58930324                0.47138464               -2.12647889               10.96752427              -13.31103200
              12.50484145                3.43909886               53.06058020                0.00010000                1.21038814               -0.76871678               -0.38405490               -4.59365321               17.40139310               -9.57678591
              13.52191270                2.54608262               52.86000800                0.00010000                1.91825066               -1.37543162               -1.29322781               -5.84035727               18.82344020               -6.85979804
              14.54320646                1.63710413               52.66672136                0.00010000                2.20507283               -1.28058258               -2.18783575               -6.64044396               19.39134758               -4.73934013
              15.56601415                0.71661961               52.47783600                0.00010000                2.39661622               -0.82561186               -3.05900451               -6.46034640               19.83382737               -2.45580862
              16.59113879               -0.20751302               52.29272161                0.00010000                2.65920258               -0.44337278               -3.85116763               -5.04117925               21.35324877                0.93192903
              17.61919820               -1.12363792               52.13296055                0.09012113                2.18557161               -0.33308582               -3.51581022               -2.75224155               15.80457402                5.38321607
              18.63485022               -2.02852957               51.83652085                0.26562834                1.48387340                0.72230391               -4.07670022               -0.96013688                5.14217390                3.31699683
              19.64887567               -2.92527241               51.46215161                0.70640258                1.40254523                2.45072283               -5.29573794               -0.72198565                1.27629944               -5.41511319
              10.34186912                6.98358347               53.87432062                0.79799516               -0.48868781               -0.82514609                2.38369072               -0.07138016                0.06696473                4.12102263
              11.33698225                6.15341520               53.44834170                0.26022217               -0.36335034               -0.15533271                0.87703637                0.12210145                1.16829838               -3.96787589
              12.33460212                5.32456091               53.04473526                0.00378890                0.44950223                0.76119187               -0.37566467               -2.59207696               16.11234338              -13.67304439
              13.34597229                4.43485033               52.91784463                0.00010000                1.54427160               -0.12677272               -1.10034048               -5.56228846               29.45221668               -9.83841803
              14.36548755                3.53612886               52.78324687                0.00010000                2.25110188               -0.68313402               -1.92618208               -6.27121034               29.20053078               -7.09252762
              15.39099433                2.62604955               52.65306527                0.00010000                2.74762955               -0.88012856               -2.77972403               -6.87708986               29.62691578               -4.57269505
              16.42044014                1.70745101               52.52790736                0.00010000                3.06192378               -0.80268164               -3.62136426               -6.91121085               30.25559021               -1.97328728
              17.45223280                0.78582039               52.41036478                0.00010000                3.34485827               -0.62841127               -4.35984218               -6.34495432               30.81014360                0.81544144
              18.48733730               -0.13381486               52.29567612                0.09072254                3.19643229               -0.76898130               -5.33367346               -4.15156733               23.81210331                2.86846038
              19.51616145               -1.02541902               52.03833903                0.25293777                2.10879452                0.59585542               -4.13374634               -1.06905315                8.50105948                0.80781650
              20.52951320               -1.89652681               51.61610760                0.69392623                1.33517465                2.78650984               -5.48551317               -0.05978091                0.28544367               -7.23928443
              11.16800949                7.97591730               53.75100521                0.78591571               -0.36209251               -0.71220075                2.05634889               -0.06952719                0.07480785                4.10673869
              12.16438857                7.15254170               53.28543434                0.24541980               -0.17906151               -0.01827750                0.36464668                0.18326037                1.05521077               -3.80184665
              13.16442826                6.33170354               52.83972161                0.00137494                0.88195841                0.74402747               -1.00283258               -3.18711241               21.06713819              -11.54493027
              14.18202773                5.43656341               52.77440193                0.00010000                2.04305051                0.34220977               -1.73579694               -6.71340196               39.84331283               -9.42921355
              15.20528927                4.53241994               52.70710378                0.00010000                2.61573933               -0.13331114               -2.52386953               -7.17681364               39.68200109               -6.80433123
              16.23434252                3.61950155               52.64124928                0.00010000                3.13649148               -0.44671890               -3.35300543               -7.55109410               39.89352839               -4.21761974
              17.26801910                2.70056598               52.58019108                0.00010000                3.55815242               -0.54485617               -4.20147912               -7.54358184               40.37950900               -1.57163368
              18.30550557                1.77991876               52.52527680                0.00010000                3.96935826               -0.48114776               -5.11069253               -7.07921991               41.01263279                1.17883914
              19.34740627                0.86098245               52.47755145                0.09694898                3.53377706               -0.31277143               -6.17530625               -4.47502446               30.78653870                4.54115312
              20.37618111               -0.01661246               52.21863106                0.26168116                2.12446859                1.06213989               -4.28794094               -1.23236216               10.35312281               -0.19608373
              21.38989564               -0.86954221               51.75944845                0.69928889                1.37145274                2.58562752               -5.77649028                0.03493325                0.44014980               -7.77270664
              11.98722977                8.96933945               53.62841079                0.77547525               -0.23685644               -0.60427411                1.73263852               -0.06851114                0.07571869                4.13891108
              12.98486120                8.15304965               53.12341462                0.23384577               -0.01958035                0.12033626               -0.14223115                0.19036431                1.31641735               -3.72100581
              13.98683816                7.33944146               52.64338899                0.00079770                1.30633248                0.83272180               -1.57206020               -3.69076962               26.32559100              -10.93067838
              15.01098785                6.44169453               52.63849926                0.00010000                2.60874827                0.64925275               -2.28941360               -7.73783890               49.94389638               -8.70106806
              16.03901313                5.53346264               52.63452362                0.00010000                3.04192772                0.26938768               -3.05644160               -8.14966119               49.92402955               -6.23603235
              17.07182641                4.61711517               52.63283584                0.00010000                3.50690864               -0.08788585               -3.87063184               -8.35888836               50.12278749               -3.63848673
              18.10915130                3.69655388               52.63593586                0.00010000                3.92027593               -0.27999900               -4.73424632               -8.21776595               50.61412756               -0.91304659
              19.15023193                2.77619743               52.64645448                0.00010000                4.26083674               -0.25345431               -5.67078118               -7.73026061               51.42115420                2.11096266
              20.19436804                1.85992971               52.66713965                0.10347550                3.59034705                0.04306349               -6.74863139               -4.79039973               37.25231855                5.70452055
              21.22203887                0.99582378               52.39420871                0.27065906                2.08516589                1.30860750               -4.31781077               -1.14555993               11.58775914               -0.14959216
              22.23607135                0.15518574               51.89717143                0.70474678                1.40324847                2.38005971               -5.95627722                0.04959601                0.53332535               -7.83488991
              12.79921888                9.96383181               53.50614575                0.76631348               -0.11250352               -0.49753265                1.41008917               -0.06790303                0.07897030                4.13591176
              13.79809384                9.15494843               52.96202201                0.22422145                0.13745564                0.26014189               -0.64631288                0.17091951                1.69284238               -3.66483294
              14.80196799                8.34835798               52.45024125                0.00056709                1.75779699                0.95201708               -2.09727214               -4.13106505               31.79237300              -10.61394682
              15.83324978                7.44954846               52.50796768                0.00010000                3.24537064                0.88194743               -2.77387592               -8.57624087               60.12090910               -8.07018718
              16.86687540                6.53780769               52.56722745                0.00010000                3.54118637                0.51372045               -3.50692699               -8.96968115               60.11564040               -5.50611723
              17.90407351                5.61774384               52.62925839                0.00010000                3.88530606                0.13741481               -4.29670333               -9.02137661               60.34268230               -2.89017832
              18.94458152                4.69496600               52.69704318                0.00010000                4.17255103               -0.07891111               -5.14203316               -8.72802138               60.94727402               -0.08571878
              19.98752453                3.77484967               52.77434184                0.00010000                4.36952014               -0.05284334               -6.05314760               -8.14962294               62.01799317                3.11602276
              21.03197193                2.86184372               52.86524566                0.11010567                3.52446781                0.27905282               -7.06548609               -4.86067716               43.39649578                6.94411190
              22.05801389                2.00955969               52.56890178                0.27953998                2.00958548                1.36374224               -4.21787948               -0.97920950               12.37209369                0.22718850
              23.07216364                1.17805898               52.03346766                0.70983105                1.41497501                2.20112404               -6.00035018                0.05559768                0.60530762               -7.54205593
              13.60363848               10.95938880               53.38385627                0.75812103                0.01149456               -0.39132756                1.08667096               -0.06848653                0.08040558                4.09336346
              14.60375343               10.15825249               52.80090037                0.21623027                0.29891710                0.40178481               -1.14912055                0.12392669                2.16738900               -3.63245124
              15.60961683                9.35848180               52.25965914                0.00046435                2.31299471                1.04693817               -2.57805398               -4.56311508               37.48066967              -10.28329805
              16.65001332                8.45933348               52.38273527                0.00010000                4.09036515                0.95932953               -3.18234425               -9.18315385               70.44703654               -7.30844412
              17.69142413                7.54373705               52.50598639                0.00010000                4.21136252                0.50363242               -3.86037478               -9.39167263               70.30069757               -4.62148835
              18.73424057                6.61986347               52.63120698                0.00010000                4.30304556                0.18714122               -4.60489998               -9.13966679               70.52219260               -2.07306403
              19.77748504                5.69497566               52.76341239                0.00010000                4.30605839                0.08223321               -5.40409408               -8.74638761               71.34781641                0.66943824
              20.82036174                4.77514056               52.90868914                0.00010000                4.24797179                0.11939060               -6.24601225               -8.20900892               72.85089105                3.98677315
              21.86244448                3.86551077               53.07247858                0.11680897                3.29388377                0.45353619               -7.13149798               -4.82518085               49.37478024                8.14953744
              22.88623942                3.02309862               52.74556256                0.28819170                1.88701178                1.29872053               -3.98851469               -0.83594594               12.81558116                0.82926959
              23.90018471                2.19920822               52.17126658                0.71451129                1.39452944                2.02745619               -5.90815627                0.05141334                0.65818378               -6.98876108
              14.40012177               11.95600526               53.26106455                0.75089121                0.13575972               -0.28545022                0.76056003               -0.06991280                0.10004558                4.05820058
              15.40147937               11.16298412               52.63981230                0.20982806                0.47514627                0.54629347               -1.65228681                0.02076908                2.80119344               -3.67144641
              16.40962470               10.36929674               52.07246694                0.00044527                3.14260460                1.03644685               -2.99451255               -5.11055917               43.53209088               -9.61407242
              17.46433146                9.46873505               52.26538419                0.00010000                5.44436294                0.54915341               -3.50009732               -9.43311753               80.96987223               -6.01172657
              18.51851196                8.54788034               52.45268894                0.00010000                5.28550485               -0.01766760               -4.10064350               -8.76051546               80.33493509               -3.45551581
              19.57004156                7.62148666               52.63851659                0.00010000                4.79323595                0.07700734               -4.77916383               -8.03896234               80.42651097               -1.28462219
              20.61437668                6.69661066               52.83256187                0.00010000                4.13838430                0.33853272               -5.50966627               -7.71557006               81.65335733                1.06393575
              21.65280924                5.77723748               53.04611978                0.00275546                3.65667881                0.50370375               -6.25346263               -7.65167748               83.98718199                4.16159663
              22.68751025                4.87091445               53.28769117                0.12381996                2.73941358                0.74786035               -6.95007438               -4.84296427               55.45377438                8.85513872
              23.70759752                4.03553410               52.92619614                0.29660023                1.67312281                1.15998496               -3.63788403               -0.81224668               13.08701314                1.64745797
              24.72097271                3.21860811               52.31304473                0.71883055                1.33751921                1.84581422               -5.68939726                0.03645470                0.72976944               -6.26803829
              15.18828251               12.95367979               53.13835703                0.74344902                0.25948221               -0.17791913                0.43479843               -0.07100932               -0.05559427                3.53207223
              16.19087733               12.16917835               52.47744997                0.20410378                0.66861020                0.68993069               -2.16174556               -0.21490675                3.86939736               -3.29206005
              17.20165471               11.37921074               51.89483410                0.00063557                4.59450220                0.69692770               -3.32113053               -5.69751033               50.42885206               -7.02841607
              18.28276737               10.47031654               52.16421360                0.00010000                8.09037489               -1.31659267               -3.70652128               -7.50119471               91.57933884               -3.58852866
              19.36346221                9.54338370               52.41095051                0.00010000                7.09818172               -0.83452702               -4.21101583               -5.91864472               89.71049800               -1.88649150
              20.42473101                8.62140362               52.65042939                0.00010000                5.19803042               -0.09417557               -4.80454525               -4.89018931               89.54468939               -0.59587370
              21.46742282                7.70174632               52.89913334                0.00010000                3.41466984                0.70815927               -5.45282847               -4.86682225               91.26693972                0.82157637
              22.49302441                6.78521464               53.17525528                0.00770435                1.99328784                1.43643630               -6.09418712               -5.40913128               95.27128307                2.89299274
              23.50728858                5.88046798               53.50216157                0.13142749                1.46382083                1.65090917               -6.57403407               -4.21709408               62.34985615                6.78328555
              24.52230082                5.04629832               53.11359973                0.30539340                1.37386044                0.98584437               -3.16411758               -1.05410381               13.66447629                2.14880296
              25.53476578                4.23612450               52.45993265                0.72268123                1.24649621                1.66536843               -5.35047171               -0.01848808                0.63966289               -4.76687519
              15.96770446               13.95244688               53.00528790                0.86985300                0.39458226               -0.12329141                0.06350692                0.37578122                1.60919070                3.00459798
              16.97165029               13.17678274               52.32336618                0.60131113                1.34159187                0.76043815               -2.63161976               -0.38328350                7.53832765               -2.84315289
              17.99453630               12.38323530               51.75971340                0.47510679                8.92421631                0.40245557               -3.52058370               -7.43081793               58.59420872               -5.05323981
              19.15013461               11.44240320               52.09371188                0.44517155               12.72578441               -2.79133446               -3.78120363               -5.86555091              100.67101173               -1.85067686
              20.24905199               10.53118980               52.38487439                0.43664871                8.18702690               -1.21938938               -4.16966964               -2.58102445               97.56514037               -0.89071342
              21.31387515                9.61960315               52.66591527                0.44384911                5.20886083               -0.18004646               -4.66303891               -2.10638354               97.22723295               -0.16010050
              22.35322921                8.71077385               52.95630508                0.46626602                2.60149040                0.90275299               -5.22452353               -2.10120834               99.16462605                0.64970500
              23.36590496                7.80596621               53.27807896                0.50555675               -0.55722591                2.07515693               -5.78494118               -3.05400542              104.41331351                1.88290305
              24.34208469                6.90393263               53.66845554                0.56867218               -1.75230241                2.34646553               -6.14862799               -4.05614989               70.69583618                4.88199730
              25.33085891                6.05525099               53.29917418                0.65609344               -0.05670538                0.89526643               -2.59737828               -1.74504879               17.64164509                2.28688488
              26.34095058                5.25191548               52.62664884                0.86259330                1.00916698                1.57909736               -4.84625242                0.28492883                2.69449546               -3.52682752
               8.13722050                4.18030235               55.28925193                0.99095615               -0.95403808               -1.05664476                3.58388098               -0.24209323               -2.53313489                2.94879612
               9.12768012                3.29259340               54.94790218                0.77493825               -0.92376043               -0.64670779                2.49989900               -0.22732356               -3.52304396               -1.84613162
              10.11874529                2.40110485               54.58742290                0.57253818               -1.05637296               -0.33781529                1.32400780               -0.51175257               -3.44972551               -0.95011694
              11.10655266                1.49470483               54.24793111                0.48692651               -1.22572330               -0.04971410                0.21763199               -0.55411304               -1.32175540               -0.39163269
              12.09423082                0.56475790               53.92945519                0.45113139               -0.99514684                0.28153567               -0.94017794               -0.46028179                0.64666308               -0.27104932
              13.08664972               -0.38937726               53.62790303                0.45305300               -0.27666720                0.60906936               -2.13775465               -0.27775987                1.74674644               -0.04048302
              14.08869748               -1.35858267               53.32978825                0.49124437                0.68032206                0.92632779               -3.32736995               -0.21389525                1.32190261                0.18226171
              15.10025616               -2.32952563               53.01870411                0.57206750                1.44942731                1.22549492               -4.45853451               -0.25404696               -0.22829616                0.35513386
              16.11768603               -3.29353772               52.68894964                0.71374832                1.88752678                1.51651560               -5.55460839               -0.26431029               -2.07527574                0.43783162
              17.13800670               -4.24861346               52.33995622                0.95661999                2.12680118                1.80146165               -6.66395287               -0.22351023               -2.68660842                1.04827457
              18.16022205               -5.19734913               51.99631140                1.00000000                2.22153512                2.17534138               -7.77846737               -0.38344686               -2.30710429               -2.00265952
               9.02250852                5.16973590               55.14812684                0.89757105               -0.75028870               -1.03759306                3.14993433               -0.09791947                1.13596277                3.80239184
              10.01500563                4.28612632               54.80120697                0.41786238               -0.49682338               -0.53788030                2.05718086               -0.18091447                3.00073887               -3.20026795
              11.01257205                3.39772670               54.49214194                0.07167125                0.20896861                0.03549166                1.20971409               -1.00681214                5.74947274               -6.40536002
              12.01918500                2.49420769               54.20037565                0.00864576                0.95484997               -0.58331861                0.26540155               -1.98486313                7.37212835               -5.20568293
              13.03166905                1.56757326               53.92427634                0.01100732                1.31787032               -0.73090862               -0.68291297               -2.90710774                8.96115960               -3.87915466
              14.04554241                0.61671344               53.66502966                0.01456922                1.24818328               -0.43759173               -1.68149900               -3.44205816                9.92595273               -2.91340838
              15.05663271               -0.34931939               53.40857114                0.01827229                0.98254056                0.06233350               -2.67960329               -3.24253004                9.44327442               -1.82915804
              16.06519322               -1.31727068               53.13892296                0.06523149                0.89770615                0.48843932               -3.62773751               -2.28824287                7.90966668                0.10807190
              17.07458684               -2.27837256               52.85023848                0.25810998                1.12420421                0.94577076               -4.56070488               -0.96883221                6.35420912                4.77661741
              18.08767730               -3.23059884               52.54782127                0.58049652                1.52682092                1.49098223               -5.50483838               -0.36158107                4.16522023                3.11289158
              19.10512326               -4.17559572               52.21390957                0.92669258                1.74459519                2.14545949               -6.51741782               -0.39537166                2.66127544               -3.06043455
               9.90248127                6.15955049               55.02485969                0.80774728               -0.64102419               -0.96557733                2.83111600               -0.09390319                0.33236176                4.50879481
              10.89607103                5.28183579               54.62787147                0.27547711               -0.59767953               -0.32988470                1.43756871               -0.08717940                3.16488390               -4.41025742
              11.89052768                4.40181469               54.28800721                0.01081306                0.04689026                0.63238337                0.47981222               -2.14446136               11.40216053              -13.95565148
              12.89700883                3.48303846               54.05645998                0.00010000                1.15276197               -0.74351741               -0.43675631               -4.60894504               17.83309176              -10.32578459
              13.91358292                2.55013973               53.84661170                0.00010000                1.88461870               -1.35168603               -1.38757368               -5.77819300               19.23336743               -7.77078198
              14.93470121                1.60187091               53.64411429                0.00010000                2.21240389               -1.28097991               -2.33817588               -6.53627808               19.81414356               -5.78794649
              15.95783100                0.64266400               53.44625428                0.00010000                2.44216360               -0.84445954               -3.26481955               -6.32799677               20.30906648               -3.62737893
              16.98354448               -0.31975684               53.25303787                0.00010000                2.69032728               -0.42525917               -4.09299735               -4.93379683               22.44738161               -0.32619061
              18.01163754               -1.27462230               53.09685184                0.08217262                2.22268771               -0.16414024               -3.73118977               -2.74290107               17.02444548                3.90810079
              19.02799824               -2.21879381               52.79524564                0.25004740                1.53354140                0.87076168               -4.17916274               -0.97017431                5.56166039                2.78014968
              20.04230837               -3.15443994               52.40837785                0.69557865                1.43101366                2.62208726               -5.46271246               -0.73608894                1.32449210               -6.30258666
              10.77605984                7.15042435               54.89861787                0.78642277               -0.50620007               -0.85196592                2.47808265               -0.07376959                0.06964534                4.30964200
              11.77099784                6.27952863               54.45720138                0.24707841               -0.37898426               -0.15968106                0.89562974                0.14640981                1.30869974               -4.15784134
              12.76848016                5.41037437               54.04092182                0.00335557                0.38416060                0.79237041               -0.37892008               -2.58287075               16.64535191              -14.27158621
              13.77868106                4.47933734               53.90651846                0.00010000                1.43962889               -0.06461138               -1.16211964               -5.58708224               30.17232356              -10.56771193
              14.79727274                3.54053954               53.76331912                0.00010000                2.18057603               -0.62377632               -2.06187815               -6.24494371               29.84015394               -7.96226718
              15.82229258                2.59109384               53.62422230                0.00010000                2.72138978               -0.81633173               -2.99674033               -6.82612302               30.25044394               -5.60012118
              16.85170053                1.63379142               53.49024234                0.00010000                3.07555077               -0.72404906               -3.92346091               -6.83599265               30.93697937               -3.17121789
              17.88380359                0.67422413               53.36493570                0.00010000                3.35326272               -0.49612650               -4.73784909               -6.19249747               31.43165394               -0.61997154
              18.91876579               -0.28165537               53.24016609                0.08292334                3.21439337               -0.43442080               -5.76951723               -4.11757470               25.45164920                0.51975039
              19.94809146               -1.21318361               52.99543376                0.23907971                2.14639747                0.89398312               -4.48527642               -1.14039791                9.91482884               -0.40640740
              20.96169374               -2.12315398               52.55934295                0.68466494                1.36022773                3.07025746               -5.90492584               -0.03836698                0.36781545               -8.76565512
              11.64279734                8.14251117               54.77197207                0.77451844               -0.37481242               -0.73514393                2.13929928               -0.07151628                0.07792056                4.30180807
              12.63904921                7.27864217               54.28906396                0.23274646               -0.18678917               -0.01651774                0.36182269                0.20362417                1.23877574               -3.98519865
              13.63906155                6.41766209               53.82963052                0.00109248                0.80264020                0.75930469               -1.00410477               -3.17276379               21.72858086              -11.99843665
              14.65510202                5.48174623               53.75664800                0.00010000                1.89329967                0.41964133               -1.81013936               -6.73125765               40.75108886              -10.07355723
              15.67692755                4.53766421               53.68103260                0.00010000                2.49124259               -0.02626395               -2.69273641               -7.16638763               40.51651080               -7.61158633
              16.70492687                3.58554427               53.60636467                0.00010000                3.05266509               -0.30924035               -3.63332771               -7.52246180               40.68268232               -5.19117891
              17.73798085                2.62818302               53.53623210                0.00010000                3.51072261               -0.36657898               -4.60512029               -7.47540985               41.12253471               -2.73482618
              18.77514132                1.67032063               53.47155851                0.00010000                3.93564726               -0.23115396               -5.64693309               -6.87729164               41.64437269               -0.26030499
              19.81669379                0.71668928               53.41241642                0.08915693                3.57737819                0.05614725               -6.84991499               -4.40765311               32.88414946                2.86059443
              20.84668888               -0.20091415               53.17328427                0.24792206                2.23939848                1.41585110               -4.84156334               -1.31029970               12.22032676               -1.28900348
              21.86148176               -1.09303480               52.69878751                0.69008987                1.47928790                2.90668266               -6.41425883                0.06766696                0.56959865               -9.18898536
              12.50236751                9.13572148               54.64608886                0.76434736               -0.24481136               -0.62416961                1.80500542               -0.07096964                0.07913260                4.33482804
              13.49991940                8.27919827               54.12187748                0.22157555               -0.02233445                0.12823745               -0.16556504                0.20277231                1.56821523               -3.89986052
              14.50192083                7.42556046               53.62760949                0.00056699                1.20671948                0.85585580               -1.56662569               -3.66752586               27.15293794              -11.32791100
              15.52405379                6.48773016               53.61517460                0.00010000                2.41130565                0.74152165               -2.36773826               -7.73264241               51.04053759               -9.26249653
              16.55014694                5.54001426               53.60298905                0.00010000                2.86353663                0.41890994               -3.25098289               -8.12569556               50.93378193               -6.95618266
              17.58132452                4.58490903               53.59249422                0.00010000                3.36345223                0.11944038               -4.20736726               -8.30894547               51.05838741               -4.51861260
              18.61741598                3.62645984               53.58616373                0.00010000                3.82134888               -0.01043087               -5.23676987               -8.10792754               51.47094463               -1.96367462
              19.65775150                2.66960106               53.58636245                0.00010000                4.22157595                0.08081507               -6.36693643               -7.44882895               52.14779759                0.89396358
              20.70184750                1.71946758               53.59499349                0.09548402                3.69290196                0.42976894               -7.68230124               -4.65395675               39.77685572                4.35317711
              21.73160954                0.81513341               53.34797086                0.25686601                2.27204291                1.66661799               -5.00464918               -1.20559826               13.84547306               -1.01275311
              22.74728836               -0.06502032               52.83404213                0.69544058                1.56788202                2.70804679               -6.74232298                0.07423723                0.68339518               -9.01195338
              13.35442435               10.13002778               54.52055275                0.75540615               -0.11586801               -0.51534366                1.47241627               -0.07105617                0.08181919                4.33044165
              14.35326567                9.28120692               53.95534553                0.21212292                0.13773944                0.27440924               -0.68944537                0.17738150                2.03552141               -3.84138493
              15.35717914                8.43477921               53.42928071                0.00037418                1.63648473                0.98505783               -2.07320507               -4.09537509               32.81999959              -10.96388556
              16.38599537                7.49657666               53.47980573                0.00010000                3.00278136                0.98348393               -2.84553873               -8.53088690               61.42048557               -8.55036343
              17.41723477                6.54604240               53.53110133                0.00010000                3.31535057                0.69315138               -3.71583613               -8.89969770               61.30529565               -6.12139749
              18.45230238                5.58793308               53.58442393                0.00010000                3.69477518                0.39905677               -4.67893877               -8.91217018               61.43614516               -3.64205359
              19.49113027                4.62797441               53.64275908                0.00010000                4.04273132                0.26127958               -5.73313313               -8.54721280               61.94655832               -0.96668975
              20.53315701                3.67193693               53.70969245                0.00010000                4.34760143                0.34031986               -6.90000058               -7.79772214               62.89288849                2.13323348
              21.57808230                2.72528466               53.78878522                0.10210952                3.69539064                0.66720855               -8.24640438               -4.67460932               46.31739799                5.92711278
              22.60706482                1.83241821               53.52331605                0.26559675                2.25958378                1.70873838               -4.98574282               -1.03153776               14.95617126               -0.41769202
              23.62327398                0.96112614               52.96951563                0.70035570                1.62091587                2.52143005               -6.87694627                0.07694143                0.77050366               -8.47975487
              14.19858811               11.12541460               54.39497830                0.74737051                0.01274919               -0.40733564                1.13897469               -0.07146502                0.08372076                4.28444054
              15.19871560               10.28468646               53.78910028                0.20466668                0.30277387                0.42238549               -1.21188954                0.12246841                2.62414085               -3.80774650
              16.20464358                9.44526162               53.23400545                0.00031906                2.17286305                1.07491430               -2.52455008               -4.51417692               38.74782720              -10.57596845
              17.24217286                8.50739984               53.35056066                0.00010000                3.80764912                1.05844256               -3.23256808               -9.09012341               71.97167513               -7.69689638
              18.28079656                7.55387729               53.46630280                0.00010000                3.94881306                0.69761048               -4.07010996               -9.25602638               71.68485377               -5.11551918
              19.32114912                6.59289017               53.58313101                0.00010000                4.08356583                0.48057821               -5.01734545               -8.95395302               71.78923891               -2.67131155
              20.36246788                5.63168543               53.70615542                0.00010000                4.16688424                0.46929274               -6.06634821               -8.48382776               72.51512942               -0.01821770
              21.40448680                4.67640745               53.84149251                0.00010000                4.27030767                0.55964385               -7.22532322               -7.81132055               73.91416838                3.25294382
              22.44787403                3.73281175               53.99430276                0.10882981                3.53252496                0.83601866               -8.53138531               -4.62460928               52.65614515                7.47058137
              23.47513730                2.84930818               53.70208648                0.27416174                2.17686434                1.62076832               -4.79876028               -0.89355016               15.66365084                0.38774139
              24.49141132                1.98540828               53.10803994                0.70496465                1.62740184                2.33188083               -6.83233762                0.06927102                0.83370776               -7.70680191
              15.03445135               12.12188106               54.26887460                0.74041689                0.14166796               -0.29926014                0.80286763               -0.07266205                0.10429460                4.24701070
              16.03586803               11.28965463               53.62288601                0.19873607                0.48654348                0.57299733               -1.73487168               -0.00149259                3.40889991               -3.84938808
              17.04418222               10.45627750               53.04286986                0.00038064                2.98546010                1.03438164               -2.88746877               -5.05430204               45.08523108               -9.82825884
              18.09557723                9.51774551               53.23016688                0.00010000                5.12208516                0.63684753               -3.51630585               -9.27375886               82.73936340               -6.29462326
              19.14662392                8.55999461               53.41065111                0.00010000                4.99189737                0.18994849               -4.29626965               -8.57620804               81.93160183               -3.81084886
              20.19541517                7.59754464               53.58863410                0.00010000                4.56562562                0.37595107               -5.20195574               -7.80309521               81.88191529               -1.70834550
              21.23793643                6.63736026               53.77402651                0.00010000                4.01945520                0.72913985               -6.21701902               -7.39276875               83.00541866                0.58617466
              22.27580428                5.68312980               53.97838458                0.00010000                3.73764785                0.98046375               -7.33229675               -7.22107845               85.27731671                3.67555760
              23.31268939                4.74200503               54.21050325                0.11581985                3.03965027                1.14156920               -8.54316006               -4.66169686               59.05400696                8.49536034
              24.33659728                3.86483357               53.88615252                0.28258672                1.98849058                1.45429559               -4.46045829               -0.89221257               16.12676583                1.39906670
              25.35245920                3.00776376               53.25191749                0.70910939                1.58619153                2.13368384               -6.62936438                0.04900951                0.91049301               -6.78434087
              15.86158773               13.11942940               54.14285822                0.73315673                0.27015795               -0.18907603                0.46661908               -0.07388644               -0.05951442                3.69677970
              16.86428931               12.29614640               53.45532930                0.19368120                0.69394630                0.72275872               -2.26483271               -0.28509358                4.67305715               -3.45217502
              17.87546666               11.46594925               52.86223567                0.00074985                4.43456252                0.59981781               -3.14913462               -5.54659019               52.33031841               -7.14799424
              18.95298056               10.52013679               53.12711282                0.00010000                7.70033061               -1.16798189               -3.68033388               -7.31925951               93.61971384               -3.75103657
              20.02947327                9.55767626               53.36793232                0.00010000                6.73705034               -0.61290591               -4.37777812               -5.75613534               91.53452349               -2.07722931
              21.08772157                8.60040919               53.60035593                0.00010000                4.97770385                0.19028966               -5.21185083               -4.71155850               91.19889154               -0.82156693
              22.12902735                7.64626823               53.84113092                0.00010000                3.38494467                1.05668451               -6.16650545               -4.58803628               92.80529963                0.57031080
              23.15542046                6.69601673               54.10890367                0.00297342                2.19544898                1.84696373               -7.21929643               -5.04487854               96.79332984                2.64831514
              24.17293633                5.75564313               54.42816627                0.12358099                1.80569321                2.12230607               -8.30577744               -3.99473115               66.23456920                6.65258883
              25.19153433                4.87839409               54.07832136                0.29142364                1.67974084                1.25199962               -3.97517307               -1.19176393               16.84733342                2.07274260
              26.20653114                4.02808196               53.40222841                0.71277420                1.49968173                1.94181223               -6.27788987               -0.01527119                0.81760946               -5.07009532
              16.67953961               14.11809954               54.00600982                0.86476708                0.41066910               -0.13298565                0.08167847                0.39621396                1.68246182                3.14512130
              17.68364630               13.30410980               53.29645332                0.59625460                1.48602041                0.79634014               -2.75377208               -0.55558547                8.62064289               -2.98153601
              18.70926002               12.46827385               52.72533461                0.47404838                8.69093630                0.23246021               -3.29621116               -7.10686034               60.92505204               -5.15345545
              19.85746503               11.49438587               53.05604026                0.44503923               12.09843993               -2.57509197               -3.71650443               -5.57842121              102.98352910               -1.92778819
              20.95122882               10.54773650               53.34247442                0.43678562                7.75635027               -0.99397628               -4.29230428               -2.47621706               99.62992435               -0.97969811
              22.01259203                9.60135044               53.61748825                0.44361931                4.96696736                0.09412506               -5.02101924               -1.97508083               99.08829380               -0.26334556
              23.05056817                8.65849395               53.90082141                0.46523304                2.64698858                1.22257203               -5.88742227               -1.90998623              100.87505887                0.53641527
              24.06553181                7.72006908               54.21500967                0.50312081               -0.00753824                2.40523506               -6.87105115               -2.69100554              106.08993750                1.78365313
              25.05041740                6.78445115               54.59865915                0.56470927               -1.26043117                2.88080212               -7.88911373               -3.76166827               74.78031183                4.84008589
              26.04032318                5.88987357               54.26967439                0.64904913                0.11803235                1.14794741               -3.38165112               -2.01367206               21.00100950                2.31204619
              27.05277805                5.04660000               53.57411223                0.85755848                1.24548656                1.85180460               -5.74472426                0.29733394                2.93799157               -3.68847207
               8.45815703                4.35363832               56.32577044                0.98435476               -0.98780473               -1.09624389                3.72148655               -0.25389752               -2.63656487                3.06284202
               9.44827898                3.42254187               55.97332964                0.76600465               -0.95058334               -0.66905260                2.58665644               -0.23744549               -3.67451325               -1.94866489
              10.43914536                2.48758868               55.60081299                0.56845275               -1.05222656               -0.35053394                1.35445378               -0.49922301               -3.61369775               -0.92343311
              11.42723445                1.53804219               55.24999071                0.48551551               -1.17544387               -0.04600593                0.19394314               -0.53113148               -1.47648201               -0.40462171
              12.41563649                0.56592207               54.91966166                0.45090340               -0.91714176                0.29758148               -1.01915890               -0.43911716                0.44670239               -0.27539912
              13.40889162               -0.42920545               54.60586503                0.45303169               -0.20729230                0.63872247               -2.27182442               -0.26817399                1.53387747               -0.04421142
              14.41149064               -1.43878707               54.29558482                0.49051335                0.72565298                0.97011250               -3.51639490               -0.20479296                1.14839399                0.17992393
              15.42340468               -2.45032426               53.97291317                0.56979746                1.49262832                1.28397825               -4.70358899               -0.23968051               -0.34863859                0.35760022
              16.44134321               -3.45542103               53.63191354                0.70920658                1.95562053                1.58980319               -5.85455082               -0.25246899               -2.17843533                0.43561567
              17.46251709               -4.45179013               53.27157542                0.94899580                2.22661834                1.88934469               -7.01934791               -0.22281860               -2.79293913                1.04635549
              18.48587557               -5.44156926               52.91655393                1.00000000                2.33584864                2.27528495               -8.18409365               -0.41385429               -2.41096592               -2.07060629
               9.38671451                5.34267588               56.18022412                0.88511551               -0.77851618               -1.07666190                3.27047081               -0.10409428                1.23142550                3.97461763
              10.37892935                4.41585134               55.82212578                0.40227418               -0.51557693               -0.55465390                2.12754350               -0.18986919                3.22145610               -3.39432857
              11.37640297                3.48408334               55.50439625                0.06557280                0.19135465                0.04990578                1.24171338               -1.01274720                6.04616301               -6.69248900
              12.38275644                2.53758213               55.20298117                0.00899944                0.92330827               -0.58009143                0.25676257               -1.97605544                7.61722250               -5.60725682
              13.39486914                1.56889789               54.91720251                0.01138008                1.29040047               -0.71489388               -0.73085913               -2.85555557                9.18110921               -4.38387951
              14.40856445                0.57718177               54.64780024                0.01511448                1.25664897               -0.43209926               -1.76445961               -3.35143538               10.12242592               -3.50349554
              15.42000212               -0.42908595               54.38119666                0.01926049                1.03801988                0.05939526               -2.79619484               -3.14424932                9.66051802               -2.48930650
              16.42932485               -1.43748448               54.10189319                0.06111251                0.97746673                0.51373469               -3.77898904               -2.21764295                8.15469163               -0.58391052
              17.43955145               -2.43952300               53.80370209                0.24885626                1.20190839                1.00087585               -4.74552152               -0.96380329                6.60018307                4.65186337
              18.45336302               -3.43289669               53.49167988                0.56297564                1.59823526                1.56255344               -5.72503821               -0.36265413                4.37091059                3.19302322
              19.47151616               -4.41881641               53.14744271                0.91441727                1.81531399                2.24058699               -6.77999716               -0.43069659                2.83183250               -3.24079573
              10.30972423                6.33210509               56.05371580                0.79604948               -0.66500889               -1.00059796                2.94178021               -0.09660472                0.32514230                4.72087768
              11.30307414                5.41144879               55.64245796                0.26215408               -0.62823000               -0.33927317                1.48030831               -0.07976729                3.38370076               -4.65536207
              12.29715963                4.48858680               55.29285463                0.01013256               -0.00876713                0.67112682                0.49071530               -2.16096580               11.85725771              -14.61283383
              13.30289880                3.52644036               55.05184508                0.00010000                1.08830533               -0.71370301               -0.48283460               -4.63487903               18.27890038              -11.11383070
              14.31892574                2.55162420               54.83225653                0.00010000                1.84739748               -1.32176372               -1.48532607               -5.72850762               19.65636307               -8.75544653
              15.33984675                1.56215256               54.61995785                0.00010000                2.21730861               -1.26925110               -2.49894533               -6.43539119               20.24343275               -6.95479882
              16.36327191                0.56240083               54.41253961                0.00010000                2.48210588               -0.84326081               -3.48746322               -6.18689622               20.80204843               -4.96492028
              17.38948886               -0.44004957               54.21086166                0.00010000                2.71037185               -0.38076008               -4.35564059               -4.80935299               23.59346871               -1.79233823
              18.41747934               -1.43540351               54.05833675                0.07418781                2.25342763                0.02692833               -4.00818998               -2.70843572               18.39606651                2.20543952
              19.43455742               -2.42053906               53.75293759                0.23487290                1.58108715                1.06554428               -4.27814186               -0.97179297                6.09146028                2.03024729
              20.44910109               -3.39675752               53.35289737                0.68504854                1.45436704                2.82834190               -5.62770122               -0.74509688                1.37950345               -7.43535165
              11.22609501                7.32266393               55.92388227                0.77507185               -0.52427163               -0.88113062                2.57630439               -0.07681014                0.07202215                4.50891962
              12.22085229                6.40906588               55.46625430                0.23417958               -0.39514617               -0.16435777                0.91578862                0.16367233                1.48028296               -4.35835919
              13.21819208                5.49750588               55.03715685                0.00290256                0.30845865                0.82301713               -0.36063753               -2.57508003               17.21398277              -14.87023952
              14.22702146                4.52330807               54.89460223                0.00010000                1.31973518               -0.00021226               -1.21784978               -5.61473167               30.89430416              -11.31994342
              15.24458679                3.54246262               54.74200931                0.00010000                2.10292648               -0.55529571               -2.20278963               -6.22671187               30.47050100               -8.89727982
              16.26907999                2.55179675               54.59313046                0.00010000                2.69397694               -0.73732528               -3.23121277               -6.77319294               30.86065437               -6.73935759
              17.29846633                1.55404884               54.44943814                0.00010000                3.09310694               -0.62263887               -4.25263651               -6.74461918               31.61229551               -4.53447427
              18.33094213                0.55490032               54.31560780                0.00010000                3.37029525               -0.33322603               -5.14751115               -6.01567127               32.07341658               -2.28912356
              19.36587223               -0.43898443               54.18028577                0.07527772                3.21695166               -0.06147776               -6.20642374               -4.03009843               27.18562974               -2.15682576
              20.39528116               -1.41158580               53.94863350                0.22555529                2.15894487                1.28047145               -4.92351521               -1.18030016               11.41693844               -1.98802980
              21.40905113               -2.36224957               53.49800909                0.67564601                1.37699633                3.43682103               -6.40384225               -0.00737479                0.48411151              -10.68838559
              12.13538412                8.31448247               55.79379120                0.76333804               -0.38784869               -0.76042995                2.22556713               -0.07507508                0.08098375                4.50804750
              13.13150563                7.40816164               55.29267079                0.22007497               -0.19841422               -0.01475060                0.35969764                0.22086265                1.47216794               -4.17781086
              14.13141583                6.50504714               54.81963951                0.00080808                0.70708988                0.78635859               -0.97947334               -3.16589002               22.44080011              -12.44324822
              15.14564743                5.52643612               54.73819914                0.00010000                1.72434932                0.49893997               -1.87254235               -6.75656371               41.65135248              -10.73638005
              16.16590282                4.54051828               54.65324905                0.00010000                2.35746191                0.09038211               -2.86614179               -7.16238490               41.32429074               -8.47377373
              17.19279667                3.54740606               54.56858273                0.00010000                2.96865684               -0.15565436               -3.93439780               -7.49153723               41.43492242               -6.26762684
              18.22527596                2.54994805               54.48808867                0.00010000                3.47060180               -0.16477123               -5.04196948               -7.39422549               41.82766563               -4.05957376
              19.26220870                1.55328591               54.41233813                0.00010000                3.90437677                0.05212217               -6.21506932               -6.65825661               42.24839328               -1.94241099
              20.30336349                0.56336693               54.34055315                0.08132088                3.60039259                0.48044404               -7.52640926               -4.28955183               35.05743785                0.81873068
              21.33421656               -0.39492963               54.12179980                0.23436626                2.34588202                1.85613664               -5.54070268               -1.33847500               14.19219269               -2.66747600
              22.35028113               -1.32802110               53.63116328                0.68116221                1.60645779                3.32340569               -7.19187459                0.11813348                0.74404066              -10.92191734
              13.03723518                9.30745533               55.66451090                0.75334297               -0.25303056               -0.64656334                1.88074966               -0.07416647                0.08220245                4.54205679
              14.03470487                8.40877087               55.12010332                0.20919317               -0.03176906                0.13681441               -0.18929230                0.21742047                1.89185501               -4.08694251
              15.03659980                7.51323305               54.61205647                0.00034288                1.08570864                0.88185839               -1.52311121               -3.64960228               28.05211291              -11.71071656
              16.05641905                6.53328687               54.59114450                0.00010000                2.18846755                0.83595080               -2.42651222               -7.73856755               52.12075965               -9.83112620
              17.08036915                5.54427026               54.56950396                0.00010000                2.67002144                0.57738563               -3.44606108               -8.10714575               51.90012115               -7.72060860
              18.10981948                4.54868366               54.54868850                0.00010000                3.21664067                0.34299558               -4.56508466               -8.25874273               51.93306463               -5.49083625
              19.14470196                3.55075341               54.53120046                0.00010000                3.72693215                0.28462287               -5.77539450               -7.98863465               52.25411119               -3.16688348
              20.18435812                2.55594276               54.51911575                0.00010000                4.17973870                0.45491856               -7.10091706               -7.14907525               52.78600962               -0.55956345
              21.22829674                1.57062445               54.51349363                0.08758304                3.77707884                0.88548906               -8.62242730               -4.45365180               42.39909760                2.62916938
              22.25989970                0.62553693               54.29411572                0.24326025                2.46499929                2.10099318               -5.87120878               -1.21077843               16.27328844               -2.08491270
              23.27759672               -0.29578146               53.76232498                0.68639551                1.76970271                3.12435882               -7.70162461                0.11283134                0.88326160              -10.42366857
              13.93126971               10.30155121               55.53559408                0.74453699               -0.11933926               -0.53497795                1.53768249               -0.07364078                0.08545384                4.53670563
              14.93007632                9.41089792               54.94823311                0.20029334                0.13190377                0.28931062               -0.73390111                0.18186606                2.47715655               -4.02547227
              15.93390778                8.52268431               54.40877715                0.00020055                1.48812789                1.00701176               -2.00174606               -4.06147973               33.94505220              -11.28825594
              16.95983887                7.54315513               54.45105690                0.00010000                2.72276658                1.08737626               -2.88550074               -8.49439416               62.69524124               -9.02430530
              17.98836312                6.55206600               54.49291073                0.00010000                3.06498931                0.88033121               -3.91900751               -8.83537332               62.43492161               -6.76965290
              19.02113866                5.55426597               54.53567961                0.00010000                3.49405261                0.67716995               -5.07979291               -8.80361146               62.44465183               -4.47381810
              20.05824417                4.55564051               54.58238052                0.00010000                3.91087492                0.62952324               -6.36169546               -8.35787576               62.83640808               -1.98657174
              21.09935616                3.56238428               54.63634183                0.00010000                4.32260586                0.77822735               -7.79088380               -7.42120700               63.61380651                0.92736925
              22.14469628                2.58107672               54.70031757                0.09410566                3.85253688                1.12899540               -9.44974982               -4.43086900               49.38856684                4.55989110
              23.17640690                1.64709023               54.46918693                0.25195209                2.52391277                2.12400217               -5.95265087               -1.03675385               17.80330749               -1.21095393
              24.19517454                0.73446608               53.89592873                0.69124903                1.87676444                2.92258886               -7.94938607                0.10534642                0.98704310               -9.58450627
              14.81706893               11.29675577               55.40663576                0.73670547                0.01401624               -0.42428243                1.19416123               -0.07411200                0.08767429                4.48804792
              15.81720909               10.41455708               54.77666257                0.19333616                0.30220315                0.44347097               -1.27709411                0.11016558                3.21285812               -3.99111873
              16.82311299                9.53337329               54.20916814                0.00021083                1.99701927                1.09085179               -2.39656334               -4.46910091               40.14248206              -10.82268340
              17.85714948                8.55503440               54.31808391                0.00010000                3.47189280                1.15676469               -3.23864870               -8.99989014               73.46325667               -8.06790516
              18.89255085                7.56187688               54.42458419                0.00010000                3.65116261                0.89839230               -4.26572194               -9.12468412               72.99238458               -5.63193526
              19.93017273                6.56222706               54.53086007                0.00010000                3.84376435                0.79144335               -5.44405977               -8.76836015               72.94884522               -3.33602799
              20.96942614                5.56334388               54.64208543                0.00010000                4.01625226                0.88590714               -6.76607335               -8.21146767               73.53513358               -0.82685689
              22.01049778                4.57150731               54.76418268                0.00010000                4.27736361                1.04765952               -8.25557756               -7.38084200               74.76413466                2.31897379
              23.05497341                3.59320436               54.90185087                0.10084267                3.76387399                1.29407132               -9.97958080               -4.36820828               56.14094359                6.46863844
              24.08577526                2.66801698               54.64958735                0.26039621                2.49892716                2.00951604               -5.81609286               -0.91111710               18.86903142               -0.15168547
              25.10495195                1.76267032               54.03461983                0.69568812                1.91766963                2.71333665               -7.96459407                0.08923867                1.06104784               -8.53417312
              15.69418484               12.29306556               55.27712191                0.73012127                0.14772634               -0.31378008                0.84777821               -0.07576532                0.10849297                4.44789197
              16.69566211               11.41976734               54.60511487                0.18789854                0.49318016                0.60052306               -1.82086743               -0.04061438                4.19506731               -4.03575486
              17.70404845               10.54450135               54.01471756                0.00038091                2.78376844                1.02064058               -2.68820880               -5.00561724               46.80477234               -9.97711875
              18.75133748                9.56629043               54.19505807                0.00010000                4.73141605                0.71940152               -3.47292516               -9.10759905               84.46430590               -6.55557967
              19.79867677                8.57003384               54.36676354                0.00010000                4.64834930                0.40694570               -4.46839157               -8.39184371               83.43903894               -4.17985740
              20.84430446                7.57009484               54.53447747                0.00010000                4.30289003                0.69455336               -5.63325387               -7.56688374               83.21131008               -2.18256548
              21.88473457                6.57335865               54.70822149                0.00010000                3.87871857                1.15068759               -6.96039827               -7.06012147               84.17534662                0.01161786
              22.92187883                5.58333747               54.89947384                0.00010000                3.80439405                1.50242742               -8.47253506               -6.75213163               86.28322554                3.02929241
              23.96082245                4.60695814               55.11682797                0.10782803                3.34198795                1.60797498              -10.21827425               -4.42340290               62.91775725                7.85013814
              24.98871859                3.68728055               54.83698697                0.26883918                2.34150876                1.81071631               -5.48763651               -0.94076202               19.63233203                1.09472960
              26.00765263                2.78873281               54.18045744                0.69964322                1.89340323                2.49287698               -7.77738271                0.06282182                1.14264387               -7.36029746
              16.56215005               13.29048017               55.14768941                0.72306091                0.28109642               -0.20097280                0.50092856               -0.07716981               -0.06382464                3.87121422
              17.56496102               12.42656754               54.43215331                0.18345919                0.71637548                0.75683166               -2.37217711               -0.38089124                5.70886843               -3.61991382
              18.57647756               11.55378610               53.83185140                0.00096506                4.22519917                0.47334805               -2.85747922               -5.38715797               54.44657994               -7.20826403
              19.64946500               10.56942243               54.09060692                0.00010000                7.22160024               -1.01489406               -3.58117577               -7.12211965               95.60587179               -3.89843217
              20.72090957                9.57001580               54.32339495                0.00010000                6.30226206               -0.37610997               -4.51257627               -5.58892887               93.26738626               -2.27474289
              21.77551024                8.57611813               54.54619238                0.00010000                4.70357521                0.49883831               -5.62126666               -4.53342977               92.72060178               -1.07604891
              22.81498107                7.58635763               54.77580324                0.00010000                3.31727068                1.43812548               -6.91300948               -4.30439384               94.13679337                0.26140824
              23.84185566                6.60155586               55.03086935                0.00010000                2.37905997                2.30449027               -8.41201809               -4.65033125               97.95818654                2.30152605
              24.86256227                5.62536386               55.33604602                0.11560787                2.16648446                2.63952245              -10.16402360               -3.75604013               70.43330613                6.34520752
              25.88518534                4.70423130               55.03409627                0.27760900                2.03707962                1.57526460               -4.98261805               -1.30642876               20.58877639                1.97264206
              26.90330386                3.81252786               54.33437485                0.70315715                1.81185190                2.28227951               -7.40825906               -0.01123871                1.04820122               -5.39720533
              17.42046670               14.28904610               55.00692147                0.85988357                0.42716514               -0.14340644                0.10176922                0.41745199                1.75960451                3.29356167
              18.42473835               13.43490398               54.26829074                0.59142895                1.64918511                0.83364352               -2.88082567               -0.77615651                9.98262691               -3.12698335
              19.45345040               12.55396831               53.69378918                0.47306351                8.39635185                0.01822072               -2.93626089               -6.74828764               63.52023071               -5.21075479
              20.59266539               11.54599255               54.01938179                0.44484818               11.33760444               -2.34298809               -3.57115505               -5.25279460              105.25018353               -2.00114583
              21.68020249               10.56251164               54.29902830                0.43685652                7.23143239               -0.75041538               -4.37772703               -2.36675505              101.62445236               -1.07579798
              22.73729403                9.58007160               54.56549488                0.44337916                4.65032380                0.39534725               -5.37550404               -1.84114458              100.83584816               -0.38589374
              23.77320897                8.60212116               54.83855663                0.46429873                2.62859711                1.57635366               -6.57699161               -1.70942689              102.38515194                0.38623008
              24.78986598                7.62942728               55.14065793                0.50078942                0.49086175                2.78714205               -8.01866520               -2.31759650              107.37850209                1.61541508
              25.78302620                6.65974859               55.51067327                0.56075218               -0.72199800                3.43847315               -9.76680238               -3.48567876               79.14348963                4.68146700
              26.77542602                5.71878584               55.23154116                0.64207846                0.39042678                1.45545395               -4.35323901               -2.24444217               24.93955226                2.33355013
              27.79083474                4.83437840               54.51175435                0.85267207                1.54087191                2.18505424               -6.84004352                0.31234330                3.23615822               -3.85497525
               8.78937080                4.53265181               57.36368166                0.97791626               -1.02234918               -1.13689225                3.86139464               -0.26610864               -2.74677582                3.18195474
               9.77914730                3.55602781               56.99963531                0.75728804               -0.97802639               -0.69163817                2.67502396               -0.24757493               -3.83522884               -2.05645673
              10.76981027                2.57546967               56.61451198                0.56426493               -1.04864801               -0.36343910                1.38537614               -0.48685101               -3.78883085               -0.89583619
              11.75817434                1.58063148               56.25180997                0.48402548               -1.12598573               -0.04232970                0.16990962               -0.51018773               -1.64362802               -0.41704824
              12.74729055                0.56416822               55.90907201                0.45071257               -0.83851143                0.31325812               -1.09961190               -0.42000819                0.23160206               -0.28013470
              13.74140412               -0.47413191               55.58246654                0.45308584               -0.13366713                0.66826089               -2.40885168               -0.25953881                1.30384180               -0.04767681
              14.74461721               -1.52620788               55.25946035                0.48988784                0.77752768                1.01475666               -3.71008343               -0.19679726                0.95632825                0.17758184
              15.75695467               -2.58033366               54.92463233                0.56764125                1.54189329                1.34362831               -4.95447107               -0.22703646               -0.48591542                0.36015616
              16.77545508               -3.62840251               54.57185862                0.70466145                2.02764285                1.66440016               -6.16260968               -0.24320619               -2.30014541                0.43371040
              17.79750753               -4.66789527               54.19956926                0.94167106                2.32953152                1.97947118               -7.38583883               -0.22207893               -2.91887748                1.04719901
              18.82204571               -5.70053883               53.83262953                1.00000000                2.45381813                2.37837566               -8.60247931               -0.44550383               -2.53260034               -2.14749982
               9.76333371                5.52128289               57.21353626                0.87278338               -0.80710815               -1.11709598                3.39286104               -0.11069569                1.33314454                4.15633267
              10.75526263                4.54911143               56.84375784                0.38689549               -0.53468915               -0.57138898                2.19936805               -0.19943537                3.45415985               -3.59939040
              11.75263993                3.57183528               56.51697621                0.05974161                0.17302804                0.06638676                1.27495424               -1.02139042                6.36003788               -6.99009631
              12.75872319                2.58020818               56.20551090                0.00940420                0.89161180               -0.57453514                0.24989874               -1.97619370                7.88128258               -6.03384010
              13.77047216                1.56730080               55.90965916                0.01181295                1.26367937               -0.69721081               -0.77712152               -2.81753094                9.42293157               -4.93132124
              14.78399678                0.53255070               55.62974047                0.01573411                1.26389773               -0.42116952               -1.84762458               -3.27392227               10.34273466               -4.16163222
              15.79575012               -0.51606031               55.35264724                0.02034332                1.08924226                0.06659958               -2.91393417               -3.05485719                9.90282874               -3.24392235
              16.80578162               -1.56689738               55.06334318                0.05705196                1.05268493                0.55077235               -3.93178277               -2.15180794                8.42556013               -1.38607092
              17.81680382               -2.61175851               54.75532805                0.23985789                1.27866365                1.06526596               -4.93244418               -0.95876539                6.86990222                4.40343480
              18.83135490               -3.64810055               54.43332051                0.54550258                1.67152071                1.63763875               -5.94795333               -0.36186297                4.59372309                3.26833137
              19.85023423               -4.67675507               54.07830963                0.90222543                1.88793356                2.34127391               -7.04604320               -0.46879227                3.01585980               -3.45249236
              10.73149980                6.51030990               57.08369529                0.78461343               -0.68935889               -1.03777733                3.05509471               -0.09986010                0.31666102                4.94480026
              11.72460621                5.54460003               56.65747763                0.24897559               -0.66070444               -0.34814139                1.52401628               -0.07231019                3.62027582               -4.91409855
              12.71828571                4.57679740               56.29782151                0.00939504               -0.07106348                0.71747078                0.50725963               -2.18436544               12.33896104              -15.27393295
              13.72318494                3.56914077               56.04680329                0.00010000                1.01558493               -0.68118868               -0.52219349               -4.67909501               18.73442262              -11.94043147
              14.73859741                2.55022401               55.81690518                0.00010000                1.80509202               -1.28496923               -1.58676477               -5.70068535               20.08170919               -9.82180208
              15.75928678                1.51744470               55.59413539                0.00010000                2.21853699               -1.24344484               -2.67229168               -6.35099213               20.66951286               -8.25501707
              16.78296815                0.47512411               55.37650502                0.00010000                2.51649633               -0.81934087               -3.73137467               -6.05219666               21.30221921               -6.49037308
              17.80961671               -0.56931822               55.16592506                0.00010000                2.72573958               -0.30687141               -4.65068195               -4.67893163               24.76105124               -3.49341095
              18.83748294               -1.60709719               55.01668804                0.06638861                2.28250590                0.23751164               -4.36808359               -2.65877037               19.92866754                0.25865152
              19.85526683               -2.63514249               54.70968280                0.22000485                1.62479761                1.31470735               -4.37751210               -0.96320697                6.77597666                1.00994002
              20.86997890               -3.65371335               54.29582383                0.67475692                1.47120670                3.07837361               -5.79354798               -0.73755781                1.44929770               -8.86360278
              11.69275623                7.50052735               56.95014396                0.76363790               -0.54273119               -0.91332041                2.67742463               -0.07997304                0.07467747                4.71861778
              12.68732892                6.54214860               56.47551716                0.22121244               -0.41721750               -0.16815526                0.93721430                0.18476943                1.69688948               -4.56964570
              13.68441188                5.58618469               56.03370907                0.00243795                0.21928842                0.85500536               -0.31676139               -2.57503526               17.82029797              -15.45172557
              14.69171469                4.56658441               55.88216146                0.00010000                1.18713235                0.06677932               -1.26494995               -5.66243452               31.60211298              -12.09512709
              15.70815453                3.54160142               55.71926333                0.00010000                2.01810697               -0.47649637               -2.34859366               -6.22351180               31.07562895               -9.90295444
              16.73207683                2.50768181               55.55959804                0.00010000                2.66572894               -0.64055010               -3.48604034               -6.72748155               31.43929319               -8.00299085
              17.76146911                1.46755287               55.40518960                0.00010000                3.11737357               -0.49474431               -4.61646446               -6.64530069               32.26342229               -6.08129460
              18.79442430                0.42696519               55.26198548                0.00010000                3.39917892               -0.13586651               -5.60413453               -5.82665750               32.74055983               -4.20672015
              19.82945268               -0.60700828               55.11603761                0.06751817                3.21413082                0.34766138               -6.66204045               -3.89368256               28.97199808               -5.13644008
              20.85870691               -1.62180641               54.89696345                0.21228587                2.15860535                1.76982973               -5.48362219               -1.17617712               12.96530501               -4.04256664
              21.87262479               -2.61518760               54.43126610                0.66706989                1.39178776                3.89621590               -7.00944521                0.04471666                0.65447751              -13.10852888
              12.64665782                8.49204349               56.81648341                0.75204587               -0.40135678               -0.78838076                2.31582204               -0.07713113                0.08508964                4.72638804
              13.64264426                7.54123693               56.29625791                0.20759526               -0.21543082               -0.01257485                0.35796953                0.23680165                1.77177455               -4.38090102
              14.64234921                6.59389751               55.81004105                0.00052770                0.59376354                0.80119019               -0.91952610               -3.16252716               23.21445427              -12.87530201
              15.65451953                5.57047636               55.71919716                0.00010000                1.53402844                0.58327355               -1.91687596               -6.79483096               42.52629543              -11.41248959
              16.67302978                4.54069408               55.62370976                0.00010000                2.21330864                0.21694963               -3.04287519               -7.16959108               42.08256960               -9.39385268
              17.69878570                3.50463370               55.52767671                0.00010000                2.88744888                0.01568064               -4.25950363               -7.46261817               42.12604584               -7.45630926
              18.73077875                2.46522923               55.43539271                0.00010000                3.44295056                0.06387247               -5.52031975               -7.30337010               42.47645581               -5.55984862
              19.76764471                1.42796445               55.34725712                0.00010000                3.88010686                0.37204507               -6.82843716               -6.43094813               42.82702929               -3.87561576
              20.80838089                0.39985604               55.26188823                0.07332229                3.61389488                0.96474074               -8.22661843               -4.11667744               37.23602932               -1.59753796
              21.83992261               -0.59974590               55.06247021                0.22115078                2.46273605                2.39272164               -6.43600276               -1.30540084               16.19365349               -4.40789070
              22.85763561               -1.57578903               54.55495002                0.67260985                1.77130035                3.84642260               -8.14854404                0.19120130                0.97709075              -13.05245179
              13.59282672                9.48475973               56.68370385                0.74238838               -0.26157940               -0.67032284                1.95991485               -0.07638456                0.08594213                4.76277013
              14.59021093                8.54189711               56.11809163                0.19711482               -0.04524079                0.14506457               -0.21326479                0.22151222                2.31066482               -4.28367800
              15.59192191                7.60220850               55.59714727                0.00013520                0.94052852                0.90024587               -1.42848243               -3.63700254               29.03685421              -12.07176149
              16.60902150                6.57824988               55.56664436                0.00010000                1.93417287                0.93373917               -2.45710592               -7.75105009               53.16191718              -10.39925104
              17.63060536                5.54594041               55.53406783                0.00010000                2.46339069                0.74375183               -3.63979423               -8.09868706               52.79519018               -8.52965861
              18.65828931                4.50799542               55.50119252                0.00010000                3.07327942                0.58257236               -4.94687286               -8.20850810               52.71874395               -6.56108906
              19.69207095                3.46883032               55.47065584                0.00010000                3.64446077                0.60643893               -6.35747685               -7.85859302               52.94362053               -4.53220740
              20.73117853                2.43440609               55.44434411                0.00010000                4.13792664                0.87264680               -7.88021795               -6.83462061               53.33906915               -2.26210304
              21.77482948                1.41228654               55.42254495                0.07941811                3.85327180                1.41346021               -9.58405248               -4.18652094               45.03977953                0.52485477
              22.80824396                0.42604803               55.23054668                0.22984696                2.68528007                2.62366988               -6.97773892               -1.14742405               18.77933341               -3.41483257
              23.82853509               -0.53825915               54.68000964                0.67776539                2.02911228                3.64650979               -8.88273582                0.16406386                1.14711746              -12.12212120
              14.53085538               10.47863703               56.55130640                0.73387915               -0.12296429               -0.55559983                1.60603952               -0.07681901                0.08906949                4.75622700
              15.52962573                9.54413822               55.94066751                0.18870290                0.12005046                0.30426050               -0.77974867                0.17474248                3.04622630               -4.21865707
              16.53325639                8.61190243               55.38924579                0.00010000                1.30704370                1.03295190               -1.85843994               -4.04185481               35.18520545              -11.56275075
              17.55576661                7.58915114               55.42209571                0.00010000                2.40270529                1.18953488               -2.88467542               -8.46664359               63.92049881               -9.48511772
              18.58131049                6.55556912               55.45272118                0.00010000                2.79795091                1.07226806               -4.11399479               -8.78016292               63.47247341               -7.44855988
              19.61172563                5.51628515               55.48282807                0.00010000                3.29428635                0.96881632               -5.50164351               -8.69378159               63.33867446               -5.38791720
              20.64719622                4.47735801               55.51552517                0.00010000                3.78852280                1.02385020               -7.03245210               -8.15453834               63.59573451               -3.15188142
              21.68749608                3.44541739               55.55387477                0.00010000                4.29061596                1.26244112               -8.72577227               -7.02036211               64.18969935               -0.50977885
              22.73300854                2.42812524               55.59979022                0.08585092                4.00118645                1.66937943              -10.66522159               -4.11155704               52.52278644                2.81789832
              23.76751981                1.45272750               55.40426303                0.23851231                2.82613473                2.62131994               -7.18029779               -0.97395310               20.81309186               -2.18338573
              24.78953123                0.49714116               54.81052791                0.68248088                2.20114217                3.42276260               -9.26412691                0.14297836                1.26936145              -10.89203092
              15.46028796               11.47364773               56.41886152                0.72621761                0.01524200               -0.44258918                1.25228241               -0.07754646                0.09136298                4.70433388
              16.46044038               10.54798232               55.76355840                0.18199134                0.28919635                0.46552866               -1.34472669                0.08838894                3.98351312               -4.18309497
              17.46607189                9.62286753               55.18607418                0.00016198                1.77907791                1.10747143               -2.16836034               -4.44318345               41.69180682              -10.99656575
              18.49602194                8.60204057               55.28578769                0.00010000                3.08981062                1.24798823               -3.19036938               -8.92155016               74.88563753               -8.41342120
              19.52786810                7.56738577               55.38098836                0.00010000                3.33014248                1.10087953               -4.44418721               -8.99970143               74.19079811               -6.16606690
              20.56262479                6.52737175               55.47424982                0.00010000                3.59899228                1.11379386               -5.88621574               -8.58103219               73.97118307               -4.06655450
              21.59984795                5.48930733               55.57083396                0.00010000                3.86896324                1.32584005               -7.50405345               -7.92330270               74.39057558               -1.76009704
              22.64000405                4.45965491               55.67638096                0.00010000                4.27201434                1.58057920               -9.32497908               -6.91334838               75.40109022                1.17527507
              23.68528823                3.44567413               55.79471114                0.09253419                3.98724618                1.83437020              -11.44779917               -4.03288145               59.76568349                5.11135706
              24.71974898                2.47847442               55.58576462                0.24690941                2.86395471                2.47458726               -7.09830316               -0.86916927               22.34942532               -0.80892340
              25.74256733                1.53019610               54.94874805                0.68679412                2.28183495                3.18308092               -9.34644837                0.11416347                1.35440442               -9.49569933
              16.38063528               12.46978525               56.28583016                0.71987410                0.15384330               -0.32968057                0.89514315               -0.07887097                0.11318585                4.66124844
              17.38217371               11.55344879               55.58646866                0.17719642                0.48495902                0.62949665               -1.90998554               -0.09345393                5.21932566               -4.23090064
              18.39033446               10.63405186               54.98910568                0.00047642                2.53218265                0.99224123               -2.36644282               -4.97325623               48.73226336              -10.04160157
              19.43281737                9.61411091               55.16070837                0.00010000                4.28254163                0.79019292               -3.35786998               -8.94663191               86.10582753               -6.78318259
              20.47598529                8.57758671               55.32128328                0.00010000                4.26830317                0.62654356               -4.61392480               -8.20912206               84.82305159               -4.55724560
              21.51818343                7.53856103               55.47596903                0.00010000                4.02308514                1.02495280               -6.07283237               -7.33056823               84.38688579               -2.70457715
              22.55644700                6.50387481               55.63481855                0.00010000                3.73394426                1.59269641               -7.73577760               -6.71468803               85.14581835               -0.66037488
              23.59286231                5.47702897               55.80893388                0.00010000                3.85422022                2.06041208               -9.64982591               -6.23624055               87.00256676                2.20707601
              24.63353140                4.46481264               56.00613777                0.09965737                3.63760664                2.15139282              -11.91687507               -4.08612123               66.98425312                6.88154551
              25.66561445                3.50221925               55.77639979                0.25541469                2.74198703                2.24091639               -6.77418984               -0.93889058               23.52767307                0.72173686
              26.68837114                2.56080278               55.09636984                0.69061385                2.27566936                2.93224179               -9.17157358                0.07688764                1.43887019               -8.01532252
              17.29138345               13.46705412               56.15287679                0.71311042                0.29212465               -0.21392870                0.53807600               -0.08029366               -0.06806187                4.05598496
              18.29430469               12.56057225               55.40788576                0.17345683                0.72806014                0.79232405               -2.48367611               -0.50421724                7.05274981               -3.79571169
              19.30594465               11.64271236               54.80508609                0.00131809                3.96248789                0.30656785               -2.40974500               -5.22443444               56.82257524               -7.19057817
              20.37355445               10.61784443               55.05548930                0.00010000                6.66454460               -0.86488415               -3.39712074               -6.91917533               97.48889866               -4.02155371
              21.43923554                9.57991664               55.27768080                0.00010000                5.80854355               -0.13164338               -4.61259270               -5.41770772               94.87465865               -2.47585260
              22.48972532                8.54787080               55.48793060                0.00010000                4.39253487                0.82332628               -6.03193996               -4.35790761               94.08521923               -1.35631158
              23.52708624                7.52116125               55.70287073                0.00010000                3.23080428                1.84184764               -7.68400852               -4.01732442               95.24587916               -0.10478203
              24.55434141                6.50086316               55.94066331                0.00010000                2.56446483                2.78856232               -9.64106897               -4.21681867               98.74743828                1.84550435
              25.57837553                5.48870198               56.22488580                0.10761018                2.53198096                3.20066821              -12.05244681               -3.43489166               74.87424500                5.81125706
              26.60498103                4.52329275               55.97866900                0.26420908                2.42812353                1.97177750               -6.23853053               -1.37211739               24.83277110                1.84292017
              27.62693800                3.58884094               55.25406323                0.69394415                2.19569791                2.69693570               -8.77878059               -0.00999711                1.34022357               -5.76121683
              18.19199315               14.46550667               56.00804520                0.85489172                0.44379822               -0.15474497                0.12456758                0.43983065                1.84121982                3.45006968
              19.19643113               13.56929527               55.23883681                0.58666630                1.82902198                0.87230242               -3.01247761               -1.05352900               11.70713941               -3.27920195
              20.22857359               12.64018321               54.66660940                0.47220199                8.03992209               -0.25291455               -2.40245272               -6.36120841               66.41879589               -5.20719821
              21.35722957               11.59681323               54.98461716                0.44462285               10.45155905               -2.10312080               -3.33624546               -4.89395636              107.41992237               -2.06566658
              22.43760477               10.57495384               55.25491988                0.43687182                6.62755466               -0.49628057               -4.42433140               -2.25236068              103.51414594               -1.17672762
              23.48978067                9.55502755               55.50997817                0.44310614                4.27516911                0.71567502               -5.72725216               -1.70656927              102.44890985               -0.52524166
              24.52310815                8.54071176               55.76928158                0.46325784                2.56022729                1.95505068               -7.28546029               -1.50917514              103.68710154                0.19925283
              25.54098521                7.53280022               56.05463636                0.49834118                0.96479095                3.19370629               -9.19649123               -1.92990704              108.25386288                1.37619098
              26.54240397                6.52882601               56.40332310                0.55678373               -0.14760357                4.01240250              -11.67413792               -3.15442746               83.72557416                4.35938200
              27.53803314                5.54165480               56.18260961                0.63531146                0.73354249                1.83620438               -5.56009008               -2.39901399               29.42102516                2.35004021
              28.55707482                4.61474150               55.43731136                0.84798217                1.90416798                2.59005561               -8.16307473                0.32235173                3.59595489               -4.03704161
               9.13131420                4.71756821               58.40299833                0.97163437               -1.05701210               -1.17793084                4.00251793               -0.27804888               -2.86358274                3.30722770
              10.12074408                3.69316768               58.02683012                0.74838369               -1.00600585               -0.71464699                2.76500361               -0.25838479               -4.00605775               -2.16965998
              11.11119409                2.66474349               57.62852051                0.56022264               -1.04711098               -0.37716120                1.41768148               -0.47775806               -3.97715455               -0.86804325
              12.09980186                1.62229936               57.25338890                0.48256654               -1.07910656               -0.03873542                0.14575490               -0.49019174               -1.82337581               -0.42908220
              13.08961196                0.55914509               56.89766942                0.45055042               -0.76108787                0.32932107               -1.18095431               -0.40168634                0.00155564               -0.28422154
              14.08458011               -0.52470685               56.55768799                0.45311181               -0.05802677                0.69871318               -2.54785975               -0.25261929                1.05710611               -0.05165717
              15.08845142               -1.62160921               56.22138315                0.48930914                0.83539962                1.06001454               -3.90687039               -0.19134341                0.74586633                0.17534793
              16.10128810               -2.72054284               55.87382375                0.56554318                1.59759717                1.40442150               -5.21040910               -0.21710895               -0.64424275                0.36209134
              17.12040336               -3.81368567               55.50866135                0.70047469                2.10402664                1.74019539               -6.47641560               -0.23341000               -2.44237319                0.43358290
              18.14336863               -4.89834865               55.12385864                0.93433814                2.43498331                2.07050498               -7.75770182               -0.22096166               -3.05958919                1.05008433
              19.16910303               -5.97587944               54.74450434                1.00000000                2.57343988                2.48188925               -9.02696431               -0.47787093               -2.66662406               -2.23591813
              10.15293425                5.70578890               58.24808135                0.86058374               -0.83616519               -1.15874103                3.51672643               -0.11784117                1.44111487                4.34821846
              11.14457259                4.68602121               57.86611314                0.37191646               -0.55417903               -0.58800904                2.27268502               -0.21038347                3.69942790               -3.81564653
              12.14185066                3.66097188               57.52989533                0.05384682                0.15632784                0.08158924                1.31037154               -1.03450475                6.69349055               -7.29521617
              13.14769915                2.62191201               57.20797914                0.00986508                0.86237670               -0.56590945                0.24314432               -1.99159299                8.16523437               -6.48391854
              14.15909820                1.56243830               56.90166008                0.01230799                1.23659547               -0.67805524               -0.82251207               -2.80079289                9.68689417               -5.52449446
              15.17243106                0.48228028               56.61084774                0.01643157                1.26788928               -0.40492507               -1.93165909               -3.21951523               10.58808029               -4.89579508
              16.18445598               -0.61100906               56.32291798                0.02152615                1.13620907                0.08301056               -3.03321283               -2.98518557               10.17139816               -4.10613559
              17.19515524               -1.70649863               56.02325754                0.05327968                1.12580904                0.59913784               -4.08815985               -2.10179426                8.72157641               -2.31886257
              18.20697217               -2.79628372               55.70505321                0.23093690                1.35503305                1.13728145               -5.12257733               -0.96266901                7.16455791                3.98625452
              19.22225590               -3.87764360               55.37272081                0.52833541                1.74414771                1.71827189               -6.17276994               -0.36021515                4.83814199                3.33192871
              20.24185512               -4.95106055               55.00652185                0.89017157                1.95992173                2.44466975               -7.31379688               -0.50659765                3.21794997               -3.70693639
              11.16849276                6.69439339               58.11481769                0.77323093               -0.71393298               -1.07703707                3.17104132               -0.10319320                0.30750068                5.18148913
              12.16135343                5.68140750               57.67293828                0.23586180               -0.69397853               -0.35642624                1.56860658               -0.06828686                3.87947614               -5.18667420
              13.15461319                4.66637528               57.30299982                0.00860526               -0.14249223                0.76399749                0.52990614               -2.21616258               12.84327765              -15.91887607
              14.15850359                3.61098118               57.04140121                0.00010000                0.93073158               -0.64501722               -0.55440000               -4.74904911               19.19285971              -12.80553302
              15.17322782                2.54558398               56.80052123                0.00010000                1.75667852               -1.24196795               -1.69116863               -5.71109700               20.49789090              -10.97616828
              16.19363716                1.46719465               56.56651201                0.00010000                2.21493988               -1.20423388               -2.85900469               -6.30122283               21.07953807               -9.70428017
              17.21752662                0.38005101               56.33791212                0.00010000                2.54448546               -0.77278420               -4.00117162               -5.94316931               21.79392731               -8.22937152
              18.24452687               -0.70856009               56.11784802                0.00010000                2.73841646               -0.20337604               -4.98757735               -4.56204828               25.91436808               -5.46536807
              19.27229495               -1.79094004               55.97097508                0.05861161                2.32071479                0.46851473               -4.85158765               -2.60305364               21.64795172               -1.94271421
              20.29094116               -2.86398321               55.66538735                0.20544115                1.67550187                1.62095250               -4.48625041               -0.94715688                7.65780485               -0.35874065
              21.30580499               -3.92698605               55.23702641                0.66481011                1.48638244                3.37571081               -5.96724009               -0.71627098                1.53445911              -10.65967246
              12.17684216                7.68424816               57.97743076                0.75240635               -0.56171945               -0.94715233                2.78158539               -0.08334025                0.07799548                4.94141591
              13.17122497                6.67889269               57.48499858                0.20843014               -0.44442119               -0.17191802                0.95919821                0.20168607                1.97170145               -4.79230757
              14.16795374                5.67625183               57.03082163                0.00196497                0.11422494                0.88638127               -0.24597782               -2.58642683               18.47641071              -16.01121290
              15.17350947                4.60901167               56.86930323                0.00010000                1.03545230                0.13611281               -1.29735972               -5.73259290               32.28128041              -12.88826446
              16.18866278                3.53759894               56.69503743                0.00010000                1.92150571               -0.38736271               -2.49714030               -6.24846140               31.63606321              -10.98439329
              17.21193958                2.45819561               56.52340966                0.00010000                2.63422763               -0.52546304               -3.76234731               -6.70331017               31.96332016               -9.40466746
              18.24134734                1.37353526               56.35710886                0.00010000                3.14828708               -0.33830806               -5.02171048               -6.55318556               32.86485191               -7.83331489
              19.27490532                0.28943385               56.20352511                0.00010000                3.44934389                0.09875258               -6.12513929               -5.63608897               33.42083784               -6.39418338
              20.31033421               -0.78691342               56.04704496                0.05989896                3.22267259                0.79244398               -7.17543639               -3.70411818               30.75525512               -8.39651445
              21.33935877               -1.84522455               55.83896105                0.19967055                2.16005844                2.36562649               -6.20475282               -1.12731184               14.51551318               -6.68698780
              22.35353538               -2.88354634               55.35782018                0.65893967                1.41766095                4.45861918               -7.74980041                0.12073898                0.89619553              -16.12303866
              13.17753691                8.67545034               57.84010764                0.74113289               -0.41534244               -0.81802127                2.40925492               -0.08130551                0.08775761                4.95819201
              14.17338348                7.67796914               57.29983018                0.19529357               -0.23856157               -0.01024873                0.35644075                0.24511734                2.15859850               -4.59511909
              15.17276568                6.68410291               56.80124899                0.00026069                0.45605709                0.81706267               -0.80559724               -3.17176435               24.05924270              -13.28044512
              16.18250463                5.61370343               56.69986162                0.00010000                1.31544897                0.66958147               -1.93560387               -6.85194073               43.35087323              -12.09573584
              17.19907466                4.53783673               56.59239155                0.00010000                2.05650069                0.35333668               -3.21946772               -7.19780201               42.76310125              -10.37548715
              18.22363464                3.45668539               56.48339265                0.00010000                2.80750055                0.20574601               -4.60994737               -7.44425607               42.72530392               -8.76894677
              19.25522467                2.37328484               56.37768228                0.00010000                3.43095634                0.32207735               -6.04810288               -7.20974853               43.03963936               -7.25281139
              20.29225377                1.29341496               56.27576939                0.00010000                3.88231588                0.73245984               -7.50833272               -6.20154647               43.36158984               -6.07430366
              21.33287098                0.22490884               56.17602078                0.06543158                3.63870380                1.50664892               -8.98594405               -3.87650541               39.31097532               -4.39560839
              22.36502784               -0.81667068               55.99307974                0.20826800                2.59961815                3.03360054               -7.57484698               -1.20298010               18.13862469               -6.58825212
              23.38486335               -1.83781367               55.46819240                0.66442713                1.98355056                4.48722791               -9.31472783                0.28959066                1.28775394              -15.64422086
              14.17017846                9.66788774               57.70370920                0.73156424               -0.27037065               -0.69661349                2.04171874               -0.08040325                0.08913066                4.99593046
              15.16747475                8.67868771               57.11583803                0.18511350               -0.06971501                0.15444367               -0.23750436                0.21916630                2.85628004               -4.49043803
              16.16878416                7.69259309               56.58348683                0.00010000                0.76310381                0.91997362               -1.26444332               -3.64332024               30.12282470              -12.38420982
              17.18273683                6.62240330               56.54200238                0.00010000                1.64703132                1.03030094               -2.44839102               -7.78292900               54.13261485              -10.96367248
              18.20172479                5.54466567               56.49670808                0.00010000                2.24347567                0.91687695               -3.82851512               -8.10435987               53.58466605               -9.38550722
              19.22760634                4.46231053               56.44975104                0.00010000                2.93490031                0.83824696               -5.35427576               -8.16076766               53.37953112               -7.73830119
              20.26042279                3.37997680               56.40405093                0.00010000                3.58220277                0.95699636               -6.99095362               -7.71699965               53.50703287               -6.07303489
              21.29925040                2.30408305               56.36151139                0.00010000                4.12334789                1.33684446               -8.72634777               -6.50629600               53.78853820               -4.22473017
              22.34288975                1.24321956               56.32181258                0.07125207                3.93856392                2.01798252              -10.58892451               -3.83714071               47.56027524               -1.96288520
              23.37802168                0.21544746               56.15456094                0.21685398                2.93617111                3.24376288               -8.38249509               -1.00590670               21.24649207               -5.05997187
              24.40161317               -0.79380178               55.58467026                0.66947425                2.35914952                4.28503541              -10.32253650                0.23350881                1.49142989              -14.15674087
              15.15432889               10.66151807               57.56771487                0.72318564               -0.12674314               -0.57845235                1.67742494               -0.07980729                0.09331341                4.98918564
              16.15306146                9.68105801               56.93263813                0.17713108                0.09273986                0.32031593               -0.82692588                0.15881215                3.79180563               -4.42159744
              17.15618369                8.70250238               56.37160835                0.00010000                1.08560003                1.04944964               -1.61223880               -4.04064387               36.56794716              -11.77354691
              18.17477346                7.63430945               56.39336340                0.00010000                2.04482697                1.28750081               -2.83277861               -8.45584438               65.05650563               -9.92638508
              19.19708023                6.55617427               56.41063084                0.00010000                2.51673480                1.26638854               -4.29712557               -8.73396146               64.38039249               -8.15861134
              20.22510816                5.47345033               56.42564674                0.00010000                3.10159630                1.27222445               -5.94625782               -8.58025201               64.07975633               -6.38982067
              21.25911215                4.39242477               56.44173148                0.00010000                3.68884679                1.44358786               -7.75238283               -7.93073778               64.19303200               -4.47100577
              22.29888509                3.32015185               56.46182638                0.00010000                4.28258000                1.79353266               -9.71905253               -6.58821427               64.60668220               -2.18765817
              23.34476375                2.26526849               56.48701314                0.07754411                4.15229756                2.29321986              -11.89654388               -3.69668054               55.57036389                0.70153662
              24.38193104                1.24820458               56.32558097                0.22530469                3.16341275                3.21271422               -8.73528348               -0.83381375               23.84915377               -3.37475118
              25.40803201                0.24788704               55.71064619                0.67411966                2.61009656                4.03580925              -10.86466206                0.19124637                1.63698027              -12.44222850
              16.12950243               11.65631869               57.43168141                0.71582903                0.01642580               -0.46214066                1.31330116               -0.08033200                0.09547848                4.93452536
              17.12966669               10.68509403               56.74976804                0.17082462                0.26087050                0.48819792               -1.41463138                0.04875162                4.99397266               -4.38488236
              18.13471984                9.71358208               56.16580093                0.00020061                1.51406799                1.10775162               -1.82508968               -4.43352045               43.43853096              -11.09191828
              19.15994805                8.64815331               56.25427652                0.00010000                2.65924165                1.33078540               -3.07411877               -8.85428332               76.19677197               -8.72248195
              20.18790468                7.56999344               56.33570045                0.00010000                2.99013727                1.30111129               -4.60299590               -8.88006869               75.23963412               -6.71626878
              21.21975080                6.48775502               56.41313575                0.00010000                3.36009170                1.44360923               -6.34567164               -8.38730644               74.81895967               -4.86440578
              22.25510651                5.40884856               56.49200436                0.00010000                3.74457985                1.78448048               -8.28386213               -7.61136944               75.05260873               -2.82071343
              23.29464239                4.33995370               56.57768309                0.00010000                4.28984511                2.15223920              -10.44068245               -6.40193764               75.81916096               -0.18330681
              24.34090341                3.28908395               56.67289489                0.08416931                4.20422267                2.45729538              -12.89313957               -3.59870524               63.35936110                3.38922758
              25.37872685                2.27970175               56.50762129                0.23372373                3.25848797                3.03031653               -8.71528167               -0.75303028               25.95613515               -1.60766601
              26.40607317                1.28691441               55.84769086                0.67829316                2.73463247                3.76120705              -11.02352438                0.14416212                1.73382678              -10.61941955
              17.09517157               12.65227526               57.29502477                0.70959092                0.16015342               -0.34669331                0.94546987               -0.08190682                0.11878560                4.88890402
              18.09677310               11.69082197               56.56691516                0.16679036                0.46412151                0.65955636               -2.00273207               -0.17389152                6.55426807               -4.43666079
              19.10445400               10.72465741               55.96738871                0.00070400                2.22516641                0.94443703               -1.88862604               -4.96455674               50.91310551              -10.00346162
              20.14127643                9.66092516               56.12790067                0.00010000                3.77115760                0.84646278               -3.16178373               -8.78803527               87.61421175               -6.96736807
              21.17987715                8.58219649               56.27448505                0.00010000                3.86152403                0.84343483               -4.73162620               -8.02729382               86.04163914               -4.93965586
              22.21850691                7.50232251               56.41302083                0.00010000                3.74044651                1.36138689               -6.52242910               -7.09041080               85.37534577               -3.27240053
              23.25468608                6.42811438               56.55350594                0.00010000                3.60520169                2.04751952               -8.54254565               -6.35332219               85.89512974               -1.42746104
              24.29061094                5.36319664               56.70647732                0.00010000                3.91777605                2.64048795              -10.85387220               -5.67765112               87.43443950                1.20664501
              25.33304160                4.31441440               56.87849046                0.09124743                3.92145201                2.76598587              -13.57090553               -3.66238300               71.09340650                5.57999116
              26.36903998                3.30881091               56.70150318                0.24208983                3.17241667                2.75890686               -8.38846369               -0.86833659               27.67055102                0.26921735
              27.39648993                2.32311118               55.99702597                0.68199163                2.74499499                3.47237980              -10.85780529                0.09236199                1.82464098               -8.76415286
              18.05077088               13.64938482               57.15845093                0.70305803                0.30358375               -0.22822984                0.57832532               -0.08315047               -0.07216105                4.25370194
              19.05380671               12.69828516               56.38247979                0.16361984                0.72773237                0.82979336               -2.60061610               -0.66850796                8.79681060               -3.98170505
              20.06532552               11.73247082               55.78365650                0.00184892                3.64207758                0.10601584               -1.77906519               -5.08053120               59.51505908               -7.07211297
              21.12664826               10.66508257               56.02266451                0.00010000                6.03179615               -0.72508299               -3.11985875               -6.70658807               99.20770609               -4.11781466
              22.18596145                9.58686214               56.23114310                0.00010000                5.26882143                0.11512149               -4.67861903               -5.24262815               96.31482128               -2.67661454
              23.23202469                8.51498275               56.42555358                0.00010000                4.06022490                1.15745560               -6.44575869               -4.18297845               95.26561521               -1.65980188
              24.26716594                7.44979895               56.62212307                0.00010000                3.13823317                2.25850692               -8.47506805               -3.73062865               96.11727037               -0.52302658
              25.29478936                6.39276346               56.83804797                0.00010000                2.74377691                3.29041738              -10.87816121               -3.75522523               99.17421561                1.27645547
              26.32204148                5.34440367               57.09499709                0.09927768                2.89369867                3.78236144              -13.87900167               -3.06803695               79.40586218                5.05063659
              27.35266333                4.33487989               56.90932566                0.25086158                2.86391920                2.45472543               -7.80757693               -1.36116970               29.43651984                1.67864897
              28.37931987                3.35636200               56.15879924                0.68514460                2.66565359                3.20150663              -10.43476308               -0.00876811                1.71923612               -6.16825865
              18.99570789               14.64771066               57.00941282                0.84995407                0.46090575               -0.16741587                0.15046405                0.46441881                1.93012088                3.61746220
              20.00031695               13.70741784               56.20804119                0.58205213                2.01690380                0.91326814               -3.15063934               -1.39562359               13.90104448               -3.44023696
              21.03604596               12.72677773               55.64574012                0.47139203                7.62182016               -0.56930930               -1.67616240               -5.97767286               69.70250670               -5.12572533
              22.15275335               11.64642350               55.95265688                0.44445947                9.45392182               -1.86590684               -3.00267860               -4.50343178              109.42223651               -2.11751157
              23.22512440               10.58449892               56.21054167                0.43689955                5.95785912               -0.23632172               -4.43557536               -2.13129816              105.26030974               -1.27833070
              24.27191053                9.52547163               56.45094984                0.44288565                3.85842004                1.04888723               -6.07941192               -1.57213633              103.90436583               -0.67831364
              25.30229280                8.47328452               56.69284743                0.46228195                2.44955934                2.34855695               -8.00816555               -1.31064627              104.77028455               -0.01855837
              26.32090172                7.42900499               56.95672811                0.49608438                1.36358172                3.62415259              -10.37223443               -1.54990854              108.74714587                1.06780930
              27.32956444                6.39006163               57.27719051                0.55252725                0.44782705                4.56579538              -13.50271726               -2.80268298               88.37904851                3.87948291
              28.32985826                5.35790542               57.12033935                0.62861301                1.18929513                2.30255322               -7.05532607               -2.42652256               34.29939522                2.35796125
              29.35335034                4.38714132               56.34849286                0.84353853                2.34920793                3.07793127               -9.74690072                0.32663701                4.04527177               -4.23404352
               9.48443556                4.90863034               59.44373202                0.96532173               -1.09315927               -1.22024395                4.14666791               -0.29049263               -2.98665645                3.44005635
              10.47350397                3.83406857               59.05493538                0.73990894               -1.03635828               -0.73782254                2.85673127               -0.27023629               -4.18683648               -2.28880567
              11.46370840                2.75535916               58.64286561                0.55644892               -1.04730280               -0.39075156                1.45081855               -0.46642630               -4.17858665               -0.83982468
              12.45255791                1.66286935               58.25472507                0.48110849               -1.03429116               -0.03518503                0.12157422               -0.47231252               -2.01682569               -0.44109405
              13.44302257                0.55050248               57.88545292                0.45042919               -0.68627009                0.34566279               -1.26235536               -0.38580829               -0.24426302               -0.28726691
              14.43883251               -0.58148455               57.53150935                0.45320748                0.01881014                0.72953324               -2.68752591               -0.24685541                0.79276489               -0.05585469
              15.44339878               -1.72577058               57.18132295                0.48888501                0.89795522                1.10585887               -4.10453158               -0.18679163                0.51540603                0.17319976
              16.45679162               -2.87195941               56.82042415                0.56362052                1.65869743                1.46605031               -5.46759242               -0.20856978               -0.82160634                0.36404487
              17.47657273               -4.01251458               56.44233031                0.69623298                2.18405640                1.81674238               -6.79248644               -0.22702775               -2.60358795                0.43370072
              18.50047274               -5.14461792               56.04441523                0.92695953                2.54245476                2.16272254               -8.13378077               -0.22124624               -3.22028986                1.05480311
              19.52742182               -6.26929220               55.65209024                1.00000000                2.69490760                2.58763407               -9.45732356               -0.51049579               -2.81895721               -2.33527856
              10.55609241                5.89642790               59.28387079                0.84843375               -0.86552110               -1.20200389                3.64345019               -0.12510224                1.55707801                4.55264328
              11.54743720                4.82669034               58.88921154                0.35693908               -0.57243341               -0.60437276                2.34785610               -0.22333122                3.95906199               -4.04409256
              12.54464374                3.75145164               58.54318364                0.04807100                0.14129649                0.10672159                1.34551632               -1.05964488                7.04410359               -7.60738215
              13.55026313                2.66251750               58.21037379                0.01038450                0.83488507               -0.55816656                0.23665523               -2.02648619                8.46632546               -6.95311015
              14.56134144                1.55395910               57.89320891                0.01286836                1.21186782               -0.65895944               -0.86825414               -2.81424358                9.97296384               -6.16510671
              15.57450049                0.42581078               57.59110729                0.01720665                1.27134221               -0.38591296               -2.01681223               -3.20084713               10.85758846               -5.71226101
              16.58676829               -0.71471199               57.29198298                0.02280647                1.17887173                0.10581923               -3.15526195               -2.94988858               10.46387055               -5.08829816
              17.59807792               -1.85729890               56.98157998                0.04954064                1.19317079                0.65331278               -4.24766251               -2.07928388                9.04311372               -3.40213956
              18.61063170               -2.99434716               56.65287650                0.22233350                1.42855872                1.22856746               -5.31721914               -0.96809319                7.48618683                3.32276454
              19.62664909               -4.12299069               56.30986511                0.51116309                1.81797230                1.80301833               -6.40266826               -0.35849254                5.10367058                3.38000044
              20.64699115               -5.24341586               55.93203369                0.87823362                2.03420550                2.55435360               -7.58755721               -0.54410977                3.43786815               -4.00394315
              11.62140864                6.88459026               59.14711612                0.76209691               -0.73950317               -1.11810914                3.28954359               -0.10651088                0.29700984                5.43350505
              12.61401361                5.82198111               58.68884977                0.22279752               -0.73601488               -0.36398944                1.61451675               -0.05808956                4.16340575               -5.47424270
              13.60668834                4.75749359               58.30841964                0.00777087               -0.22464395                0.81298120                0.55906745               -2.26416943               13.38690906              -16.54918132
              14.60952073                3.65170602               58.03571529                0.00010000                0.83780419               -0.60793990               -0.57686553               -4.86544710               19.65408517              -13.69942817
              15.62344442                2.53732329               57.78308180                0.00010000                1.69829682               -1.19579340               -1.79615089               -5.77404534               20.89421741              -12.22243335
              16.64348666                1.41079719               57.53695529                0.00010000                2.20331322               -1.15514817               -3.05796204               -6.31030796               21.45954500              -11.31604850
              17.66751069                0.27634581               57.29648159                0.00010000                2.56772213               -0.70857987               -4.29850877               -5.89039679               22.25906766              -10.20686896
              18.69484111               -0.85889315               57.06617351                0.00010000                2.76959810               -0.07704709               -5.37907378               -4.47310048               26.98992013               -7.74807357
              19.72290265               -1.98794323               56.91965629                0.05091347                2.37652475                0.71814460               -5.48755600               -2.55871305               23.57200086               -4.44336173
              20.74237160               -3.10855755               56.61995779                0.19149567                1.72436587                1.98760694               -4.61842860               -0.93345187                8.81643612               -2.16238469
              21.75738997               -4.21820513               56.17647903                0.65529585                1.50183666                3.73007496               -6.15927944               -0.67279320                1.64532745              -12.89370697
              12.67918049                7.87406572               59.00577567                0.74141206               -0.58084126               -0.98306848                2.88738712               -0.08755405                0.08108748                5.17637883
              13.67337208                6.81941055               58.49470112                0.19590783               -0.47725252               -0.17430021                0.98115740                0.21534070                2.32006004               -5.02605185
              14.66963544                5.76771126               58.02878952                0.00149079               -0.01237974                0.90649105               -0.13522938               -2.61187834               19.18667483              -16.51607054
              15.67312449                4.65035870               57.85621427                0.00010000                0.85669622                0.20782382               -1.30840959               -5.83971610               32.91426386              -13.69349935
              16.68676937                3.53004324               57.66932052                0.00010000                1.80736597               -0.29047966               -2.64388835               -6.31672710               32.13105153              -12.14435779
              17.70927181                2.40270782               57.48435110                0.00010000                2.59406608               -0.39419031               -4.05792599               -6.72062172               32.40849090              -10.95746473
              18.73865069                1.27111641               57.30475540                0.00010000                3.18165704               -0.15574384               -5.47126317               -6.49317728               33.38406927               -9.81261296
              19.77290495                0.14116016               57.13948269                0.00010000                3.52355758                0.36926230               -6.72653276               -5.47018890               34.08761716               -8.88003028
              20.80912184               -0.97998426               56.97252888                0.05227264                3.26685052                1.25597398               -7.79143918               -3.50056545               32.47024885              -11.91181885
              21.83824196               -2.08323855               56.77286840                0.18744066                2.18543027                3.07233604               -7.12209268               -1.03391082               16.02739583              -10.06346634
              22.85283045               -3.16881436               56.27627009                0.65127216                1.45884894                5.13408023               -8.64177927                0.23118941                1.24266395              -19.84587274
              13.72896789                8.86492889               58.86466851                0.73029519               -0.42930150               -0.84973037                2.50381045               -0.08481933                0.09068294                5.20235709
              14.72467487                7.81849511               58.30338673                0.18303988               -0.27326327               -0.00650764                0.35489167                0.24406678                2.66782406               -4.81983265
              15.72350262                6.77562341               57.79392911                0.00010000                0.28597803                0.82268391               -0.62106048               -3.20270048               24.99088214              -13.63817979
              16.73039443                5.65586250               57.68048508                0.00010000                1.06290730                0.75579754               -1.91831265               -6.93908279               44.09351511              -12.77996226
              17.74476077                4.53151369               57.55932041                0.00010000                1.88033091                0.49738724               -3.39022549               -7.25842289               43.33691003              -11.42245964
              18.76800105                3.40291338               57.43547777                0.00010000                2.72170177                0.41337450               -4.98315508               -7.45087440               43.20033688              -10.21799269
              19.79919480                2.27323093               57.31443065                0.00010000                3.42684769                0.61020039               -6.62902746               -7.13103600               43.47951877               -9.15788376
              20.83653800                1.14849210               57.19709047                0.00010000                3.90476226                1.13471710               -8.27240788               -5.98859948               43.81855199               -8.55930886
              21.87729005                0.03717625               57.08216935                0.05748251                3.69927395                2.10103664               -9.86268687               -3.58696633               41.15791443               -7.57882174
              22.91052348               -1.04711083               56.91097328                0.19584860                2.79376640                3.77929538               -9.01146400               -1.03128038               19.93193579               -9.30681165
              23.93316538               -2.11552353               56.36865546                0.65660565                2.26418926                5.24833009              -10.73395890                0.42446062                1.70676169              -18.77592730
              14.77035168                9.85707111               58.72453822                0.72083400               -0.27927780               -0.72401791                2.12586274               -0.08370941                0.09344170                5.24347295
              15.76755890                8.81928040               58.11334154                0.17345430               -0.10688169                0.16405755               -0.26236021                0.19936637                3.57007523               -4.70790149
              16.76821404                7.78416494               57.57185840                0.00010000                0.54468225                0.92469874               -1.00337795               -3.67091511               31.33341533              -12.63651410
              17.77845255                6.66547465               57.51767654                0.00010000                1.31679901                1.12434019               -2.38976655               -7.83470801               54.99714476              -11.51729155
              18.79455002                5.53999098               57.45749753                0.00010000                2.00422686                1.09454112               -4.00660136               -8.13125601               54.23148774              -10.29241938
              19.81853708                4.41097531               57.39410701                0.00010000                2.79506157                1.10953208               -5.78510491               -8.12257501               53.87784623               -9.03394109
              20.85045126                3.28332042               57.33083677                0.00010000                3.53252776                1.33767654               -7.68007736               -7.57191962               53.90129002               -7.80589142
              21.88918764                2.16385450               57.26981715                0.00010000                4.12670916                1.85002150               -9.65801621               -6.17369470               54.10378705               -6.46508591
              22.93298544                1.06203647               57.21076646                0.06303401                4.05642440                2.69487073              -11.69193471               -3.40679816               49.79101125               -4.82129922
              23.97031613               -0.00765264               57.06289678                0.20409521                3.25798072                3.96414814              -10.14799898               -0.77689386               23.53416647               -7.09847066
              24.99814505               -1.06384776               56.47355891                0.66167215                2.78289280                5.03997602              -12.06790133                0.32923944                1.94877027              -16.59337475
              15.80287512               10.85044853               58.58485490                0.71273502               -0.13067538               -0.60213838                1.75159802               -0.08359840                0.09703272                5.23751532
              16.80156837                9.82177626               57.92412899                0.16570812                0.05074723                0.33636231               -0.87535290                0.11551293                4.77292587               -4.63574154
              17.80389007                8.79411738               57.35700101                0.00010000                0.81529336                1.05419340               -1.24421711               -4.06534891               38.12318446              -11.90287627
              18.81787423                7.67834930               57.36544014                0.00010000                1.63724649                1.37895042               -2.71758968               -8.45537749               66.05403858              -10.34167733
              19.83663499                6.55340452               57.36677867                0.00010000                2.21729381                1.46076027               -4.46441899               -8.69968743               65.11742521               -8.90320204
              20.86222011                5.42510402               57.36390291                0.00010000                2.91211124                1.58671200               -6.41259651               -8.46285339               64.62775343               -7.48865258
              21.89487722                4.29998446               57.36047751                0.00010000                3.60639764                1.88990883               -8.52551523               -7.68549877               64.58528237               -5.95594397
              22.93434806                3.18549253               57.35949372                0.00010000                4.28920038                2.37416702              -10.78775615               -6.13008462               64.84596643               -4.11451167
              23.98066123                2.09107366               57.36185935                0.06906806                4.32608869                2.99724435              -13.18453646               -3.18842850               58.33172574               -1.76533680
              25.02086984                1.03217213               57.22955736                0.21244066                3.57395850                3.90257714              -10.68580915               -0.60190439               26.73413563               -4.84246060
              26.05214040               -0.01472401               56.59323467                0.66616735                3.12705604                4.76378482              -12.80136438                0.25836921                2.12147571              -14.28810916
              16.82602426               11.84502834               58.44512755                0.70555763                0.01760463               -0.48273671                1.37679256               -0.08431499                0.09930304                5.17958358
              17.82620031               10.82600764               57.73526577                0.16008725                0.21548806                0.51137859               -1.48639630               -0.02263814                6.30884240               -4.59775495
              18.83033402                9.80524881               57.14957239                0.00035651                1.19287766                1.10048340               -1.33681153               -4.46164952               45.41620585              -11.07763383
              19.85005786                8.69305366               57.22430531                0.00010000                2.17337643                1.40131320               -2.88168273               -8.79557982               77.34611991               -8.99084743
              20.87380155                7.56920619               57.28892844                0.00010000                2.63211041                1.49732105               -4.74072667               -8.76405957               76.09374122               -7.28437094
              21.90270007                6.44270955               57.34733639                0.00010000                3.12756130                1.77955835               -6.82284986               -8.18191222               75.45367081               -5.73473804
              22.93635278                5.32111860               57.40515671                0.00010000                3.63983357                2.26112095               -9.10903393               -7.26779170               75.48403413               -4.01360408
              23.97549674                4.21133784               57.46756731                0.00010000                4.30922411                2.76522332              -11.60949876               -5.84593627               76.02109722               -1.75362605
              25.02253726                3.12198136               57.53684835                0.07545638                4.42894831                3.16183018              -14.34093503               -3.06132454               66.71293278                1.32622815
              26.06407571                2.07039890               57.41145899                0.22061265                3.72837283                3.68635432              -10.74529347               -0.54666485               29.48191363               -2.59063545
              27.09710472                1.03142794               56.72827757                0.67022031                3.30290091                4.45676752              -13.05463980                0.18680260                2.23412402              -11.95440713
              17.83923021               12.84079380               58.30473956                0.69956135                0.16649210               -0.36441152                0.99881513               -0.08608440                0.12427501                5.13159659
              18.84089514               11.83200383               57.54641402                0.15645635                0.41904217                0.69022360               -2.09870043               -0.29158605                8.29284364               -4.65444265
              19.84761106               10.81612705               56.95133316                0.00109866                1.85550629                0.88349377               -1.23550893               -4.99505877               53.39710399               -9.82793177
              20.87800526                9.70637556               57.09747270                0.00010000                3.20434306                0.88391353               -2.88064478               -8.63059990               88.92301686               -7.10400170
              21.91169792                8.58335094               57.22665075                0.00010000                3.43320962                1.05607708               -4.82357367               -7.84195155               87.05173864               -5.32682844
              22.94666945                7.46069519               57.34552044                0.00010000                3.45975875                1.70181028               -6.98388778               -6.83932352               86.14383930               -3.88702254
              23.98089309                6.34520688               57.46396763                0.00010000                3.49485627                2.51203189               -9.38193842               -5.96568646               86.39942236               -2.28721961
              25.01656658                5.24079699               57.59185644                0.00010000                3.97402911                3.24018211              -12.08248952               -5.07208283               87.60186304                0.04516574
              26.06037368                4.15431027               57.73471966                0.08239472                4.19616908                3.45166574              -15.16360903               -3.11099693               75.04030866                3.94949439
              27.10048996                3.10589922               57.60863052                0.22885265                3.67223490                3.38153285              -10.42068247               -0.70326811               31.84204677               -0.29584194
              28.13381837                2.07441134               56.87921373                0.67374070                3.33284134                4.12904732              -12.90975185                0.11475485                2.33482368               -9.65601015
              18.84188252               13.83774011               58.16444329                0.69320695                0.31528207               -0.24308245                0.62109070               -0.08736901               -0.07769931                4.46488494
              19.84503534               12.83981212               57.35587344                0.15434864                0.70892993                0.86819529               -2.72153244               -0.87959212               11.04401388               -4.17944649
              20.85606111               11.82291869               56.76950478                0.00258542                3.25933210               -0.13127899               -0.95136215               -4.93416033               62.58207909               -6.84508422
              21.91022198               10.71073193               56.99309213                0.00010000                5.32908905               -0.59486568               -2.75260354               -6.48617333              100.68788011               -4.17203881
              22.96264289                9.59032773               57.18410842                0.00010000                4.69178400                0.36195684               -4.71656599               -5.05830478               97.54673552               -2.87773661
              24.00405766                8.47674575               57.35901542                0.00010000                3.71471765                1.49867824               -6.86543549               -4.00378573               96.23746490               -1.98501817
              25.03693725                7.37135924               57.53336937                0.00010000                3.04470198                2.68424968               -9.28466538               -3.43808962               96.74581826               -0.98840292
              26.06495170                6.27614148               57.72310008                0.00010000                2.91389229                3.79995718              -12.10855369               -3.26630478               99.27722109                0.61650836
              27.09521509                5.19101467               57.94730576                0.09036643                3.24787860                4.38592782              -15.59524381               -2.60559520               83.85102446                4.05674302
              28.12990927                4.13802956               57.82251746                0.23753850                3.35802362                3.04437048               -9.77267624               -1.23885270               34.18422226                1.46250777
              29.16237557                3.11400888               57.04536797                0.67680610                3.24662965                3.81310235              -12.43780597               -0.00932345                2.21256861               -6.64840768
              19.83333882               14.83593215               58.01105448                0.84514931                0.47858956               -0.18079613                0.17878620                0.48918929                2.02441715                3.79666457
              20.83812472               13.84936773               57.17582402                0.57765789                2.23346063                0.95556179               -3.29380604               -1.81259562               16.66648747               -3.61235432
              21.87800804               12.81350147               56.63308615                0.47073976                7.13740168               -0.94172140               -0.74281127               -5.54978203               73.36777969               -4.94059213
              22.98087275               11.69447825               56.92456359                0.44427058                8.32549841               -1.62536822               -2.58164597               -4.08049239              111.18208423               -2.14487775
              24.04451800               10.59059007               57.16620837                0.43698633                5.23447393                0.02623466               -4.42011104               -2.00296383              106.82204011               -1.37908369
              25.08556223                9.49066876               57.38838993                0.44268279                3.41087846                1.39230035               -6.43492425               -1.43445273              105.18414657               -0.84154916
              26.11273557                8.39889187               57.60911827                0.46125571                2.30114085                2.75326376               -8.74211462               -1.11379846              105.64187287               -0.25999201
              27.13158505                7.31679614               57.84719168                0.49369136                1.68190619                4.06546553              -11.52220441               -1.17981739              108.91028082                0.70526590
              28.14637370                6.24202882               58.13326875                0.54807556                1.05668240                5.10141530              -15.19682123               -2.38461493               92.97615032                3.25197827
              29.15271870                5.16678663               58.04150309                0.62175079                1.76497772                2.87570747               -8.90741720               -2.28682897               39.37541050                2.35593541
              30.18167325                4.15067339               57.24237335                0.83929830                2.89545553                3.66645096              -11.64007730                0.31844471                4.61320046               -4.45666391
               9.84917434                5.10609179               60.48593169                0.95919306               -1.13005787               -1.26341261                4.29392723               -0.30325648               -3.11810261                3.57985419
              10.83787376                3.97883926               60.08396474                0.73158691               -1.06708345               -0.76142810                2.94989853               -0.28232089               -4.37802772               -2.41247303
              11.82783267                2.84731093               59.65753688                0.55246102               -1.04978609               -0.40407226                1.48354805               -0.45917898               -4.39161183               -0.81158014
              12.81687804                1.70218004               59.25582038                0.47977038               -0.99451259               -0.03204592                0.09811736               -0.45892332               -2.22391537               -0.45221524
              13.80794242                0.53788777               58.87242232                0.45039603               -0.61563292                0.36195172               -1.34282762               -0.37183783               -0.50495211               -0.29010158
              14.80456538               -0.64501983               58.50393747                0.45334609                0.09511632                0.76089455               -2.82546830               -0.24331433                0.51226730               -0.05978603
              15.80984474               -1.83946528               58.13929252                0.48838110                0.96416138                1.15316181               -4.30179954               -0.18609359                0.26801219                0.17043507
              16.82384861               -3.03557362               57.76447190                0.56170468                1.72478906                1.52828355               -5.72431317               -0.20439882               -1.01949246                0.36521667
              17.84434052               -4.22610404               57.37281162                0.69216497                2.26771480                1.89496361               -7.11032584               -0.22191182               -2.78732511                0.43483968
              18.86920290               -5.40815235               56.96118303                0.91949539                2.65166623                2.25661990               -8.51163597               -0.22147069               -3.39900455                1.06213489
              19.89737385               -6.58247190               56.55535787                1.00000000                2.81709467                2.69437072               -9.88945438               -0.54180721               -2.98668838               -2.44668953
              10.97339431                6.09345767               60.32095035                0.83678275               -0.89533271               -1.24665896                3.77202503               -0.13370246                1.67882722                4.76843869
              11.96444098                4.97122498               59.91307027                0.34245328               -0.59119099               -0.62030974                2.42340598               -0.23715917                4.22986699               -4.28310925
              12.96157049                3.84327021               59.55680566                0.04226739                0.12797050                0.12374229                1.37991611               -1.08561062                7.41237911               -7.91975810
              13.96700039                2.70185959               59.21271224                0.01096796                0.81267440               -0.55139549                0.23137977               -2.08589199                8.78830989               -7.43593482
              14.97782397                1.54150728               58.88429500                0.01349675                1.19041854               -0.64320295               -0.91504336               -2.86703560               10.27881093               -6.85194506
              15.99080876                0.36258912               58.57051150                0.01806082                1.27183649               -0.36751491               -2.10280710               -3.22890256               11.14937011               -6.61533660
              17.00326070               -0.82793366               58.25981274                0.02419012                1.21576179                0.13032482               -3.28179274               -2.96174437               10.78170806               -6.20194248
              18.01512400               -2.02029078               57.93830429                0.04601710                1.25750348                0.70746761               -4.41200838               -2.09593857                9.38986416               -4.66557966
              19.02841077               -3.20715440               57.59870883                0.21400730                1.50240668                1.33221908               -5.51950462               -0.98426048                7.83344925                2.34422155
              20.04517213               -4.38558615               57.24466744                0.49455095                1.89322769                1.89590817               -6.64055062               -0.35647743                5.39224737                3.39976828
              21.06627533               -5.55552820               56.85477071                0.86637299                2.11031985                2.66876544               -7.86899581               -0.57944305                3.67711310               -4.35599237
              12.09096566                7.08115861               60.18060856                0.75104496               -0.76476347               -1.16171596                3.40827437               -0.11161990                0.28535500                5.69874965
              13.08331803                5.96643306               59.70522862                0.20993005               -0.77399076               -0.36951451                1.66097612               -0.06007455                4.47649994               -5.77592277
              14.07548585                4.84978578               59.31418117                0.00689319               -0.31974511                0.85753708                0.59256619               -2.33386632               13.96472523              -17.12387853
              15.07692313                3.69115213               59.02986390                0.00010000                0.71931612               -0.57438469               -0.58538647               -5.02493633               20.11330694              -14.61436082
              16.08987217                2.52502371               58.76459822                0.00010000                1.62525737               -1.15170529               -1.89812666               -5.90996245               21.26160224              -13.55835909
              17.10942827                1.34762988               58.50535277                0.00010000                2.18087937               -1.10326401               -3.26568101               -6.40083633               21.79801152              -13.09932410
              18.13348976                0.16314121               58.25194194                0.00010000                2.58611483               -0.63662013               -4.62106660               -5.92088598               22.67336459              -12.44461890
              19.16115057               -1.02142427               58.01026655                0.00010000                2.82304634                0.06035362               -5.83008068               -4.44203436               27.92397275              -10.38452805
              20.18995069               -2.19945966               57.86122396                0.04351447                2.46482891                0.97457697               -6.29231727               -2.54336061               25.69952336               -7.31243747
              21.21044715               -3.37023419               57.57301878                0.17800157                1.78591934                2.40383992               -4.78357349               -0.93217946               10.30713475               -4.50580982
              22.22566907               -4.52909659               57.11384082                0.64619558                1.52219229                4.14439862               -6.37397726               -0.62074332                1.78400196              -15.63967872
              13.20061300                8.07022335               60.03517850                0.73053295               -0.60006848               -1.02118416                2.99446770               -0.09144259                0.08477296                5.42423171
              14.19461232                6.96383469               59.50462173                0.18347266               -0.52194579               -0.17505000                1.00351524                0.21794733                2.76777174               -5.27115660
              15.19017409                5.86042095               59.02811704                0.00102802               -0.16742917                0.92423216                0.03663253               -2.67318381               19.96640104              -16.94175057
              16.19126374                4.69037189               58.84313504                0.00010000                0.64864480                0.27448916               -1.29145494               -5.99436396               33.48123326              -14.49897381
              17.20314698                3.51847318               58.64215967                0.00010000                1.67053944               -0.19065881               -2.78253235               -6.44500272               32.54386801              -13.38316570
              18.22467453                2.34052384               58.44225114                0.00010000                2.53750710               -0.25301256               -4.36657242               -6.80181919               32.75442801              -12.67022256
              19.25389713                1.15933393               58.24768359                0.00010000                3.21048260                0.04522899               -5.96162082               -6.49474830               33.78884135              -12.03797304
              20.28888418               -0.01908371               58.06899445                0.00010000                3.62281786                0.66592974               -7.41642520               -5.36306297               34.69776306              -11.68510782
              21.32635348               -1.18766286               57.89121618                0.04462799                3.36406510                1.72772424               -8.54727110               -3.31149332               34.04178441              -15.69198248
              22.35616548               -2.33750936               57.69651920                0.17562911                2.26158934                3.86994467               -8.28702683               -0.91220308               17.46754102              -14.34654822
              23.37158527               -3.47264022               57.18498460                0.64390045                1.54197917                5.92377856               -9.72738655                0.38517032                1.74784503              -24.42709454
              14.30191413                9.06073493               59.89018385                0.71963994               -0.44347609               -0.88262726                2.60003367               -0.08890408                0.09409208                5.46160565
              15.29747937                7.96293206               59.30692802                0.17111512               -0.32145806               -0.00236339                0.35347265                0.22396273                3.33743914               -5.05593327
              16.29548497                6.86827042               58.78882778                0.00010000                0.07521280                0.81849730               -0.35127273               -3.26733802               26.02821269              -13.92517442
              17.29898362                5.69664192               58.66149537                0.00010000                0.76676005                0.83652560               -1.85432124               -7.06415161               44.72400667              -13.45747146
              18.31082017                4.52121053               58.52458704                0.00010000                1.67737549                0.64429257               -3.54812942               -7.36476060               43.77856693              -12.53734611
              19.33253113                3.34256962               58.38372955                0.00010000                2.61910866                0.63413600               -5.37185367               -7.50076188               43.52494131              -11.81381084
              20.36320234                2.16404579               58.24510173                0.00010000                3.41774858                0.92390897               -7.25907477               -7.09169870               43.76273750              -11.29230598
              21.40088611                0.99189433               58.11032123                0.00010000                3.94720605                1.57308923               -9.13159306               -5.82193446               44.14351866              -11.34751605
              22.44214646               -0.16490517               57.97876704                0.04955557                3.81471721                2.73832200              -10.91439337               -3.27263830               42.65503305              -11.17086326
              23.47718045               -1.29283530               57.81285046                0.18368760                3.07438756                4.62016599              -10.80553938               -0.79843874               21.49620911              -12.70019829
              24.50363422               -2.41062102               57.25351322                0.64919315                2.64537646                6.11958693              -12.46276299                0.60538035                2.26678908              -22.57960491
              15.39444065               10.05257080               59.74622645                0.71037495               -0.28845733               -0.75279346                2.21225932               -0.08797608                0.09710098                5.50631701
              16.39155608                8.96378742               59.11059082                0.16165648               -0.16615895                0.17434455               -0.28788113                0.15572995                4.51105148               -4.93697526
              17.39111747                7.87679090               58.56341927                0.00010000                0.27422590                0.92302196               -0.62128892               -3.74168787               32.69782178              -12.80923805
              18.39704060                6.70710240               58.49420705                0.00010000                0.94032962                1.21026061               -2.27373385               -7.91694596               55.71135072              -12.05725599
              19.40992407                5.53135903               58.41657605                0.00010000                1.73917130                1.27343903               -4.16776049               -8.18750272               54.70575429              -11.25548703
              20.43182402                4.35320656               58.33404894                0.00010000                2.64071914                1.39391381               -6.23254418               -8.10568368               54.18411373              -10.45969787
              21.46273845                3.17781211               58.25044938                0.00010000                3.47862140                1.74700782               -8.42111812               -7.44019186               54.09063214               -9.74744732
              22.50139645                2.01237807               58.16835107                0.00010000                4.14459464                2.41085685              -10.68810649               -5.85860259               54.23379541               -9.00079630
              23.54563034                0.86710358               58.08797389                0.05479867                4.22580526                3.43925159              -12.96700808               -2.91479729               51.57512312               -8.04658257
              24.58591256               -0.24510604               57.95160096                0.19165140                3.68169950                4.78142297              -12.34009212               -0.46470426               25.52577283               -9.63993136
              25.61926433               -1.35024849               57.34331223                0.65397052                3.33517748                5.90136107              -14.18415465                0.45938960                2.55636165              -19.53212877
              16.47772137               11.04567906               59.60274683                0.70240107               -0.13475013               -0.62725478                1.82742676               -0.08744110                0.10074817                5.50074422
              17.47637387                9.96641895               58.91513107                0.15460782               -0.01925716                0.35332431               -0.92443391                0.04472086                6.05702445               -4.86101793
              18.47733623                8.88673086               58.34672401                0.00010000                0.48513539                1.04531772               -0.73768333               -4.13424378               39.88788126              -11.93299923
              19.48607658                7.72084713               58.33901160                0.00010000                1.18148662                1.46007002               -2.53430339               -8.47888760               66.86411714              -10.72915515
              20.50096596                6.54667931               58.32134246                0.00010000                1.89438999                1.65374539               -4.61320521               -8.67874357               65.64935133               -9.68894620
              21.52396438                5.37044790               58.29739481                0.00010000                2.71305158                1.91180829               -6.89549865               -8.34607203               64.95240150               -8.69603022
              22.55522699                4.19898595               58.27122117                0.00010000                3.52291056                2.36371233               -9.34905612               -7.42593060               64.73831171               -7.62161040
              23.59442259                3.04011146               58.24607126                0.00010000                4.30538181                3.00701959              -11.94581497               -5.65649190               64.86955698               -6.29946014
              24.64133463                1.90387986               58.22332241                0.06053785                4.54079207                3.78223123              -14.61104636               -2.58391275               60.61676148               -4.56326359
              25.68523843                0.80279316               58.11186479                0.19970795                4.08861391                4.69609602              -13.11197492               -0.27251588               29.31253468               -6.68237965
              26.72310691               -0.29259380               57.45461891                0.65850033                3.78684763                5.60478438              -15.15128502                0.35401159                2.76528757              -16.52582717
              17.55121204               12.04002571               59.45921726                0.69535647                0.01866532               -0.50438080                1.44254187               -0.08784091                0.10414264                5.44048182
              18.55139869               10.97085391               58.72004011                0.14951590                0.13961912                0.53532502               -1.55969777               -0.13329739                8.01518804               -4.82252079
              19.55400442                9.89769725               58.13906470                0.00065495                0.80578520                1.07177593               -0.67467247               -4.52744678               47.66409223              -10.93614312
              20.56751440                8.73630380               58.19664287                0.00010000                1.63720007                1.46055883               -2.61778037               -8.74603609               78.27062443               -9.21717735
              21.58674842                7.56443394               58.24088591                0.00010000                2.25407729                1.69003194               -4.85959663               -8.64814297               76.71892695               -7.87676625
              22.61259594                6.39144272               58.27667876                0.00010000                2.89039241                2.12275627               -7.31516553               -7.96225681               75.84773361               -6.68664130
              23.64455627                5.22508636               58.30982368                0.00010000                3.53883792                2.75856906               -9.97770756               -6.89063589               75.65861391               -5.34863770
              24.68337270                4.07251846               58.34549312                0.00010000                4.33570578                3.42278552              -12.84540107               -5.24322829               75.98538081               -3.53754109
              25.73127039                2.94274820               58.38607619                0.06656089                4.67816002                3.95335048              -15.86887782               -2.39817580               69.61495948               -1.03886423
              26.77693590                1.84881588               58.29271542                0.20778087                4.29240529                4.45212176              -13.27708073               -0.23762926               32.73425413               -3.83798245
              27.81711849                0.76184720               57.58659806                0.66252778                4.01825915                5.27471887              -15.52045363                0.24878540                2.89865269              -13.58477222
              18.61430815               13.03559144               59.31500107                0.68967497                0.17282217               -0.38290551                1.05459849               -0.08937065                0.12986998                5.39033724
              19.61603637               11.97712546               58.52494115                0.14676611                0.35146211                0.72161592               -2.19693417               -0.45991286               10.52595072               -4.88489593
              20.62133739               10.90816638               57.94267853                0.00168168                1.41914000                0.80594465               -0.40798718               -5.06615798               56.22419448               -9.49961137
              21.64441917                9.75005831               58.07028777                0.00010000                2.57633929                0.91235491               -2.52496076               -8.46992983               89.96866685               -7.19406370
              22.67286418                8.58047995               58.17801357                0.00010000                2.98238223                1.26579251               -4.89782248               -7.64654231               87.82143859               -5.72384003
              23.70406682                7.41290303               58.27334307                0.00010000                3.17371768                2.04850891               -7.45703780               -6.57027623               86.67223815               -4.55309541
              24.73633853                6.25415733               58.36586717                0.00010000                3.39146800                2.98969466              -10.25246401               -5.54472379               86.64388741               -3.24149148
              25.77189618                5.10856718               58.46482753                0.00010000                4.03675796                3.86199616              -13.34691370               -4.40928885               87.51223296               -1.27520650
              26.81707369                3.98294687               58.57521828                0.07336911                4.47453337                4.21206171              -16.74346924               -2.41786849               78.57419443                2.04648349
              27.86138685                2.89183560               58.49308953                0.21574152                4.24731426                4.12207924              -12.95665418               -0.43483161               35.79735431               -1.02258178
              28.90201998                1.81290058               57.73883093                0.66598403                4.06331323                4.91935175              -15.39790449                0.14408371                3.00629388              -10.73947363
              19.66635661               14.03236760               59.17087275                0.68351933                0.32688948               -0.25849346                0.66576764               -0.09068669               -0.08283934                4.68924374
              20.66962550               12.98528622               58.32804914                0.14504110                0.66959038                0.90720646               -2.84423789               -1.14863953               13.89890074               -4.38844101
              21.67974841               11.91381615               57.76462926                0.00352216                2.80883669               -0.36816119                0.05695653               -4.87053637               66.07250859               -6.48401889
              22.72580223               10.75455090               57.96761244                0.00010000                4.56122236               -0.47376427               -2.31833184               -6.26063635              101.86616322               -4.19439320
              23.77097286                9.58974979               58.13681178                0.00010000                4.08554021                0.61186926               -4.73787565               -4.86316588               98.54687854               -3.08093800
              24.80751304                8.43241290               58.28824487                0.00010000                3.35123941                1.84943020               -7.29220041               -3.81263932               96.99173712               -2.33324233
              25.83799765                7.28488025               58.43642976                0.00010000                2.94421740                3.12147732              -10.11008147               -3.13322672               97.13256785               -1.49781564
              26.86639739                6.14975839               58.59587690                0.00010000                3.08234740                4.31799734              -13.33951983               -2.74150703               99.10000723               -0.12429168
              27.89964460                5.02698944               58.78309221                0.08098851                3.59440902                5.01141690              -17.19439073               -2.03992925               87.93252312                2.86891754
              28.93828557                3.93125747               58.71387213                0.22408019                3.91128095                3.76086327              -12.22312462               -0.99400844               38.80612309                1.17389910
              29.97787021                2.86023424               57.91004312                0.66896858                3.95846484                4.55483564              -14.85948635               -0.00963015                2.86688361               -7.21991613
              20.70665716               15.03042157               59.01298854                0.84040948                0.49578715               -0.19460207                0.20911826                0.51485646                2.12476720                3.98693103
              21.71161503               13.99526958               58.14216507                0.57337183                2.40024145                0.99833602               -3.43891333               -2.28196772               20.11923272               -3.79464417
              22.75466199               12.90080316               57.63088390                0.47015837                6.58288878               -1.30129893                0.36944178               -5.24297055               77.51267709               -4.62643751
              23.84327281               11.74058302               57.90102396                0.44402823                7.15384363               -1.39678807               -2.10845558               -3.65723382              112.63640918               -2.15182310
              24.89773886               10.59271733               58.12213945                0.43704333                4.47053793                0.29675485               -4.39048880               -1.85796943              108.18891296               -1.47659233
              25.93268357                9.44989163               58.32225135                0.44248486                2.92948261                1.74787268               -6.79420980               -1.28947009              106.28874261               -1.01280262
              26.95632851                8.31658688               58.51800513                0.46029137                2.11366432                3.17066254               -9.48041008               -0.91513883              106.31502289               -0.51881948
              27.97495685                7.19492712               58.72628402                0.49140345                1.92237565                4.51687338              -12.64777015               -0.81463685              108.81249226                0.31022088
              28.99477603                6.08317521               58.97325408                0.54325666                1.66525125                5.61857713              -16.71574126               -1.88056985               97.27397419                2.50586409
              30.00826188                4.96705286               58.94219101                0.61477072                2.45489056                3.57953948              -11.19715115               -1.96126499               44.38324091                2.32870728
              31.04387384                3.90399729               58.11569131                0.83527882                3.56119610                4.37630509              -13.90230983                0.29480474                5.34842338               -4.71927499
              10.22600740                5.31019010               61.52961056                0.95328719               -1.16691741               -1.30703038                4.44107916               -0.31603166               -3.25615430                3.72454978
              11.21433822                4.12760806               61.11393335                0.72315433               -1.09934381               -0.78437788                3.04386680               -0.29590485               -4.57968662               -2.54255055
              12.20402052                2.94059000               60.67253657                0.54862581               -1.05720263               -0.41778082                1.51817562               -0.45545461               -4.61805990               -0.78325208
              13.19319417                1.74004132               60.25668742                0.47833470               -0.96070399               -0.02860330                0.07577493               -0.44716407               -2.44136889               -0.46269019
              14.18480644                0.52095508               59.85859637                0.45029275               -0.54932568                0.37892228               -1.42192345               -0.36228582               -0.77736392               -0.29357181
              15.18220766               -0.71582832               59.47499998                0.45360558                0.17090740                0.79170724               -2.96067408               -0.24162124                0.21666836               -0.06383533
              16.18822459               -1.96340232               59.09528696                0.48804775                1.03375049                1.20020594               -4.49553788               -0.18606867                0.00263987                0.16736388
              17.20288267               -3.21231984               58.70593788                0.55998853                1.79452565                1.59146984               -5.97770034               -0.20084921               -1.23484010                0.36678485
              18.22411510               -4.45561220               58.30012380                0.68815895                2.35318655                1.97371340               -7.42345044               -0.21896801               -2.98899039                0.43726269
              19.24994640               -5.69034406               57.87418251                0.91178311                2.76116282                2.35129762               -8.88653649               -0.22339648               -3.59585369                1.07213249
              20.27933836               -6.91705166               57.45430116                1.00000000                2.93919607                2.80330046              -10.32128561               -0.57190752               -3.17196450               -2.56813034
              11.40542912                6.29711980               61.35931129                0.82507756               -0.92498918               -1.29265014                3.90030827               -0.14213967                1.80714966                4.99426645
              12.39617923                5.11976428               60.93767966                0.32774750               -0.60898877               -0.63484369                2.49952266               -0.25374190                4.51427987               -4.53348259
              13.39324935                3.93641219               60.57078197                0.03664249                0.11803797                0.15573210                1.41576250               -1.13409758                7.80292139               -8.23498119
              14.39853999                2.73975529               60.21500138                0.01161620                0.79345313               -0.55226588                0.22572220               -2.17461169                9.13060748               -7.92467328
              15.40911841                1.52474430               59.87490805                0.01419491                1.17150791               -0.63318218               -0.96353946               -2.96426959               10.60582991               -7.58145909
              16.42197015                0.29208875               59.54905115                0.01899532                1.27456264               -0.35503038               -2.19112621               -3.31245270               11.46165715               -7.60517399
              17.43460966               -0.95140026               59.22634713                0.02567133                1.25044852                0.14924485               -3.41261791               -3.03271367               11.11998831               -7.45258811
              18.44697912               -2.19640514               58.89333981                0.04265337                1.31639357                0.75229797               -4.58239432               -2.16594680                9.76138217               -6.12854088
              19.46093753               -3.43587507               58.54248641                0.20592078                1.57265228                1.44564354               -5.72826124               -1.02000784                8.20711533                0.96371630
              20.47843216               -4.66683108               58.17705410                0.47799529                1.96946781                1.99092764               -6.88787220               -0.35962723                5.70360565                3.38475471
              21.50032689               -5.88901865               57.77465377                0.85468202                2.18947259                2.79195319               -8.16183972               -0.61437901                3.93599273               -4.75938608
              12.57787563                7.28433710               61.21528161                0.74000910               -0.79046358               -1.20723655                3.52872690               -0.11457215                0.27438938                5.97925699
              13.56997100                6.11491119               60.72206929                0.19726677               -0.82640347               -0.37381325                1.70801262               -0.05113543                4.81891821               -6.09140031
              14.56134756                4.94370464               60.32027096                0.00598629               -0.43005878                0.89087273                0.63456830               -2.43571864               14.59393064              -17.62157104
              15.56136982                3.72899601               60.02400756                0.00010000                0.59200145               -0.55037682               -0.57743995               -5.26233319               20.57761327              -15.53367724
              16.57318759                2.50829144               59.74511927                0.00010000                1.53666738               -1.11766032               -1.99292465               -6.12563557               21.59465021              -14.97680004
              17.59210317                1.27707107               59.47164167                0.00010000                2.14383061               -1.05810817               -3.47628128               -6.59212831               22.08820271              -15.05456633
              18.61606420                0.03958258               59.20406026                0.00010000                2.59676851               -0.57012864               -4.96217565               -6.06352043               23.01998300              -14.95351843
              19.64403854               -1.19727388               58.94957190                0.00010000                2.90383407                0.19042262               -6.33344059               -4.49667012               28.64086103              -13.41145056
              20.67414089               -2.42669933               58.79380994                0.03599554                2.59294505                1.22540382               -7.27338634               -2.58781863               28.04793710              -10.62235956
              21.69589744               -3.65052550               58.52428632                0.16514049                1.86425220                2.84149410               -5.00118715               -0.95605326               12.21708464               -7.51457682
              22.71142593               -4.86121260               58.04899948                0.63745615                1.55284901                4.59950001               -6.62560973               -0.54222585                1.97095250              -18.99660046
              13.74198950                8.27297507               61.06566502                0.71966262               -0.62005157               -1.06120212                3.10417193               -0.09441682                0.08853942                5.68774496
              14.73578898                7.11228802               60.51477143                0.17129652               -0.57696714               -0.17519187                1.02699011                0.20316492                3.35072654               -5.52844725
              15.73045015                5.95422964               60.02952217                0.00059020               -0.35412288                0.90565276                0.28138240               -2.76941523               20.82518112              -17.24216349
              16.72870652                4.72874775               59.83038517                0.00010000                0.40402396                0.33225263               -1.24006051               -6.20465288               33.95836135              -15.29213434
              17.73853063                3.50239110               59.61366988                0.00010000                1.50649583               -0.09705231               -2.90673662               -6.64554197               32.86512501              -14.69573605
              18.75883644                2.27092658               59.39701965                0.00010000                2.45767824               -0.11158548               -4.67876292               -6.96559551               32.99055044              -14.54470828
              19.78768420                1.03719717               59.18552298                0.00010000                3.22455906                0.25182238               -6.48149717               -6.58648024               34.05261152              -14.51927915
              20.82332762               -0.19259669               58.99115419                0.00010000                3.73742923                0.97295190               -8.18824353               -5.34298166               35.20445345              -14.83364531
              21.86243278               -1.41136699               58.80158346                0.03719078                3.52483692                2.18503048               -9.46165070               -3.18419564               35.37494043              -19.74933757
              22.89382436               -2.61000120               58.60712786                0.16437459                2.42118865                4.71644724               -9.73616370               -0.79288066               18.79101128              -19.71072212
              23.91085656               -3.79702865               58.08172236                0.63696003                1.70321961                6.78846676              -11.03927741                0.58473979                2.45754135              -30.01038354
              14.89736139                9.26311306               60.91666918                0.70902996               -0.45816715               -0.91702995                2.69820369               -0.09179740                0.09821723                5.73649293
              15.89277972                8.11140735               60.31045618                0.15918001               -0.39309344                0.00249086                0.35270770                0.17513849                4.21645515               -5.30425500
              16.88949952                6.96181769               59.78690365                0.00010000               -0.18322062                0.79271575                0.02467537               -3.38310979               27.19792379              -14.12490104
              17.88911531                5.73564106               59.64339865                0.00010000                0.42991996                0.90327726               -1.73996165               -7.23255238               45.21292319              -14.12069469
              18.89809792                4.50635039               59.48835782                0.00010000                1.44349410                0.78673635               -3.68652390               -7.52545580               44.07311813              -13.71967932
              19.91798519                3.27483936               59.32804069                0.00010000                2.48799748                0.85947517               -5.76502230               -7.61108913               43.68769273              -13.56107824
              20.94785787                2.04461902               59.16924916                0.00010000                3.38789369                1.25274312               -7.92502157               -7.11883133               43.86424429              -13.66592698
              21.98574306                0.82218516               59.01445860                0.00010000                4.00018056                2.03426161              -10.08342379               -5.73031643               44.27792613              -14.45570425
              23.02786148               -0.38299872               58.86388148                0.04169559                3.99792123                3.39582193              -12.17008939               -2.97882472               43.65880675              -15.21129508
              24.06570149               -1.55619656               58.69486249                0.17198172                3.46570785                5.52677980              -12.97191501               -0.53878312               22.74609804              -16.87833657
              25.09717564               -2.72544326               58.11940020                0.64193170                3.14741518                7.07163159              -14.52151271                0.82498946                2.99902370              -27.15377794
              16.04356496               10.25463447               60.76878341                0.70010764               -0.29778438               -0.78202223                2.29946830               -0.09165298                0.10084345                5.78452383
              17.04058712                9.11233784               60.10758392                0.15027709               -0.25053540                0.18496271               -0.31308324                0.07007231                5.74369959               -5.17720076
              18.03855425                7.97008396               59.55943262                0.00010000               -0.05321687                0.89971361               -0.11795869               -3.86284491               34.25081475              -12.89135466
              19.03952278                6.74681330               59.47220186                0.00010000                0.51344832                1.28446597               -2.09782707               -8.02676567               56.23598608              -12.58305850
              20.04882322                5.51812582               59.37414232                0.00010000                1.44116236                1.44826681               -4.30831421               -8.27781617               54.99179000              -12.27962636
              21.06834603                4.28811609               59.26945613                0.00010000                2.45692769                1.68571235               -6.68573358               -8.12347820               54.28811718              -12.02369009
              22.09796177                3.06225203               59.16241441                0.00010000                3.39965070                2.17794650               -9.20066722               -7.34592043               54.05096476              -11.90975450
              23.13633904                1.84808854               59.05605502                0.00010000                4.16381175                3.00880570              -11.81822241               -5.59038412               54.12078859              -11.84846538
              24.18123801                0.65654945               58.95142630                0.04659910                4.45770982                4.23524071              -14.46311017               -2.41063511               52.73934753              -11.65759705
              25.22549324               -0.49946560               58.81609494                0.17963097                4.23058719                5.68033230              -14.97769812               -0.10114593               27.10591991              -12.79107767
              26.26584975               -1.65559602               58.18987581                0.64662277                4.03565145                6.84584404              -16.69594069                0.62507166                3.34464946              -23.06277363
              17.18012160               11.24747261               60.62140344                0.69228755               -0.13899179               -0.65253656                1.90427570               -0.09177844                0.10495971                5.77990394
              18.17873168               10.11510661               59.90564031                0.14363641               -0.11772173                0.37046590               -0.97360636               -0.07955680                7.71907434               -5.09796415
              19.17776716                8.97981196               59.34224734                0.00025523                0.09032246                1.02437348               -0.08611019               -4.26586822               41.90232082              -11.85449130
              20.18053813                7.76133038               59.31475407                0.00010000                0.67358246                1.53103214               -2.29262166               -8.51849389               67.44361842              -11.09437732
              21.19123881                6.53531573               59.27451456                0.00010000                1.54256474                1.84369601               -4.74424410               -8.67278928               65.96201258              -10.52501793
              22.21138942                5.30855361               59.22599294                0.00010000                2.48640981                2.24561867               -7.38586987               -8.23834111               65.04699546              -10.02239862
              23.24096701                4.08817795               59.17349639                0.00010000                3.41242707                2.86239105              -10.21096039               -7.17217054               64.63193257               -9.48141968
              24.27963796                2.88236127               59.12057742                0.00010000                4.31179604                3.68710988              -13.19963411               -5.19295256               64.62961645               -8.75766841
              25.32720293                1.70170609               59.06963842                0.05187229                4.80930375                4.63793781              -16.24895929               -1.92875204               62.22126515               -7.68652225
              26.37582404                0.55741009               58.96731786                0.18739385                4.73674944                5.59400556              -16.05040574                0.12566039               31.42945899               -8.99519614
              27.42193792               -0.58852638               58.29020897                0.65122657                4.61138778                6.55582426              -17.95677786                0.47948971                3.60668216              -19.24025460
              18.30646140               12.24158374               60.47397838                0.68549483                0.01952239               -0.52637793                1.50981144               -0.09236514                0.10819251                5.71792855
              19.30665663               11.11974715               59.70407182                0.13925710                0.02758557                0.55951391               -1.63359913               -0.30036484               10.20460893               -5.05998350
              20.30701311                9.99057143               59.13607894                0.00110053                0.34962555                1.03791499                0.14326944               -4.66660256               50.22851084              -10.66701873
              21.31364914                8.77743394               59.17194970                0.00010000                1.05655450                1.50971722               -2.30379191               -8.70331280               78.91812031               -9.40932539
              22.32814420                7.55499974               59.19173651                0.00010000                1.85339195                1.88162729               -4.96728300               -8.52864488               77.10723932               -8.50320706
              23.35071698                6.33302846               59.20103308                0.00010000                2.62832445                2.47567818               -7.81619801               -7.73143485               76.00046144               -7.73016038
              24.38071069                5.11949985               59.20560256                0.00010000                3.41174365                3.27965091              -10.87961033               -6.49391729               75.56255564               -6.83754773
              25.41895185                3.92183074               59.21065929                0.00010000                4.34517290                4.12739031              -14.16259598               -4.61847427               75.68397597               -5.54469610
              26.46761415                2.74930820               59.21947079                0.05765671                4.96435325                4.82589115              -17.55502207               -1.65117955               71.81639632               -3.67240988
              27.51823892                1.61241451               59.14591737                0.19511283                4.98491642                5.34403900              -16.37939337                0.16063089               35.51844588               -5.43620490
              28.56731248                0.47552046               58.41786849                0.65528995                4.90735648                6.23515971              -18.49615957                0.33677145                3.77882431              -15.58827331
              19.42194746               13.23694505               60.32583153                0.68013059                0.17892332               -0.40231109                1.11127689               -0.09423991                0.13420109                5.66466359
              20.42373669               12.12629688               59.50247533                0.13714791                0.24004314                0.75361109               -2.29500194               -0.68872887               13.34285648               -5.12773443
              21.42674832               11.00057026               58.94317342                0.00243060                0.91534306                0.72307574                0.57217691               -5.19186422               59.43432746               -9.03025474
              22.44204355                9.79152472               59.04697348                0.00010000                1.91615361                0.93369709               -2.13652733               -8.29542024               90.70470655               -7.24462601
              23.46507139                8.57294827               59.12869430                0.00010000                2.51085336                1.47916730               -4.96763162               -7.43268623               88.34957830               -6.13630503
              24.49226062                7.35806717               59.19637969                0.00010000                2.86074932                2.40720804               -7.93825984               -6.28099288               86.96890518               -5.27752022
              25.52228638                6.15377097               59.25891835                0.00010000                3.25997522                3.48825559              -11.14608551               -5.09561060               86.62703933               -4.29781084
              26.55746012                4.96490908               59.32491816                0.00010000                4.06545947                4.51842080              -14.66042489               -3.71047589               87.17070154               -2.75226700
              27.60359557                3.79822391               59.39985027                0.06396504                4.76821357                5.05245105              -18.40620410               -1.61810204               81.42552201               -0.07142787
              28.65282440                2.66429087               59.34949743                0.20285412                4.94329356                4.99957729              -16.07627012               -0.06025971               39.30002100               -1.99001286
              29.70246144                1.53617681               58.57125564                0.65877440                4.96370444                5.86148602              -18.40402641                0.19153397                3.90218401              -12.09205198
              20.52587294               14.23353751               60.17775865                0.67390722                0.33838947               -0.27529346                0.71222743               -0.09513123               -0.08806820                4.92761275
              21.52925684               13.13481938               59.29898868                0.13617222                0.60375235                0.94730552               -2.96793467               -1.48136232               17.44456421               -4.60906084
              22.53794799               12.00503294               58.77064392                0.00458990                2.30529430               -0.60534065                1.16369251               -4.80285622               70.02745874               -5.99551736
              23.57536272               10.79610788               58.94672549                0.00010000                3.75000210               -0.34529906               -1.86423581               -6.00740122              102.70198342               -4.18915243
              24.61294803                9.58458309               59.08935090                0.00010000                3.44558479                0.87273037               -4.75994356               -4.64688940               99.32498078               -3.28666837
              25.64427442                8.38117262               59.21317142                0.00010000                2.95042693                2.21662800               -7.72370176               -3.60536739               97.54825095               -2.70760247
              26.67195657                7.18926496               59.33116774                0.00010000                2.80074844                3.57968810              -10.94415564               -2.81282403               97.29435088               -2.05423606
              27.70028939                6.01219916               59.45630969                0.00010000                3.19568755                4.86386160              -14.57900299               -2.18909594               98.69696958               -0.93792886
              28.73587032                4.85035722               59.60341795                0.07110828                3.93957158                5.67992233              -18.76812420               -1.37212402               91.37359205                1.53973533
              29.77908082                3.71240606               59.57805497                0.21076240                4.57504717                4.62160778              -15.23176215               -0.62425753               43.00453291                0.75520691
              30.82737127                2.59275018               58.74817824                0.66143034                4.82904449                5.44073480              -17.76925254               -0.00660342                3.73585766               -7.93493251
              21.61748111               15.23143918               60.01523685                0.83570423                0.51329072               -0.20983309                0.24121653                0.54119786                2.23238465                4.19026932
              22.62261402               14.14524299               59.10704575                0.56922534                2.59607880                1.04236183               -3.58628635               -2.81306855               24.33079553               -3.98823250
              23.66940269               12.98846345               58.64047498                0.46949810                5.98656800               -1.65694898                1.51809837               -4.88574289               82.17457893               -4.18121207
              24.74234538               11.78461874               58.88239448                0.44391986                5.88330895               -1.14891428               -1.62205156               -3.20476305              113.75800143               -2.13534216
              25.78706887               10.59040288               59.07839860                0.43707871                3.65630112                0.58197901               -4.36720567               -1.69886716              109.38637858               -1.56848040
              26.81547140                9.40239973               59.25250573                0.44224210                2.39672481                2.12271070               -7.15254995               -1.13220918              107.25314358               -1.19200928
              27.83500336                8.22536473               59.41951007                0.45934440                1.85572707                3.60997731              -10.21001431               -0.70599171              106.82487643               -0.79304404
              28.85258594                7.06218631               59.59423627                0.48910797                2.04714142                4.99871531              -13.74843697               -0.44746321              108.54242399               -0.10593007
              29.87594619                5.91182236               59.79895393                0.53812254                2.26801712                6.14651382              -18.11693812               -1.26557747              101.01429773                1.69670313
              30.89794629                4.75672302               59.81756007                0.60786730                3.28474629                4.43169678              -13.98332995               -1.45499604               49.00653282                2.23817171
              31.94164112                3.64499151               58.96432715                0.83143768                4.36948319                5.22413278              -16.58378974                0.25383392                6.29882607               -5.04426372
              10.61540566                5.52118133               62.57475327                0.94732209               -1.20516464               -1.35093793                4.58972943               -0.32907885               -3.40006628                3.87715366
              11.60335402                4.28049564               62.14484208                0.71519171               -1.13441267               -0.80762488                3.13842779               -0.31112279               -4.78993284               -2.67724769
              12.59271741                3.03515510               61.68790039                0.54473101               -1.06815778               -0.43189062                1.55399498               -0.45088890               -4.85501320               -0.75568514
              13.58199086                1.77629830               61.25733588                0.47705854               -0.93174178               -0.02523311                0.05524577               -0.43854676               -2.66922431               -0.47178210
              14.57408257                0.49939298               60.84398385                0.45023403               -0.48913505                0.39622253               -1.49826983               -0.35403507               -1.05910430               -0.29644291
              15.57220816               -0.79439887               60.44472399                0.45382162                0.24385336                0.82428148               -3.09246782               -0.24210009               -0.08835454               -0.06753217
              16.57895964               -2.09823835               60.04938176                0.48758639                1.10534028                1.24796226               -4.68481188               -0.19092964               -0.27536521                0.16268339
              17.59431497               -3.40304179               59.64491790                0.55830325                1.86782261                1.65461716               -6.22515260               -0.20254411               -1.46667015                0.36744312
              18.61631609               -4.70208401               59.22434261                0.68421501                2.43967514                2.05177916               -7.72771623               -0.21828465               -3.20998436                0.43959722
              19.64310847               -5.99245289               58.78345230                0.90390175                2.86905829                2.44580105               -9.25282523               -0.22594505               -3.81091742                1.08441974
              20.67369726               -7.27453974               58.34893216                1.00000000                3.05887907                2.91254992              -10.74532937               -0.59882772               -3.37443642               -2.69757090
              11.85280056                6.50767195               62.39895651                0.81358486               -0.95446611               -1.33956544                4.03015954               -0.15163456                1.94424333                5.23413408
              12.84325590                5.27241939               61.96306072                0.31354917               -0.62466869               -0.64911754                2.57662028               -0.27413649                4.81255748               -4.79497077
              13.84030719                4.03083620               61.58512091                0.03105903                0.11152784                0.17295271                1.45022592               -1.18323195                8.21156042               -8.54286112
              14.84548646                2.77604597               61.21722669                0.01232722                0.77918103               -0.56017493                0.21902565               -2.29223866                9.49085240               -8.40851552
              15.85589081                1.50335520               60.86502421                0.01496277                1.15581818               -0.63335496               -1.01397427               -3.10767669               10.95253847               -8.34541170
              16.86860282                0.21384395               60.52668897                0.02001233                1.27404979               -0.35155420               -2.28415040               -3.45353720               11.79454952               -8.67647282
              17.88137180               -1.08575873               60.19156038                0.02725155                1.28047678                0.15666716               -3.54847369               -3.16700042               11.48017558               -8.84169051
              18.89421236               -2.38649562               59.84665640                0.04134548                1.37334961                0.77870679               -4.76056542               -2.29521775               10.15527209               -7.80900211
              19.90883880               -3.68156622               59.48414360                0.19806577                1.64322624                1.55400583               -5.94482010               -1.08101768                8.60251994               -0.89128752
              20.92707688               -4.96799488               59.10691000                0.46187254                2.04785191                2.09266987               -7.14463489               -0.36785913                6.03416069                3.31009563
              21.94979583               -6.24541424               58.69153391                0.84310952                2.27189538                2.92212728               -8.46625317               -0.64370899                4.21124353               -5.22908504
              13.08287809                7.49439002               62.25118310                0.72922271               -0.81710477               -1.25406405                3.65096879               -0.11915176                0.26152811                6.27727491
              14.07470704                6.26751329               61.73938887                0.18470047               -0.87259486               -0.37702711                1.75641175               -0.06310279                5.19914985               -6.42154646
              15.06542619                5.03861416               61.32687254                0.00506647               -0.55399767                0.90543980                0.69294384               -2.58308509               15.28317857              -18.00803683
              16.06362708                3.76509481               61.01831510                0.00010000                0.43524385               -0.54539306               -0.55059563               -5.55457422               21.04923589              -16.43821829
              17.07413107                2.48672588               60.72473972                0.00010000                1.43121291               -1.10176479               -2.07737612               -6.43002802               21.89433508              -16.46361705
              18.09225134                1.19857005               60.43582715                0.00010000                2.09140652               -1.03066475               -3.68273524               -6.89006360               22.33019149              -17.17159971
              19.11595920               -0.09510501               60.15269843                0.00010000                2.59833814               -0.52409117               -5.31050113               -6.32973433               23.28711727              -17.73259713
              20.14421811               -1.38746765               59.88359774                0.00010000                3.01179026                0.29261444               -6.87323287               -4.65992415               29.07768897              -16.85063549
              21.17619500               -2.67100390               59.71575623                0.02877378                2.76905998                1.44225338               -8.39099260               -2.70460085               30.59989899              -14.45441074
              22.19959930               -3.95059949               59.47299504                0.15252964                1.97334036                3.28474567               -5.30097765               -1.01616881               14.59709039              -11.31329955
              23.21566181               -5.21609720               58.98132862                0.62920554                1.60625031                5.10828139               -6.93266480               -0.46220747                2.22189653              -23.05961240
              14.30417099                8.48259067               62.09726194                0.70921709               -0.64012794               -1.10218104                3.21333241               -0.09986220                0.09116309                5.96502033
              15.29776971                7.26487885               61.52516153                0.15920965               -0.65535081               -0.17394110                1.05132190                0.16106457                4.10528327               -5.79647130
              16.29106397                6.04894499               61.03374469                0.00019278               -0.57432257                0.86238940                0.60487720               -2.93329769               21.78889525              -17.38855881
              17.28628325                4.76513811               60.81833383                0.00010000                0.13755178                0.36582635               -1.15307261               -6.47321266               34.32809493              -16.05568282
              18.29381501                3.48131990               60.58402493                0.00010000                1.31745880               -0.01906876               -3.01266276               -6.91990152               33.09502538              -16.07221894
              19.31263243                2.19323065               60.34867588                0.00010000                2.34999064                0.01707664               -4.98364432               -7.22090716               33.12016790              -16.57313638
              20.34081482                0.90375945               60.11805365                0.00010000                3.21401668                0.44704151               -7.01259039               -6.78819293               34.16415090              -17.25341749
              21.37691276               -0.38064333               59.90522958                0.00010000                3.85319002                1.26735298               -9.01798459               -5.44432044               35.56281123              -18.33478269
              22.41787862               -1.65272115               59.70198316                0.02968236                3.74670193                2.60149950              -10.51982015               -3.14664609               36.37864375              -24.10940539
              23.45184680               -2.90229996               59.50179593                0.15339916                2.68342388                5.56151915              -11.48586933               -0.67715342               19.96521351              -26.32978524
              24.47154710               -4.14324861               58.96419905                0.63029858                1.97002928                7.71235816              -12.60802554                0.84900790                3.43936793              -36.77160938
              15.51630448                9.47234640               61.94414792                0.69856689               -0.47304743               -0.95318228                2.79674733               -0.09691731                0.10160180                6.02576761
              16.51157400                8.26403447               61.31398217                0.14757598               -0.49017532                0.00902118                0.35267873                0.07633505                5.36191392               -5.56389621
              17.50650097                7.05586195               60.78932129                0.00010000               -0.48930419                0.73375600                0.50303757               -3.55856355               28.53218703              -14.22895720
              18.50178792                5.77241133               60.62669614                0.00010000                0.05697613                0.94738513               -1.57873713               -7.43750372               45.52819400              -14.75852176
              19.50764049                4.48634450               60.45085656                0.00010000                1.18028671                0.91449277               -3.80397331               -7.74045781               44.22246939              -14.96513984
              20.52539365                3.19891158               60.26842911                0.00010000                2.32144113                1.07749285               -6.14998393               -7.79134150               43.69710642              -15.45518341
              21.55406932                1.91383582               60.08660130                0.00010000                3.32093235                1.58051686               -8.60490211               -7.23440714               43.77916287              -16.27650871
              22.59181230                0.63787941               59.90865276                0.00010000                4.04246997                2.49666370              -11.10290351               -5.74610794               44.16790988              -17.89171768
              23.63491872               -0.61897391               59.73536525                0.03404285                4.23856977                4.04579288              -13.62172558               -2.73748802               44.06434827              -19.74616515
              24.67658370               -1.83936911               59.55341216                0.16032760                3.98102754                6.44584984              -15.49449961               -0.25707447               23.63876249              -21.97377730
              25.71453927               -3.06185003               58.96308296                0.63481386                3.79555706                8.04679418              -16.93045204                1.10433161                3.94468473              -32.65235946
              16.71885650               10.46352702               61.79221582                0.68978073               -0.30756412               -0.81321158                2.38789933               -0.09465793                0.10503471                6.07920416
              17.71578086                9.26505927               61.10432916                0.13911547               -0.36703341                0.19686546               -0.33728201               -0.07847309                7.32611053               -5.42987510
              18.71151583                8.06362011               60.56106009                0.00010000               -0.43651172                0.85663862                0.49768714               -4.06027731               36.01989236              -12.86965173
              19.70705063                6.78408582               60.45225051                0.00010000                0.04948838                1.34002033               -1.87739748               -8.15582722               56.54321348              -13.09648476
              20.71250560                5.49960976               60.33040976                0.00010000                1.11318260                1.61201291               -4.43053613               -8.39892270               55.09466894              -13.36664916
              21.72931428                4.21478051               60.20033427                0.00010000                2.23266242                1.97556977               -7.13196066               -8.18555851               54.20619804              -13.72552520
              22.75715885                2.93536979               60.06643603                0.00010000                3.27430297                2.61667893               -9.99555950               -7.31393599               53.78280793              -14.29423316
              23.79480034                1.66928995               59.93198662                0.00010000                4.16092624                3.62372117              -13.02546307               -5.40572475               53.70941731              -15.01922307
              24.84037737                0.42819470               59.79871168                0.03853010                4.73905511                5.05394129              -16.18357600               -1.92860707               53.15584437              -15.69153964
              25.88958144               -0.77338297               59.65204700                0.16767832                4.91091024                6.62179576              -18.05455224                0.30829632               28.21872761              -16.70068194
              26.93859558               -1.98231273               59.00939342                0.63936842                4.90141393                7.82292280              -19.63414733                0.85297708                4.37165220              -27.33308996
              17.91134682               11.45608217               61.64083234                0.68231623               -0.14353665               -0.67854177                1.98189252               -0.09441287                0.10984815                6.07615817
              18.90991145               10.26797178               60.89565895                0.13296991               -0.25389667                0.38799711               -1.02216208               -0.27389972                9.83105782               -5.34710606
              19.90626888                9.07299472               60.34500180                0.00056401               -0.36148609                0.99053471                0.67069546               -4.47895573               44.19714457              -11.65560620
              20.90268173                7.79921174               60.29315917                0.00010000                0.13492307                1.59060344               -2.01917037               -8.56206742               67.75985545              -11.45203052
              21.90896734                6.51858476               60.22645757                0.00010000                1.16203639                2.02901459               -4.86523366               -8.67422625               66.07137359              -11.41840589
              22.92592246                5.23842298               60.14967742                0.00010000                2.21569073                2.58361296               -7.87219802               -8.14952557               64.93603798              -11.47142319
              23.95328116                3.96616940               60.06700197                0.00010000                3.24752165                3.37718280              -11.08862215               -6.95234089               64.27357323              -11.54097652
              24.99087289                2.71035383               59.98207858                0.00010000                4.28691646                4.39969274              -14.53419046               -4.78404147               64.07284807              -11.50148223
              26.03901949                1.48210492               59.89834323                0.04339806                5.11920833                5.54467228              -18.12487150               -1.26620844               62.98251900              -11.15454019
              27.09325706                0.29306681               59.79085667                0.17527736                5.52194236                6.56475910              -19.50929556                0.59145929               33.00184315              -11.94181905
              28.14945834               -0.90539158               59.09548335                0.64397036                5.62012798                7.56738966              -21.26094801                0.66401959                4.70810681              -22.58764590
              19.09318902               12.44995619               61.48941349                0.67580469                0.02012907               -0.54888578                1.57680963               -0.09580979                0.11235247                6.01115829
              20.09339031               11.27281922               60.68736813                0.12902409               -0.12461341                0.58410642               -1.70612505               -0.54426071               12.94325889               -5.30857370
              21.09069675               10.08343081               60.14193009                0.00165238               -0.15855390                1.00007973                1.03861883               -4.88322119               53.15363915              -10.27916359
              22.09021924                8.81589788               60.15056703                0.00010000                0.45565414                1.55891289               -1.98315813               -8.64650341               79.27080270               -9.58965572
              23.09980984                7.54019005               60.14154025                0.00010000                1.42599431                2.07773478               -5.07690507               -8.39814579               77.28715042               -9.17201775
              24.11873912                6.26645277               60.12035480                0.00010000                2.31856691                2.83956519               -8.31650143               -7.49890959               75.94627369               -8.87107737
              25.14618118                5.00291344               60.09223147                0.00010000                3.22224345                3.82332658              -11.79515768               -6.10546412               75.21087201               -8.48856740
              26.18318399                3.75728380               60.06224120                0.00010000                4.30795261                4.87588003              -15.55302402               -4.01599489               75.08145036               -7.78269354
              27.23234023                2.53908815               60.03497575                0.04867259                5.28615643                5.77331193              -19.47426123               -0.86931075               73.11059403               -6.57546539
              28.28890712                1.35791222               59.96512755                0.18285763                5.82262550                6.34154689              -20.05981767                0.63358766               37.68418426               -7.53146619
              29.34879274                0.16903506               59.21667487                0.64823218                5.98856186                7.30706805              -22.01332476                0.46672991                4.93059804              -18.10532378
              20.26370456               13.44510445               61.33722661                0.67057028                0.18470514               -0.42208291                1.16794039               -0.09774684                0.14052154                5.95532300
              21.26555162               12.27965391               60.47904111                0.12761951                0.09106137                0.78576857               -2.39171035               -0.99334682               16.80961271               -5.38317706
              22.26552579               11.09299631               59.95412207                0.00324819                0.37204005                0.65867119                1.57637340               -5.36999438               63.09441830               -8.46547556
              23.27299242                9.83039000               60.02755723                0.00010000                1.24618761                0.97244884               -1.77416711               -8.09705906               91.12054383               -7.26673988
              24.29044954                8.56013945               60.07866094                0.00010000                2.01142287                1.70610360               -5.05222847               -7.19795019               88.68244068               -6.56899257
              25.31322087                7.29521428               60.11457787                0.00010000                2.49456502                2.78410182               -8.42040093               -5.97907110               87.07846566               -6.06574382
              26.34034084                6.04263593               60.14294546                0.00010000                3.05787061                4.01451847              -12.04648464               -4.63888157               86.37833543               -5.46480884
              27.37437829                4.80787143               60.17161904                0.00010000                4.03320083                5.21989493              -16.02626700               -3.00810986               86.56336563               -4.38791781
              28.42100486                3.59757116               60.20709420                0.05445034                5.08018049                5.97961704              -20.25909852               -0.74713784               83.36569173               -2.38403874
              29.47598190                2.41989775               60.17156413                0.19010278                5.77711895                6.01933791              -19.82879687                0.39437182               42.16054178               -3.29005990
              30.53654724                1.24074979               59.37075041                0.65182311                6.05653441                6.97145093              -22.00134097                0.26260769                5.09049474              -13.79760490
              21.42213518               14.44151453               61.18511730                0.66456384                0.34963375               -0.29169478                0.76000009               -0.09887012               -0.09347190                5.18130773
              22.42563152               13.28853459               60.26869045                0.12748932                0.52127982                0.98684395               -3.09169776               -1.87345522               21.69962443               -4.84358301
              23.43256077               12.09660423               59.78790311                0.00562956                1.77516986               -0.77397669                2.21095273               -4.79543372               74.46665400               -5.45379435
              24.46113491               10.83534686               59.93032772                0.00010000                2.92328879               -0.19258965               -1.46590692               -5.73876515              103.21425394               -4.13636056
              25.49102655                9.57431212               60.04161291                0.00010000                2.77631537                1.15564419               -4.80684003               -4.41532111               99.93867370               -3.49804908
              26.51666122                8.32213481               60.13377083                0.00010000                2.48599214                2.60842626               -8.15374281               -3.38471096               97.96529023               -3.11080138
              27.54074639                7.08320381               60.21754664                0.00010000                2.57126751                4.07027024              -11.77175827               -2.48492222               97.27989234               -2.66334262
              28.56808657                5.86168170               60.30429684                0.00010000                3.23123822                5.45419595              -15.83892405               -1.62700679               98.09365815               -1.82789410
              29.60537116                4.65868049               60.40772973                0.06100995                4.27646790                6.42330764              -20.43400814               -0.63247012               93.94254496                0.11304388
              30.65361593                3.47829897               60.40923689                0.19743042                5.34848282                5.64541750              -18.87235145               -0.15894956               46.57389171                0.15666415
              31.71234081                2.30846408               59.55465807                0.65429890                5.87248856                6.50322093              -21.26058248                0.00495863                4.91285916               -8.83054957
              22.56768705               15.43927056               61.01781287                0.83094781                0.53057629               -0.22439730                0.27390053                0.56720952                2.34576276                4.40689182
              23.57299281               14.29939078               60.07043934                0.56495216                2.75588991                1.08561972               -3.73314774               -3.35155961               29.27161858               -4.19551260
              24.62280484               13.07751678               59.66124586                0.46897528                5.37582064               -1.90874524                2.55152688               -4.61822211               87.25001194               -3.65019379
              25.68050922               11.82653820               59.86858293                0.44363383                4.62751663               -0.88086558               -1.21368461               -2.77579124              114.60225995               -2.07882437
              26.71535518               10.58325234               60.03479534                0.43711000                2.80628724                0.89402146               -4.37361738               -1.52490738              110.48435847               -1.65650117
              27.73663497                9.34738281               60.17920036                0.44205008                1.78701641                2.52480006               -7.50156021               -0.96317542              108.15890512               -1.38083488
              28.75109550                8.12404134               60.31380485                0.45828811                1.48632536                4.08375265              -10.91114304               -0.48646165              107.24420571               -1.08589375
              29.76636147                6.91695535               60.45131528                0.48684638                2.03213407                5.52736504              -14.82755320               -0.07271119              108.17600594               -0.54796213
              30.79173819                5.72603731               60.61091532                0.53289594                2.83289198                6.73568208              -19.51329695               -0.57075998              103.98452113                0.88135329
              31.82301931                4.53280610               60.66252441                0.60102579                4.22890056                5.45071223              -17.32125009               -0.82081694               53.01813465                2.04783687
              32.87631620                3.37081420               59.78401552                0.82776631                5.32968843                6.23501221              -19.75585048                0.19834902                7.56580288               -5.44921744
              11.01782845                5.73932669               63.62140515                0.94160481               -1.24360080               -1.39540402                4.73947884               -0.34237342               -3.55191216                4.03490330
              12.00539245                4.43762583               63.17670191                0.70721119               -1.17009990               -0.83077514                3.23359737               -0.32721775               -5.00925724               -2.81659955
              12.99442646                3.13103526               62.70361647                0.54107849               -1.08331075               -0.44524397                1.58961473               -0.45127538               -5.10058411               -0.72826923
              13.98372623                1.81082407               62.25779233                0.47574325               -0.90951048               -0.02183043                0.03729529               -0.43173750               -2.90453619               -0.47941790
              14.97623625                0.47294550               61.82863097                0.45024760               -0.43417883                0.41346951               -1.57032093               -0.34958561               -1.34896246               -0.29904803
              15.97504265               -0.88110893               61.41315063                0.45407814                0.31435668                0.85650697               -3.21914805               -0.24433880               -0.40370151               -0.07139772
              16.98252338               -2.24450590               61.00159072                0.48745323                1.17728806                1.29551572               -4.86668708               -0.19471585               -0.56602172                0.15924810
              17.99858842               -3.60844798               60.58143483                0.55670688                1.94288191                1.71829614               -6.46321960               -0.20452509               -1.70959606                0.36786566
              19.02138102               -4.96642224               60.14556947                0.68008141                2.52750415                2.13077980               -8.02440027               -0.22082305               -3.44392025                0.44090727
              20.04913850               -6.31557107               59.68912600                0.89564511                2.97544419                2.53991619               -9.60844208               -0.23056000               -4.04096722                1.09830478
              21.08088990               -7.65620658               59.23939457                1.00000000                3.17514033                3.02097605              -11.15615655               -0.62214751               -3.59095781               -2.83485730
              12.31610558                6.72537265               63.43991448                0.80246434               -0.98395938               -1.38747604                4.15967579               -0.16214649                2.08654248                5.48452558
              13.30626598                5.42931808               62.98921206                0.29941205               -0.63954968               -0.66231938                2.65297460               -0.29588586                5.12124051               -5.06553018
              14.30331458                4.12658282               62.59978648                0.02563314                0.10938764                0.19424316                1.48397276               -1.25269334                8.63687422               -8.83347163
              15.30845374                2.81060576               62.21938190                0.01310120                0.76961537               -0.58497855                0.21068966               -2.43707515                9.86813335               -8.87474997
              16.31870689                1.47708019               61.85462856                0.01579497                1.14356139               -0.64635641               -1.06617973               -3.29118146               11.31364900               -9.13455984
              17.33132496                0.12745614               61.50336814                0.02110140                1.27694274               -0.36194481               -2.38149897               -3.64626469               12.14271360               -9.81905430
              18.34424575               -1.23155074               61.15537765                0.02891951                1.30881871                0.14716312               -3.68955187               -3.36042881               11.85546997              -10.35863355
              19.35750134               -2.59126502               60.79812851                0.04391707                1.42442928                0.77941052               -4.94653893               -2.48088059               10.56806457               -9.70456369
              20.37273433               -3.94511445               60.42359001                0.19042868                1.71118639                1.63975667               -6.17294766               -1.17731699                9.02155618               -3.26093749
              21.39172507               -5.29017191               60.03416140                0.44595622                2.12848024                2.19468244               -7.41307062               -0.38770057                6.38335864                3.14600903
              22.41530394               -6.62599682               59.60532871                0.83170824                2.35788703                3.05682991               -8.78128490               -0.66715183                4.50103264               -5.77248503
              13.60669466                7.71157717               63.28830098                0.71862832               -0.84301031               -1.30309979                3.77098430               -0.12437246                0.24724060                6.58830236
              14.59826456                6.42437944               62.75719752                0.17242008               -0.93048781               -0.37763948                1.80480232               -0.07555631                5.62307835               -6.76320989
              15.58808491                5.13492012               62.33412984                0.00415357               -0.68886022                0.87134464                0.77261442               -2.77568840               16.04004883              -18.23685120
              16.58448735                3.79912450               62.01299565                0.00010000                0.27386698               -0.56763521               -0.50595431               -5.91836565               21.53078314              -17.30648365
              17.59356225                2.46001837               61.70357175                0.00010000                1.31304700               -1.11251577               -2.15076434               -6.80450612               22.16496314              -18.00112226
              18.61074829                1.11165217               61.39798697                0.00010000                2.02368581               -1.02971196               -3.87890827               -7.28474424               22.53197833              -19.42950766
              19.63403596               -0.24156263               61.09785023                0.00010000                2.58931082               -0.51116568               -5.65340318               -6.71720886               23.47488462              -20.76138942
              20.66253451               -1.59285977               60.81210724                0.00010000                3.13528024                0.34588286               -7.42425002               -4.94557418               29.19744076              -20.69582587
              21.69674157               -2.93362711               60.62599009                0.02146766                2.98661746                1.59751635               -9.55787138               -2.90563327               33.32707691              -18.85658549
              22.72226686               -4.27167742               60.41826677                0.14035530                2.12275607                3.65789410               -5.71597953               -1.11275945               17.46544908              -16.03544925
              23.73919669               -5.59506998               59.91034618                0.62093487                1.69298276                5.58908174               -7.31302054               -0.36256923                2.57197721              -27.93677375
              14.88801358                8.69931065               63.12993167                0.69856930               -0.66016732               -1.14513176                3.32167632               -0.10302278                0.09556548                6.25635970
              15.88141190                7.42176529               62.53579786                0.14757505               -0.74789070               -0.17088198                1.07713158                0.06395659                5.07304881               -6.07547483
              16.87305576                6.14400971               62.04161971                0.00010000               -0.82118638                0.75015099                1.00286724               -3.15839187               22.86408742              -17.32987060
              17.86498818                4.79925306               61.80732372                0.00010000               -0.14833336                0.37147246               -1.04126853               -6.77616364               34.57033349              -16.77593636
              18.87008910                3.45482988               61.55341662                0.00010000                1.11114544                0.03221969               -3.10179623               -7.25695341               33.24568150              -17.49966616
              19.88721108                2.10686190               61.29734676                0.00010000                2.21622079                0.12125634               -5.27152546               -7.55848204               33.16169127              -18.73734320
              20.91441351                0.75822595               61.04527117                0.00010000                3.17216234                0.61345488               -7.53280668               -7.10138719               34.12951112              -20.22004864
              21.95065433               -0.58434736               60.81079450                0.00010000                3.95129023                1.52267698               -9.86574957               -5.67936363               35.74875825              -22.17874121
              22.99343932               -1.91316412               60.59118706                0.02230148                4.01292081                2.94882836              -11.67754516               -3.25095906               36.95238181              -28.79192041
              24.03091275               -3.21701403               60.37741048                0.14270349                3.06991784                6.28771205              -13.47591996               -0.62794483               20.92621210              -34.32438867
              25.05483767               -4.51421518               59.82956185                0.62365430                2.39249251                8.56925803              -14.40462139                1.15643608                4.71684906              -44.88168780
              16.15972493                9.68867453               62.97260413                0.68843870               -0.48802999               -0.98882620                2.89524375               -0.10000284                0.10543847                6.33194456
              17.15484463                8.42096180               62.31750976                0.13622825               -0.61478162                0.01491336                0.35356242               -0.09491211                6.81775871               -5.83450073
              18.14742930                7.14992314               61.79696440                0.00010000               -0.83503577                0.65003478                1.05579020               -3.82164367               30.03915880              -14.20651570
              19.13814392                5.80655395               61.61182391                0.00010000               -0.33074796                0.95837553               -1.39434175               -7.66055884               45.65837670              -15.37094976
              20.14081434                4.46066276               61.41227835                0.00010000                0.90193347                1.01809751               -3.90623333               -7.99664548               44.24620725              -16.26466891
              21.15618258                3.11407730               61.20504101                0.00010000                2.12015693                1.27476888               -6.51547441               -8.03618351               43.58472624              -17.47988475
              22.18321748                1.77070646               60.99715111                0.00010000                3.20773595                1.88703735               -9.27093005               -7.44657303               43.52626235              -19.10427720
              23.22033730                0.43759377               60.79240053                0.00010000                4.05857846                2.93128135              -12.14679868               -5.88797997               43.78691551              -21.64320906
              24.26438905               -0.87465054               60.59144697                0.02644525                4.52108619                4.64523991              -15.21102775               -2.63308752               43.78640740              -24.80693799
              25.31075903               -2.14592318               60.38497250                0.14881084                4.61693390                7.30451353              -18.27165018               -0.03804860               24.11899564              -28.06686019
              26.35672773               -3.42368482               59.78079116                0.62767916                4.59686976                8.97784891              -19.64340849                1.41145037                5.09480462              -39.20381593
              17.42143898               10.67953413               62.81654140                0.67992083               -0.31739247               -0.84382135                2.47453767               -0.10003599                0.10757762                6.38971265
              18.41826505                9.42206356               62.10083828                0.12821566               -0.52041148                0.20818522               -0.35937008               -0.30924887                9.31030031               -5.69305064
              19.41103075                8.15701041               61.56938637                0.00010000               -0.86138374                0.79533506                1.18019469               -4.34312279               38.03005106              -12.74576012
              20.40103738                6.81842057               61.43465391                0.00010000               -0.41989562                1.37096496               -1.65123043               -8.28415151               56.62009224              -13.60338536
              21.40263283                5.47519183               61.28553160                0.00010000                0.77031692                1.75771775               -4.54550105               -8.53647996               55.04915475              -14.51163132
              22.41644372                4.13235728               61.12681691                0.00010000                1.96663728                2.25136599               -7.55962304               -8.29209651               53.98313300              -15.55234639
              23.44196558                2.79596669               60.96250322                0.00010000                3.09040115                3.04282612              -10.77517166               -7.36295902               53.31584901              -16.88510511
              24.47825174                1.47427826               60.79554576                0.00010000                4.11644667                4.22416412              -14.26340424               -5.34048272               52.97714274              -18.50944752
              25.52429451                0.17974068               60.62775478                0.03063925                5.04671569                5.85008840              -18.07145310               -1.57579276               52.72066480              -20.17675461
              26.57918605               -1.07092376               60.45500390                0.15573632                5.71477239                7.57081692              -21.48102280                0.67814345               28.80537999              -21.51408074
              27.63858996               -2.33465821               59.79719287                0.63201210                5.94039091                8.80620349              -22.98184947                1.13250396                5.64755349              -32.50783960
              18.67266535               11.67179811               62.66104129                0.67245520               -0.14819789               -0.70607459                2.05884217               -0.09925037                0.11359685                6.38758436
              19.67118337               10.42512551               61.88519707                0.12263415               -0.42277618                0.40649793               -1.06872751               -0.56140560               12.42417097               -5.60713149
              20.66420983                9.16582984               61.35566125                0.00092835               -0.84519547                0.94287413                1.44627394               -4.76480055               46.78664532              -11.36350062
              21.65427947                7.83397325               61.27437067                0.00010000               -0.40308970                1.64110994               -1.76768148               -8.57975366               67.81761559              -11.81156100
              22.65614804                6.49581712               61.17720989                0.00010000                0.76431622                2.20820969               -4.99210457               -8.67010075               66.02479752              -12.36780973
              23.66956579                5.15910462               61.06854898                0.00010000                1.89446367                2.91745901               -8.34333100               -8.08733086               64.67758204              -13.03455418
              24.69403731                3.83156299               60.95172395                0.00010000                3.00939374                3.89091571              -11.95118623               -6.79757085               63.70110591              -13.79155203
              25.72975366                2.52207705               60.82989361                0.00010000                4.20189510                5.11790752              -15.90602522               -4.48134576               63.17872269              -14.53277164
              26.77807521                1.24235122               60.70714099                0.03501852                5.44835585                6.46536209              -20.20572886               -0.69693623               62.76248383              -15.01307774
              27.83872078                0.00549316               60.57713195                0.16325965                6.43857471                7.60007446              -23.41871318                1.05627237               33.94572619              -15.66374092
              28.90684671               -1.24756075               59.86499001                0.63675289                6.81259242                8.64025672              -25.05800547                0.90660088                6.09982089              -26.70338860
              19.91279916               12.66541264               62.50551458                0.66607275                0.02060393               -0.57252018                1.64330846               -0.09873538                0.11753165                6.32141297
              20.91300520               11.43019352               61.66994932                0.11910187               -0.29560820                0.60927588               -1.77676950               -0.88473167               16.24123166               -5.56948361
              21.90688700               10.17586789               61.15685132                0.00221000               -0.67750872                0.97289441                1.86346264               -5.15200036               56.43488158               -9.81280962
              22.89945503                8.85124277               61.13228654                0.00010000               -0.13937755                1.62279950               -1.72166990               -8.54378890               79.34929290               -9.77335725
              23.90409945                7.51935602               61.09019841                0.00010000                0.97481020                2.28393244               -5.20813216               -8.24923949               77.32354414               -9.88501867
              24.91895123                6.19070646               61.03470305                0.00010000                1.94711410                3.21158190               -8.80618924               -7.27956943               75.75429938              -10.10524825
              25.94304173                4.87378501               60.96969941                0.00010000                2.94426761                4.37983185              -12.69582039               -5.76477114               74.65084542              -10.30008411
              26.97783658                3.57663641               60.89959881                0.00010000                4.19489756                5.65090151              -16.98550499               -3.49560278               74.14986586              -10.25997562
              28.02693968                2.30904792               60.82998557                0.03986916                5.61934452                6.77189674              -21.62863053               -0.13347889               73.35015514               -9.78530980
              29.09022347                1.08107773               60.74472102                0.17052435                6.79450582                7.44435848              -24.29136806                1.13786269               39.16210211              -10.26699552
              30.16282980               -0.16185307               59.97760200                0.64122665                7.26063229                8.49011346              -26.10473976                0.65952299                6.42869154              -21.26712221
              21.14112889               13.66034770               62.34919034                0.66109349                0.19046004               -0.44176159                1.22466376               -0.10076546                0.14784864                6.26476625
              22.14303349               12.43731103               61.45464113                0.11835977               -0.05041590                0.81779833               -2.48773855               -1.38008296               20.88393437               -5.65331312
              23.14012057               11.18528773               60.97470088                0.00396966               -0.15589662                0.64826836                2.39576256               -5.60624951               67.15751498               -7.85548678
              24.13991556                9.86642924               61.01149014                0.00010000                0.57894954                1.05561020               -1.51389802               -7.86544921               91.28044784               -7.28471904
              25.15169956                8.54149577               61.02764973                0.00010000                1.48149298                1.95658447               -5.17481923               -6.94570174               88.90305903               -7.02622034
              26.16954542                7.22333626               61.02797167                0.00010000                2.05561836                3.18138296               -8.89521784               -5.68204454               87.08219212               -6.91640135
              27.19281193                5.91915962               61.01798866                0.00010000                2.75166404                4.56768568              -12.92929016               -4.21272474               85.95371496               -6.74566336
              28.22457870                4.63509508               61.00439282                0.00010000                3.90761929                5.96543080              -17.43137730               -2.36137882               85.67533332               -6.19782067
              29.27096431                3.37778916               60.99466830                0.04514773                5.39001656                6.98745307              -22.34026855                0.10633689               84.19401335               -4.88292360
              30.33237903                2.15438033               60.95292150                0.17760012                6.74672313                7.17506598              -24.20603214                0.89295983               44.26495844               -5.08172541
              31.40589878                0.92224152               60.13122882                0.64484706                7.35197489                8.23635763              -26.23524702                0.38393376                6.65217440              -16.01741529
              22.35685721               14.65657741               62.19295865                0.65538687                0.36063083               -0.30809164                0.80715836               -0.10206521               -0.10047312                5.45041169
              23.36046351               13.44654948               61.23715472                0.11825265                0.43932968                1.02619628               -3.21357523               -2.30821173               26.58608783               -5.09075587
              24.36564380               12.18883326               60.81486297                0.00638868                1.27372468               -0.82568306                2.98170078               -4.90278683               79.36333065               -4.88078064
              25.38593801               10.87235497               60.91740735                0.00010000                2.13172971                0.00513008               -1.21547020               -5.47099992              103.52012271               -4.07905471
              26.40827839                9.55848771               60.99321410                0.00010000                2.08542396                1.47061126               -4.90311534               -4.17909053              100.49694430               -3.71432893
              27.42764649                8.25433411               61.05009656                0.00010000                1.93750081                3.02938654               -8.57534690               -3.16272046               98.33885481               -3.54273503
              28.44702841                6.96513872               61.09573258                0.00010000                2.21664920                4.59854164              -12.57244449               -2.17142306               97.15926761               -3.32958939
              29.47197947                5.69594503               61.13953121                0.00010000                3.13763809                6.10475528              -17.11878138               -1.09624233               97.31740556               -2.80439351
              30.50978117                4.44879698               61.19473779                0.05105715                4.58254205                7.26445400              -22.27602741                0.10485978               95.39743022               -1.39164201
              31.56363031                3.22457905               61.20060794                0.18416704                6.25024605                6.83621961              -23.16652065                0.34534275               49.33700954               -0.71287835
              32.63478609                2.00287408               60.32296659                0.64736249                7.11557806                7.75253749              -25.40680156                0.03331224                6.48998032              -10.00597990
              23.55914343               15.65418587               62.02071486                0.82644574                0.54699726               -0.23915358                0.30627784                0.59353049                2.46725165                4.63495051
              24.56461340               14.45783495               61.03238280                0.56049809                2.85579570                1.12854691               -3.87671253               -3.85560129               34.85662108               -4.41222395
              25.61625934               13.16877407               60.69150552                0.46814501                4.81138512               -2.00591875                3.26780210               -4.50360143               92.86167883               -3.07098475
              26.66084110               11.86653184               60.85812079                0.44345750                3.49396333               -0.58231359               -0.98071013               -2.40299430              115.31489531               -2.00945382
              27.68613861               10.57090799               60.99092625                0.43706546                1.93994464                1.24202817               -4.43189456               -1.34437104              111.62435041               -1.74087544
              28.69964000                9.28392399               61.10247453                0.44188513                1.08169709                2.95898720               -7.83380438               -0.78952598              109.12455746               -1.58245094
              29.70777255                8.01113046               61.20128721                0.45744818                0.96777962                4.59917337              -11.56333148               -0.26227591              107.67475207               -1.40521910
              30.71899559                6.75719019               61.29768521                0.48461264                1.83274674                6.12451565              -15.88450283                0.29900097              107.78534680               -1.02129687
              31.74442749                5.52307824               61.40868799                0.52753981                3.31065971                7.42812571              -21.00740885                0.16035808              105.98459342                0.06025144
              32.78520878                4.29110472               61.47113507                0.59402166                5.27737402                6.65256668              -21.26237166               -0.13145146               56.26418654                1.71652789
              33.84997497                3.07729227               60.56921014                0.82414700                6.47661829                7.44181870              -23.52549506                0.13764211                9.27836240               -5.98150671
              11.43377390                5.96486073               64.66954285                0.93604040               -1.28163460               -1.43941035                4.88627342               -0.35550404               -3.70821536                4.19602407
              12.42095755                4.59914334               64.20951403                0.69912327               -1.20792951               -0.85301677                3.32821997               -0.34543616               -5.23628991               -2.96139505
              13.40961531                3.22824969               63.71969269                0.53737683               -1.10359577               -0.45962954                1.62813957               -0.45467300               -5.35527926               -0.70035607
              14.39888563                1.84353082               63.25808179                0.47453731               -0.89351374               -0.01831593                0.02200241               -0.42950145               -3.14433154               -0.48724118
              15.39174503                0.44141684               62.81257743                0.45028323               -0.38556252                0.43063912               -1.63758962               -0.34638188               -1.64365397               -0.30077576
              16.39117438               -0.97626185               62.38034103                0.45442814                0.38049855                0.88883709               -3.33824754               -0.24884326               -0.72392514               -0.07488326
              17.39935500               -2.40262726               61.95204802                0.48711988                1.24849541                1.34363465               -5.03969004               -0.20391504               -0.86282508                0.15492011
              18.41614429               -3.82907183               61.51565351                0.55500353                2.01957574                1.78125281               -6.69286135               -0.21228408               -1.96534717                0.36547872
              19.43974652               -5.24930694               61.06385460                0.67599068                2.61598667                2.21013525               -8.31258890               -0.22523721               -3.69313323                0.44302867
              20.46846403               -6.66055759               60.59128345                0.88706310                3.07972255                2.63421246               -9.95132965               -0.23577816               -4.28236302                1.11429935
              21.50134097               -8.06310517               60.12580903                1.00000000                3.28769421                3.12896081              -11.55209031               -0.64066714               -3.81736410               -2.97794819
              12.79593624                6.95046663               64.48215003                0.79117625               -1.01275364               -1.43609274                4.28728141               -0.17254941                2.23596220                5.74456834
              13.78580871                5.59061317               64.01612021                0.28589311               -0.65307025               -0.67400255                2.72935437               -0.32155161                5.44276280               -5.34590917
              14.78287484                4.22365340               63.61480036                0.02586069                0.10991697                0.18971072                1.51859107               -1.32258925                9.08056298               -9.09354281
              15.78800705                2.84334766               63.22144048                0.01393523                0.76513533               -0.62537504                0.20075150               -2.60074817               10.25978049               -9.31384125
              16.79817755                1.44572323               62.84370061                0.01668795                1.13504764               -0.67507334               -1.12114838               -3.50135788               11.68756719               -9.93834493
              17.81070800                0.03262652               62.47905900                0.02225736                1.27716465               -0.38684368               -2.48057107               -3.87380511               12.50307020              -11.01940567
              18.82372084               -1.38919091               62.11776934                0.03067338                1.33266470                0.12004739               -3.83674886               -3.59521005               12.24366899              -11.99051147
              19.83736129               -2.81125930               61.74772562                0.04657729                1.47580938                0.75108339               -5.14099954               -2.70659537               10.99434299              -11.80541314
              20.85323703               -4.22720559               61.36068465                0.18311663                1.78220304                1.67871439               -6.41250310               -1.30628378                9.45666655               -6.12396474
              21.87300535               -5.63421546               60.95864859                0.43005019                2.21224230                2.30000197               -7.69489456               -0.42608990                6.74898773                2.84109147
              22.89748187               -7.03181556               60.51590821                0.82026541                2.44765176                3.20196756               -9.10859668               -0.67993142                4.80524244               -6.41743638
              14.15002981                7.93613888               64.32660279                0.70813312               -0.86900649               -1.35259571                3.89091966               -0.12687526                0.23324894                6.91535485
              15.14133975                6.58566329               63.77548491                0.16017600               -0.98003870               -0.37780272                1.85421732               -0.11805174                6.10452319               -7.11596091
              16.13042904                5.23204391               63.34232483                0.00327184               -0.82694549                0.79298098                0.87452881               -3.03474746               16.86251111              -18.27172118
              17.12480084                3.83102332               63.00819601                0.00010000                0.10049855               -0.62782667               -0.45098558               -6.31212835               22.01968860              -18.12641827
              18.13243901                2.42791537               62.68172444                0.00010000                1.19057925               -1.15516275               -2.21500421               -7.22469980               22.41604192              -19.57059847
              19.14861242                1.01600128               62.35824898                0.00010000                1.94488039               -1.05983883               -4.06112374               -7.74189883               22.70608955              -21.80004582
              20.17133662               -0.40022631               62.03963036                0.00010000                2.57073202               -0.53757454               -5.97822258               -7.19074822               23.59095889              -24.00579258
              21.20002706               -1.81405016               61.73511274                0.00010000                3.26201950                0.33739254               -7.96052243               -5.34477979               29.00899399              -24.91331582
              22.23657701               -3.21573266               61.52459881                0.01444989                3.22625648                1.65945736              -10.65007482               -3.17170716               36.15647172              -23.83536035
              23.26455219               -4.61455755               61.35867545                0.12836203                2.31827581                3.93610010               -6.31758871               -1.21711306               20.77171668              -21.72569733
              24.28294252               -5.99906581               60.83506821                0.61307553                1.83903309                6.02441066               -7.82215188               -0.24585384                3.07551440              -33.69085300
              15.49434991                8.92341471               64.16369547                0.68824179               -0.68072656               -1.18816570                3.43011035               -0.10715019                0.10005326                6.56402819
              16.48754264                7.58305712               63.54670417                0.13565999               -0.87650207               -0.16796280                1.10417160               -0.08362700                6.28405995               -6.36464130
              17.47681987                6.23951302               63.05380203                0.00010000               -1.08248136                0.59605347                1.44437162               -3.48625223               24.07837512              -17.06259614
              18.46589301                4.83079112               62.79750846                0.00010000               -0.40571385                0.33194149               -0.92725641               -7.10261889               34.68427202              -17.45230340
              19.46870559                3.42261997               62.52198901                0.00010000                0.90593452                0.05103881               -3.18048134               -7.62264265               33.34178215              -18.96324117
              20.48401171                2.01142974               62.24324537                0.00010000                2.06258587                0.19212307               -5.53616323               -7.94796905               33.14434110              -21.00983416
              21.50995731                0.60005760               61.96739752                0.00010000                3.09801686                0.73722720               -8.02116611               -7.50213820               33.97221712              -23.38070465
              22.54597204               -0.80451145               61.70791459                0.00010000                4.01764841                1.71570603              -10.68292122               -6.04231761               35.75022617              -26.32723161
              23.59031027               -2.19401644               61.46843226                0.01509220                4.30121043                3.20261358              -12.87177391               -3.47420602               37.04761300              -33.80844804
              24.63199625               -3.55549346               61.23227753                0.13175115                3.56355242                6.81289091              -15.57179962               -0.61218348               21.65218370              -43.67325588
              25.66158132               -4.91132734               60.67610662                0.61658865                2.95850721                9.27542248              -16.35869379                1.50938739                6.29852787              -54.41745807
              16.82860199                9.91237556               64.00205280                0.67843335               -0.50330900               -1.02652988                2.99170243               -0.10393379                0.10696981                6.65197207
              17.82356890                8.58230404               63.32105342                0.12497216               -0.78160014                0.02269125                0.35719416               -0.34056654                8.61091427               -6.11563245
              18.81296999                7.24396498               62.81043709                0.00010000               -1.19637010                0.52475219                1.61549382               -4.15802651               31.76580440              -14.09626366
              19.79964150                5.83766214               62.59880930                0.00010000               -0.68112275                0.93401156               -1.22663741               -7.88073010               45.61313396              -15.95790785
              20.79934754                4.42893615               62.37273190                0.00010000                0.62869585                1.09128128               -4.00535215               -8.25991526               44.18743604              -17.60605103
              21.81221542                3.01984374               62.13811962                0.00010000                1.89437533                1.43979373               -6.85435722               -8.32121528               43.39740147              -19.60757635
              22.83723504                1.61451823               61.90118269                0.00010000                3.05196664                2.15186269               -9.89554624               -7.73950497               43.14420712              -22.11020030
              23.87325475                0.22026396               61.66571678                0.00010000                4.04199299                3.30596824              -13.16068485               -6.15395129               43.13676135              -25.67230634
              24.91807490               -1.15168038               61.43114470                0.01893337                4.81823355                5.14910198              -16.83365912               -2.67707179               42.82137699              -30.37892435
              25.96961942               -2.47829973               61.18797916                0.13705325                5.33615656                7.98347117              -21.10504297                0.11888587               24.18591801              -35.15466092
              27.02479803               -3.81355736               60.57021479                0.61994108                5.51786111                9.73294844              -22.52796999                1.75360597                6.40034162              -46.88498435
              18.15241429               10.90288412               63.84170657                0.66984779               -0.32723880               -0.87574429                2.55960123               -0.10205724                0.11354901                6.71479157
              19.14914190                9.58351095               63.09714176                0.11737143               -0.70565293                0.22070386               -0.37919497               -0.63350272               11.70773699               -5.96605294
              20.13830123                8.25000806               62.58466399                0.00022038               -1.29173280                0.71473886                1.81344427               -4.70906937               40.30177539              -12.55841313
              21.12330724                6.84947135               62.41922590                0.00010000               -0.84877672                1.38428722               -1.47533555               -8.38592783               56.49534151              -14.11088675
              22.12132569                5.44444560               62.23949974                0.00010000                0.43490365                1.88128014               -4.67055076               -8.66541458               54.91653182              -15.70292073
              23.13200531                4.04022562               62.04914181                0.00010000                1.67106443                2.50010110               -7.96120913               -8.43030654               53.68396248              -17.47771156
              24.15474698                2.64309485               61.85093260                0.00010000                2.85431599                3.43119697              -11.50839289               -7.49470497               52.70496072              -19.64694176
              25.18909163                1.26160792               61.64671854                0.00010000                4.02927762                4.76906955              -15.46730178               -5.41768524               51.93621825              -22.28415074
              26.23533253               -0.09103440               61.43728262                0.02279718                5.35796572                6.56464779              -20.01516270               -1.42380174               51.41404155              -25.12487606
              27.29625095               -1.39582404               61.22242655                0.14361504                6.59180874                8.41872990              -25.00616217                0.95345817               28.84207509              -27.28702130
              28.36716871               -2.71666838               60.54975643                0.62429370                7.09177598                9.68444417              -26.55691947                1.46259662                7.11983982              -38.66544889
              19.46530719               11.89486068               63.68200919                0.66282270               -0.15322847               -0.73243583                2.13455165               -0.10146186                0.11803866                6.71684075
              20.46377491               10.58671811               62.87428440                0.11216652               -0.62394974                0.42372713               -1.11235501               -0.94323082               15.48129233               -5.87880381
              21.45282820                9.25825975               62.37392728                0.00124160               -1.31447496                0.90634622                2.09370027               -5.13071437               49.68430873              -11.04647875
              22.43748541                7.86534789               62.25780554                0.00010000               -0.87716068                1.69199537               -1.61020174               -8.55736204               67.66787925              -12.18221117
              23.43528498                6.46656175               62.12661548                0.00010000                0.37373158                2.38021159               -5.14577075               -8.64818049               65.90378483              -13.36179851
              24.44496004                5.06984576               61.98281080                0.00010000                1.53368308                3.23497487               -8.79202138               -8.05503906               64.35143621              -14.68891022
              25.46595864                3.68314217               61.82797824                0.00010000                2.70351326                4.37760993              -12.76567359               -6.73225297               62.98249677              -16.20489305
              26.49903030                2.31564535               61.66395807                0.00010000                4.05360910                5.79885812              -17.24998008               -4.33630435               61.95427878              -17.83289799
              27.54703083                0.97961257               61.49422865                0.02690328                5.76461271                7.34445208              -22.38410855               -0.33409517               61.51969412              -19.28608201
              28.61432256               -0.30992513               61.32248241                0.15080831                7.43539067                8.63034000              -27.57681940                1.44003652               34.25076989              -20.30412984
              29.69573864               -1.61986848               60.59432324                0.62917503                8.14160816                9.70610900              -29.24316240                1.22746036                7.78114553              -31.74788090
              20.76667018               12.88823540               63.52227966                0.65650801                0.02080287               -0.59524868                1.70852340               -0.10235276                0.12248139                6.64932536
              21.76687820               11.59198549               62.65183274                0.10926929               -0.48065061                0.63320613               -1.84450010               -1.30777824               20.01321127               -5.84316228
              22.75705716               10.26813498               62.17919934                0.00261467               -1.15101003                0.98075862                2.43421148               -5.48376737               60.05047056               -9.35943462
              23.74385800                8.88331126               62.11613363                0.00010000               -0.65964748                1.71134573               -1.59768850               -8.39590183               79.24942377               -9.97266878
              24.74386421                7.49204983               62.03737761                0.00010000                0.52330538                2.50188013               -5.38509526               -8.08209650               77.31248271              -10.63301606
              25.75432411                6.10492511               61.94423101                0.00010000                1.52190565                3.58234915               -9.27878857               -7.09185142               75.51647856              -11.41531927
              26.77430233                4.73064705               61.83831506                0.00010000                2.57855186                4.92736634              -13.55023910               -5.51523446               73.95629659              -12.25362965
              27.80589515                3.37758508               61.72253110                0.00010000                3.99593955                6.41686317              -18.40364205               -3.13087041               72.89554068              -12.97351716
              28.85422112                2.05585464               61.60240314                0.03133276                5.93187916                7.77739483              -23.93212729                0.42616540               72.42664073              -13.33137892
              29.92453273                0.77678276               61.47930019                0.15813371                7.86917464                8.61507261              -28.91977935                1.59985772               39.89260161              -13.81915423
              31.01160461               -0.52254620               60.69458008                0.63380404                8.70718787                9.74526820              -30.71294260                0.92897613                8.28228648              -25.26384909
              22.05575996               13.88295570               63.36171988                0.65177705                0.19597981               -0.46185804                1.27943260               -0.10417714                0.15402682                6.59152667
              23.05771975               12.59938224               62.42928634                0.10859706               -0.19664412                0.84961543               -2.58027924               -1.82550147               25.41864487               -5.93660212
              24.05182707               11.27787493               62.00203732                0.00437028               -0.60336162                0.70244982                2.83549827               -5.86449179               71.57760006               -7.28438678
              25.04565252                9.89957480               61.99727927                0.00010000                0.01010620                1.19119309               -1.44103796               -7.59736714               91.32306326               -7.31993558
              26.05202920                8.51659935               61.97516456                0.00010000                0.94366346                2.23495985               -5.35956534               -6.68350230               89.12540416               -7.50161048
              27.06452579                7.14149274               61.93667352                0.00010000                1.54823951                3.59260641               -9.35829588               -5.41570599               87.08141614               -7.81847691
              28.08299399                5.78168950               61.88435966                0.00010000                2.33397578                5.13332125              -13.76841785               -3.86576762               85.43354918               -8.13256819
              29.11120531                4.44398262               61.82299149                0.00010000                3.66812322                6.73581823              -18.83217079               -1.84973536               84.51452795               -8.18386023
              30.15635645                3.13516047               61.76028883                0.03585116                5.67576181                8.04866634              -24.62097610                0.82078076               83.78152253               -7.60713530
              31.22472054                1.86237632               61.68744348                0.16495277                7.83098101                8.45225386              -29.07624706                1.37354968               45.53687396               -7.48746381
              32.31297607                0.57503688               60.84604547                0.63770015                8.82555298                9.64546818              -31.04753191                0.55698134                8.62061123              -18.87649098
              23.33173357               14.87899824               63.20126046                0.64614113                0.37153842               -0.32492801                0.85158800               -0.10523192               -0.10726065                5.73531250
              24.33544895               13.60897780               62.20441894                0.10873359                0.39205957                1.06539593               -3.33138526               -2.75997217               31.90154165               -5.35033487
              25.33957476               12.28218398               61.84753713                0.00658922                0.88686409               -0.75314723                3.23414487               -4.96846573               84.66090836               -4.34455114
              26.35318623               10.90713512               61.90601832                0.00010000                1.43507356                0.26737293               -1.18627445               -5.18505387              103.80247605               -4.02574507
              27.36827623                9.53674903               61.94355060                0.00010000                1.38668058                1.82055914               -5.07241317               -3.94493197              101.13216576               -3.93309723
              28.38091984                8.17677724               61.96226389                0.00010000                1.31104342                3.47425522               -8.98719699               -2.95980947               98.78017507               -3.99777570
              29.39449710                6.83331347               61.96609776                0.00010000                1.72548136                5.15690954              -13.32776810               -1.90449595               97.02705479               -4.05115231
              30.41542947                5.51230145               61.96192121                0.00010000                2.88729665                6.81193968              -18.39157754               -0.65115948               96.38940749               -3.87388403
              31.45224303                4.21682796               61.96220918                0.04125631                4.83489190                8.20907311              -24.33363419                0.75750680               95.62293180               -2.99565292
              32.51212731                2.94582784               61.94590648                0.17094885                7.25900384                8.18530395              -28.02236580                0.82977773               51.23441174               -1.95056182
              33.59742311                1.67036317               61.04652204                0.64020213                8.52957978                9.18300480              -30.18845095                0.09139428                8.54738367              -11.56946704
              24.59369620               15.87645714               63.02393843                0.82193872                0.56383672               -0.25410957                0.33658863                0.61956457                2.59858403                4.87841997
              25.59933457               14.62069015               61.99290509                0.55584486                3.03021159                1.17123572               -4.01782858               -4.29369634               40.85176431               -4.64155776
              26.65430043               13.26281198               61.72660191                0.46694702                4.40259145               -1.93720000                3.38108420               -4.31582710               98.88361220               -2.50335821
              27.68738640               11.90492226               61.84896872                0.44318941                2.45940030               -0.22128609               -0.96869857               -2.07005583              116.10710725               -1.93394017
              28.70348844               10.55301054               61.94615745                0.43721115                1.06893795                1.62615070               -4.56469567               -1.17599986              112.94968016               -1.82687824
              29.70876516                9.21097785               62.02252427                0.44163852                0.29457141                3.42006028               -8.15122966               -0.62461111              110.28008989               -1.80007641
              30.70937987                7.88482769               62.08253822                0.45646702                0.29512359                5.15142156              -12.15682194               -0.04954481              108.24004260               -1.75810956
              31.71466763                6.58022141               62.13362523                0.48231761                1.43001644                6.79199657              -16.90701889                0.64952766              107.43976911               -1.54799773
              32.73798020                5.29934193               62.19076714                0.52248144                3.65566324                8.25139667              -22.66987308                0.86676587              106.90640096               -0.78739897
              33.78778089                4.02608240               62.23727698                0.58713573                6.38765509                8.02545597              -25.72993913                0.53311077               58.67841566                1.13746229
              34.86573330                2.75869698               61.31350561                0.82040230                7.79524047                8.83338107              -27.88098947                0.09247717               11.54033664               -6.76554782
              11.86372179                6.19803281               65.71913062                0.93035196               -1.32049784               -1.48287311                5.03288272               -0.36845705               -3.86830510                4.36429286
              12.85051681                4.76518556               65.24326631                0.69142941               -1.24843383               -0.87565546                3.42241457               -0.36559155               -5.46819570               -3.10937872
              13.83875311                3.32681278               64.73617926                0.53387835               -1.12809750               -0.47329589                1.66877581               -0.45593923               -5.61452438               -0.67367628
              14.82795486                1.87436186               64.25823238                0.47332325               -0.88245933               -0.01471417                0.01007790               -0.42703486               -3.38724399               -0.49304707
              15.82110392                0.40468361               63.79587918                0.45027611               -0.34306485                0.44826757               -1.69972362               -0.34663947               -1.93906028               -0.30298008
              16.82109356               -1.08004253               63.34638567                0.45484437                0.44252398                0.92025993               -3.44980966               -0.25428030               -1.04739381               -0.07765943
              17.82995440               -2.57285015               62.90079692                0.48695168                1.31906626                1.39068317               -5.20414871               -0.21219616               -1.16736863                0.15004013
              18.84747489               -4.06528264               62.44757760                0.55341013                2.09670009                1.84501271               -6.91449640               -0.21878001               -2.22848117                0.36307451
              19.87188841               -5.55122176               61.97931769                0.67184889                2.70309624                2.28838151               -8.58684541               -0.23100624               -3.94746245                0.44545715
              20.90153681               -7.02801535               61.49009941                0.87800229                3.18015322                2.72732793              -10.27782245               -0.24266313               -4.53005498                1.12982886
              21.93549147               -8.49596391               61.00835276                1.00000000                3.39546579                3.23591810              -11.93122805               -0.65504971               -4.05179201               -3.12452474
              13.29288446                7.18320408               65.52566011                0.78018936               -1.04135541               -1.48469905                4.41495689               -0.18382665                2.39291787                6.01735856
              14.28247091                5.75642901               65.04379915                0.27233158               -0.66394435               -0.68546469                2.80594084               -0.35040380                5.77566508               -5.63428138
              15.27960557                4.32207982               64.63015830                0.02646310                0.11390956                0.18356239                1.55037828               -1.41716876                9.53736780               -9.31270759
              16.28474910                2.87421472               64.22339693                0.01482005                0.76170746               -0.69168520                0.18998432               -2.76934401               10.66278418               -9.71881186
              17.29483972                1.40916629               63.83220559                0.01763644                1.12842710               -0.71828033               -1.17826980               -3.71642271               12.07277963              -10.74853492
              18.30731764               -0.07083993               63.45375672                0.02347366                1.28063887               -0.42462958               -2.58291996               -4.11195038               12.87101785              -12.26352177
              19.32045250               -1.55894331               63.07864268                0.03248980                1.35776279                0.07717445               -3.98788172               -3.84778022               12.63805654              -13.71334789
              20.33447289               -3.04683251               62.69530852                0.04930237                1.52460993                0.69837913               -5.34364724               -2.95617858               11.43245814              -14.08103308
              21.35094470               -4.52833795               62.29533995                0.17595589                1.85041808                1.65699147               -6.65969771               -1.47448359                9.90516962               -9.39528606
              22.37148126               -6.00074207               61.88026351                0.41461175                2.29724184                2.40975210               -7.98658071               -0.47859040                7.12610765                2.29628410
              23.39688953               -7.46360473               61.42315677                0.80903756                2.54082785                3.34392312               -9.44695136               -0.66476736                5.11867623               -7.22192584
              14.71359539                8.16833883               65.36611937                0.69772002               -0.89624018               -1.40314340                4.01028142               -0.13061608                0.21703578                7.25836107
              15.70463298                6.75147627               64.79428187                0.14799992               -1.04856780               -0.37625248                1.90549570               -0.16695803                6.64958390               -7.48069372
              16.69262403                5.33048403               64.35162041                0.00243071               -0.95757342                0.62828484                0.99874441               -3.33673602               17.75506202              -18.10491572
              17.68548152                3.86052815               64.00397594                0.00010000               -0.03969586               -0.73105062               -0.39880802               -6.72142423               22.51697988              -18.89436822
              18.69183011                2.39031801               63.65927166                0.00010000                1.07413206               -1.23043465               -2.27456736               -7.63575814               22.65693272              -21.15374119
              19.70696416                0.91146488               63.31676449                0.00010000                1.85806359               -1.11827474               -4.22812438               -8.21264505               22.86679043              -24.25251196
              20.72899139               -0.57130666               62.97828578                0.00010000                2.53908945               -0.59985815               -6.27673137               -7.70219041               23.64785186              -27.41667381
              21.75774595               -2.05131506               62.65289679                0.00010000                3.36584527                0.26682344               -8.45475362               -5.83120297               28.57178383              -29.43782890
              22.79630829               -3.51808193               62.41298859                0.00749226                3.47429211                1.62294871              -11.57869049               -3.47106532               38.95310763              -29.33613052
              23.82723179               -4.97982031               62.29191500                0.11648118                2.58065758                4.04796079               -7.16916908               -1.31013551               24.35125650              -28.37635103
              24.84792144               -6.42908545               61.75390315                0.60501970                2.06896538                6.29469009               -8.49008112               -0.11348861                3.78756139              -40.34730648
              16.12399725                9.15514121               65.19853388                0.67815670               -0.70107084               -1.23179771                3.53567619               -0.11033991                0.10340104                6.88338661
              17.11698654                7.74890396               64.55788130                0.12438593               -1.00891391               -0.16323523                1.13250816               -0.32250259                7.74721236               -6.66191983
              18.10381897                6.33464552               64.07050714                0.00010000               -1.32499507                0.33259414                1.85031176               -3.84723917               25.44812897              -16.60893774
              19.09048664                4.85959370               63.78877859                0.00010000               -0.63155696                0.25750988               -0.83539298               -7.37288253               34.67332996              -18.08660354
              20.09118783                3.38455759               63.48980699                0.00010000                0.71013812                0.03565025               -3.25966575               -7.96882482               33.41141279              -20.44873358
              21.10468940                1.90679458               63.18662350                0.00010000                1.90003997                0.22822242               -5.77636353               -8.33912073               33.09771867              -23.35785991
              22.12918863                0.42905952               62.88484785                0.00010000                2.99673539                0.81370140               -8.46195359               -7.93887763               33.72352784              -26.68560739
              23.16462411               -1.04149604               62.59713607                0.00010000                4.04200054                1.83293776              -11.42599602               -6.47869562               35.57119734              -30.71567313
              24.21002864               -2.49587897               62.33375158                0.00787206                4.58289771                3.35012709              -14.02244585               -3.80204424               36.64736515              -39.15280238
              25.25628206               -3.91978285               62.06597448                0.12029313                4.15607018                7.03274452              -17.60142090               -0.68282265               22.09003913              -54.18106900
              26.29315004               -5.33771093               61.50238798                0.60910842                3.68679816                9.70255659              -18.39101176                1.82428455                8.09421655              -65.34123027
              17.52386308               10.14370287               65.03243818                0.66835722               -0.51844635               -1.06338189                3.08466020               -0.10701348                0.11077410                6.98705042
              18.51867862                8.74821157               64.32465364                0.11411848               -0.94367891                0.03037806                0.36406920               -0.70455603               10.71574222               -6.40554771
              19.50498950                7.33713591               63.82927428                0.00010000               -1.52834134                0.38532178                2.05680014               -4.56850377               33.69000964              -13.92327107
              20.48811179                5.86567835               63.58729116                0.00010000               -0.98683811                0.88064469               -1.12041836               -8.02415457               45.42801628              -16.52859195
              21.48525274                4.39103101               63.33217131                0.00010000                0.37840113                1.13461160               -4.11800329               -8.48946453               44.09313996              -18.97428406
              22.49567982                2.91602933               63.06795387                0.00010000                1.66258561                1.56586446               -7.16550813               -8.60314673               43.18352797              -21.80355785
              23.51850445                1.44496737               62.79924019                0.00010000                2.87153560                2.35863945              -10.45784149               -8.06930972               42.67785301              -25.24084243
              24.55311053               -0.01465630               62.52918684                0.00010000                4.00248806                3.59250021              -14.08930745               -6.50223917               42.25231172              -29.91361787
              25.59855422               -1.45107939               62.25477379                0.01156142                5.11483823                5.50190886              -18.35871762               -2.88352101               41.22254421              -36.38287895
              26.65540729               -2.83916542               61.96287164                0.12457263                6.08545325                8.43077090              -23.74360290                0.16583777               23.83144193              -43.15266622
              27.72026328               -4.23503432               61.33023176                0.61156832                6.48559889               10.28176501              -25.40347054                2.07195737                7.75237281              -55.72066966
              18.91283959               11.13387357               64.86773342                0.66019838               -0.33772129               -0.90705179                2.64458496               -0.10557359                0.11752898                7.05794364
              19.90946238                9.74951152               64.09325438                0.10650859               -0.89287399                0.23234398               -0.39636514               -1.06545534               14.45113800               -6.25029561
              20.89498211                8.34235196               63.60565525                0.00032029               -1.66769630                0.66144991                2.22555044               -5.14597844               42.82318909              -12.34732742
              21.87610845                6.87720660               63.40514720                0.00010000               -1.19672744                1.38714697               -1.40604945               -8.41325371               56.23900255              -14.63172592
              22.87104756                5.40724983               63.19212058                0.00010000                0.12908276                1.98361356               -4.82581022               -8.75644981               54.76705877              -16.92366479
              23.87869011                3.93811187               62.96759273                0.00010000                1.37202534                2.71039414               -8.33590674               -8.57327882               53.37370327              -19.46605519
              24.89848807                2.47623231               62.73233536                0.00010000                2.59679894                3.75576456              -12.17050929               -7.68611973               52.01434806              -22.52670897
              25.93062609                1.03035396               62.48619972                0.00010000                3.91896335                5.21314154              -16.56939937               -5.62974004               50.63299304              -26.27982081
              26.97686734               -0.38584079               62.22745152                0.01512789                5.64638301                7.12942293              -21.84718350               -1.50654277               49.32222114              -30.48375750
              28.04355375               -1.75116744               61.95488065                0.13079319                7.47298281                9.08511679              -28.34188786                1.09997328               28.37057793              -34.05733676
              29.12632699               -3.13207563               61.26605448                0.61563650                8.27732460               10.38461504              -30.16179075                1.83541482                8.69668252              -45.93193804
              20.29047571               12.12556184               64.70373232                0.65332668               -0.15845822               -0.75925614                2.20677203               -0.10518751                0.12114098                7.06180835
              21.28889113               10.75285845               63.86294997                0.10184088               -0.80504236                0.44084033               -1.15104819               -1.41547794               18.88429552               -6.16074913
              22.27437486                9.35036491               63.39753526                0.00136880               -1.69711384                0.91086026                2.40685551               -5.54118728               52.86123844              -10.76955279
              23.25494885                7.89342129               63.24216663                0.00010000               -1.25781923                1.75545347               -1.60499072               -8.47524231               67.41934524              -12.57177853
              24.24921848                6.43070328               63.07429447                0.00010000                0.01414526                2.54484004               -5.34882113               -8.59899573               65.79817810              -14.38441193
              25.25523175                4.97023721               62.89270855                0.00010000                1.16607452                3.52127405               -9.21781745               -8.04836886               64.03764337              -16.40090484
              26.27253997                3.52008266               62.69641048                0.00010000                2.36785387                4.80493449              -13.50540331               -6.76255896               62.19322798              -18.73354954
              27.30258883                2.08960653               62.48489401                0.00010000                3.87023948                6.38893474              -18.49107453               -4.37701749               60.45187510              -21.35245026
              28.34994476                0.69150907               62.25945882                0.01907057                6.05263796                8.11004783              -24.48829445               -0.26167690               59.27820908              -23.96298263
              29.42364159               -0.65746308               62.02559557                0.13800765                8.44216019                9.54505064              -31.60369174                1.67468679               33.87596003              -25.93558672
              30.51878796               -2.02734202               61.28012676                0.62065242                9.51463695               10.66116738              -33.52038864                1.59154457                9.60421728              -37.83125524
              21.65614262               13.11868845               64.53968504                0.64730352                0.02071220               -0.61822044                1.77065386               -0.10597160                0.12701483                6.99179245
              22.65634974               11.75832833               63.63305931                0.09918190               -0.62735499                0.65671684               -1.90693721               -1.79607302               24.08186005               -6.12679798
              23.64359552               10.36056916               63.20553555                0.00269241               -1.50422531                1.04486498                2.58137647               -5.83539406               63.92595564               -9.00380414
              24.62626524                8.91231567               63.10033277                0.00010000               -1.06718979                1.83622755               -1.67780119               -8.20609009               79.11736827              -10.19677097
              25.62225172                7.45814663               62.98249650                0.00010000                0.10390566                2.72936437               -5.63085539               -7.90917008               77.35884703              -11.40157377
              26.62834335                6.00853735               62.84912728                0.00010000                1.08079244                3.93483103               -9.73540274               -6.95343715               75.32349147              -12.77357141
              27.64386757                4.57233100               62.69869463                0.00010000                2.16579893                5.43214534              -14.33306086               -5.38898601               73.21081508              -14.31282220
              28.67165933                3.15813265               62.53152596                0.00010000                3.74179165                7.12106169              -19.73265397               -2.98097946               71.35738593              -15.88888206
              29.71870341                1.77636016               62.35134302                0.02294083                6.21196192                8.71656705              -26.22918109                0.68994678               70.33657905              -17.24525102
              30.79589857                0.43973358               62.16632543                0.14497124                8.96061729                9.77439217              -33.55912178                1.92529189               39.84113515              -18.25496498
              31.89791575               -0.91885228               61.36334315                0.62548209               10.20171863               11.00558762              -35.54671732                1.25736813               10.39204772              -30.15705577
              23.00907651               14.11319743               64.37477899                0.64261757                0.20124366               -0.48116688                1.32997268               -0.10784363                0.16027902                6.93416199
              24.01108895               12.76599278               63.40303554                0.09879289               -0.26984363                0.87978521               -2.66598247               -2.30336359               30.17121724               -6.23197897
              25.00367964               11.37126221               63.03141085                0.00426012               -0.89196845                0.84042431                2.73878088               -6.10899336               76.24441791               -6.86432422
              25.99324958                9.93014584               62.98266938                0.00010000               -0.44331243                1.39174744               -1.61175877               -7.31314117               91.42765756               -7.37578368
              26.99481339                8.48529057               62.92045843                0.00010000                0.43645280                2.53431247               -5.63131957               -6.43938014               89.46518396               -7.98473069
              28.00197864                7.04893383               62.84080575                0.00010000                1.01757731                3.99952516               -9.81432836               -5.21027582               87.17300427               -8.75301120
              29.01516494                5.62872557               62.74262030                0.00010000                1.84807215                5.68030571              -14.54430582               -3.64307288               84.90706322               -9.60217601
              30.03894008                4.23202776               62.62774941                0.00010000                3.34889153                7.48504794              -20.16615132               -1.54441438               83.10358306              -10.33046943
              31.08214277                2.86584041               62.50224878                0.02713313                5.92098950                9.10227244              -26.97026279                1.27740684               82.09627866              -10.59521996
              32.15735987                1.53802476               62.37139656                0.15173977                8.94821331                9.80003731              -34.14362084                1.75182236               45.96518291              -10.62828245
              33.26110704                0.19276974               61.51027819                0.62950622               10.37471654               11.14384358              -36.23754446                0.80384212               10.98632608              -22.51120791
              24.34839504               15.10906511               64.20999041                0.63719201                0.38226493               -0.33995441                0.89149786               -0.10884422               -0.11526667                6.03513653
              25.35221769               13.77592403               63.17052702                0.09879950                0.44337791                1.10193581               -3.44231962               -3.18956005               37.31929750               -5.62323940
              26.35726259               12.37737765               62.87954587                0.00609505                0.68781849               -0.53424317                2.84008720               -5.07925530               90.15842780               -3.95838226
              27.36597406               10.94015062               62.89368186                0.00010000                0.87067676                0.59031868               -1.42508875               -4.91833237              104.28444511               -3.97080343
              28.37467613                9.50883288               62.89176584                0.00010000                0.73643889                2.19330824               -5.34090261               -3.74297440              101.95984041               -4.14977850
              29.38070283                8.08852785               62.87035262                0.00010000                0.66180286                3.92339393               -9.40062933               -2.80066879               99.38998821               -4.46589066
              30.38791219                6.68593711               62.82917721                0.00010000                1.14766823                5.71808859              -14.02960054               -1.71933662               96.97815001               -4.81725853
              31.40365620                5.30783361               62.77169966                0.00010000                2.51711780                7.53972227              -19.61918135               -0.34547701               95.33334028               -5.03370070
              32.43825454                3.95840561               62.70806510                0.03192056                5.01747444                9.21869597              -26.51868544                1.23308456               94.55860375               -4.72799927
              33.50400569                2.63573432               62.64016062                0.15722992                8.31240517                9.65441021              -33.21495424                1.21488668               52.25964758               -3.63169168
              34.60450265                1.30402459               61.71919758                0.63222222               10.04969595               10.76222111              -35.47369934                0.18989630               11.12092412              -13.62966459
              25.67318178               16.10639834               64.02744663                0.81752385                0.58034269               -0.26667707                0.36170240                0.64199083                2.73462143                5.13509021
              26.67898521               14.78803150               62.95202623                0.55071932                3.23430844                1.21074667               -4.15137903               -4.61429694               46.87700976               -4.88428334
              27.73786795               13.36057735               62.75912721                0.46539433                4.22212474               -1.68002997                2.81972888               -4.24342831              105.07987027               -2.08205858
              28.76342771               11.94195222               62.83874681                0.44291066                1.68543580                0.18016000               -1.22648475               -1.82566565              117.22974341               -1.86452780
              29.77157667               10.52915673               62.89963234                0.43719315                0.27166589                2.03238569               -4.79601428               -1.03747118              114.56445304               -1.92134010
              30.76886102                9.12740171               62.93944994                0.44138115               -0.50521124                3.88738610               -8.47512565               -0.48765057              111.72937608               -2.03568394
              31.76147244                7.74308734               62.95815077                0.45559969               -0.46494898                5.71502251              -12.70301337                0.12705056              109.05289355               -2.15003741
              32.75956204                6.38282221               62.95954483                0.48010418                0.87156537                7.49885940              -17.88929382                0.94693417              107.19210964               -2.14253997
              33.77890375                5.05021433               62.95529053                0.51756516                3.82382898                9.18087186              -24.46262783                1.47945888              106.74486701               -1.72061308
              34.83603862                3.73111297               62.95653628                0.58007881                7.47103366                9.53786437              -30.54965597                1.09328522               60.35620426                0.27875841
              35.92832443                2.40801416               62.01159035                0.81644172                9.22858009               10.39895673              -32.74424839                0.07229713               14.47876298               -7.86507311
              12.30813641                6.43908761               66.77020050                0.92481729               -1.35914171               -1.52625644                5.17900456               -0.38174129               -4.03336165                4.53480266
              13.29454499                4.93589009               66.27796232                0.68394130               -1.28888301               -0.89780981                3.51571015               -0.38559410               -5.70429040               -3.25962737
              14.28235875                3.42681808               65.75306820                0.53024009               -1.15520776               -0.48599876                1.70904361               -0.46089818               -5.87539860               -0.64737072
              15.27144084                1.90334078               65.25828335                0.47214516               -0.87741086               -0.01129185                0.00173054               -0.42822284               -3.63025724               -0.49689309
              16.26481053                0.36270441               64.77858296                0.45029259               -0.30660327                0.46556376               -1.75666675               -0.34861384               -2.23272986               -0.30397554
              17.26530877               -1.19255713               64.31134484                0.45505141                0.50025851                0.95343947               -3.55656519               -0.26286900               -1.36771719               -0.08134293
              18.27481570               -2.75531797               63.84796504                0.48671411                1.38725617                1.43712408               -5.36051718               -0.22430429               -1.47293953                0.14456872
              19.29305389               -4.31727216               63.37736358                0.55173442                2.17298806                1.90730137               -7.12459671               -0.23028736               -2.49636673                0.35882809
              20.31827546               -5.87244231               62.89211769                0.66757050                2.78869812                2.36600949               -8.84869820               -0.23985638               -4.20752445                0.44634484
              21.34882786               -7.41828921               62.38572700                0.86857264                3.27614785                2.81838433              -10.58741082               -0.24978640               -4.78340748                1.14416180
              22.38379842               -8.95520368               61.88718447                1.00000000                3.49705630                3.33992260              -12.29014184               -0.66440244               -4.29078023               -3.27180922
              13.80751652                7.42382504               66.57044917                0.76957721               -1.06927031               -1.53276384                4.54004773               -0.19584892                2.55369911                6.29764420
              14.79682381                5.92691199               66.07223903                0.25885474               -0.67460483               -0.69614064                2.88048911               -0.37907764                6.11518855               -5.92733494
              15.79402442                4.42195809               65.64580793                0.02710140                0.11958148                0.13893369                1.58015489               -1.51033311               10.00485645               -9.47274690
              16.79921544                2.90322786               65.22524017                0.01575325                0.76244638               -0.77932445                0.17806889               -2.92748463               11.07740206              -10.09228354
              17.80927335                1.36736005               64.82013522                0.01863613                1.12379156               -0.77326316               -1.23561585               -3.91360082               12.46692407              -11.55979651
              18.82169127               -0.18302273               64.42740060                0.02474885                1.28284134               -0.46793065               -2.69081757               -4.33407196               13.24947646              -13.53737539
              19.83493017               -1.74094673               64.03801171                0.03435675                1.38109569                0.02765078               -4.14146746               -4.09153771               13.03933066              -15.50679244
              20.84931319               -3.29819915               63.64085268                0.05206136                1.57276258                0.63189341               -5.55021433               -3.20647227               11.87537290              -16.49542788
              21.86638542               -4.84878221               63.22749069                0.16875177                1.91987463                1.57877045               -6.91421885               -1.67803653               10.36144575              -12.96849458
              22.88771068               -6.39010537               62.79891697                0.39915960                2.38417203                2.52468344               -8.28511629               -0.55936646                7.50874520                1.39445888
              23.91406886               -7.92180446               62.32696919                0.79807820                2.63581858                3.49802692               -9.79053886               -0.62395724                5.43578421               -8.24234798
              15.29804554                8.40843233               66.40680842                0.68769568               -0.92151511               -1.45306997                4.12304099               -0.13617688                0.19893920                7.61173449
              16.28883039                6.92196727               65.81359483                0.13632579               -1.11046630               -0.37325162                1.95583715               -0.25728817                7.26958988               -7.85107885
              17.27583621                5.42959675               65.36229971                0.00164103               -1.06705997                0.38611520                1.14968493               -3.66761230               18.73406274              -17.80841268
              18.26748919                3.88775429               65.00021985                0.00010000               -0.15235510               -0.87420171               -0.36378900               -7.07566421               23.00632841              -19.60479892
              19.27278911                2.34723915               64.63623309                0.00010000                0.97224631               -1.33071969               -2.33715943               -7.99272216               22.89642924              -22.74105301
              20.28693411                0.79808426               64.27368649                0.00010000                1.76861245               -1.19470488               -4.38171877               -8.63850782               23.02168073              -26.75578577
              21.30816136               -0.75476496               63.91409574                0.00010000                2.49129074               -0.68311121               -6.54537517               -8.18667166               23.65989162              -30.94611135
              22.33675993               -2.30463429               63.56601766                0.00010000                3.42297982                0.15420945               -8.89245995               -6.34614343               27.95937400              -34.19150069
              23.37662095               -3.84086690               63.29302500                0.00028336                3.69514213                1.49622629              -12.29482096               -3.75637553               41.55866471              -35.26153472
              24.41066277               -5.36779554               63.21529206                0.10409009                2.90482476                4.00169432               -8.37901663               -1.34631437               28.01546955              -35.87849957
              25.43471745               -6.88524314               62.66526659                0.59670974                2.40546794                6.36619483               -9.39908347                0.08372999                4.82668357              -47.89017736
              16.77772309                9.39476364               66.23440899                0.66810863               -0.72094672               -1.27576515                3.63707889               -0.11461783                0.10649966                7.21428892
              17.77051362                7.91944695               65.56935433                0.11316192               -1.14189681               -0.15736386                1.16270680               -0.64329916                9.41199373               -6.96566279
              18.75488515                6.42968040               65.09080827                0.00010000               -1.52269297                0.03773459                2.12192623               -4.27033396               26.93123017              -16.01390578
              19.74005976                4.88574383               64.78080060                0.00010000               -0.78981094                0.14837023               -0.79834209               -7.55595664               34.56885930              -18.69579565
              20.73908894                3.34074565               64.45679569                0.00010000                0.54327297               -0.00511340               -3.35307713               -8.24510688               33.47505264              -21.94519501
              21.75092522                1.79308317               64.12771810                0.00010000                1.74131769                0.23595445               -5.99609071               -8.67358121               33.04362719              -25.75104626
              22.77391529                0.24539104               63.79815844                0.00010000                2.87835177                0.84894159               -8.84808656               -8.34001738               33.41145794              -30.08090179
              23.80849226               -1.29511496               63.47939467                0.00010000                4.02519384                1.87811218              -12.06544683               -6.91206360               35.22350722              -35.26803470
              24.85441917               -2.81885769               63.18798334                0.00097498                4.83341894                3.39144972              -15.06591807               -4.13682460               35.80371846              -44.76253144
              25.90516064               -4.31007148               62.88024911                0.10794415                4.81097504                6.87681591              -19.35725664               -0.77476752               22.21787398              -65.47233982
              26.95063867               -5.79448056               62.30828638                0.60047888                4.54780296                9.68029437              -20.36524469                2.07948203                9.90613924              -77.49693528
              18.24638655               10.38291703               66.06374600                0.65853242               -0.53389069               -1.10073985                3.17619692               -0.10971032                0.11517506                7.33726028
              19.24104765                8.91882000               65.32833480                0.10324140               -1.11269474                0.03808734                0.37350693               -1.14181875               13.03236693               -6.70417137
              20.22413266                7.43035145               64.85157310                0.00010000               -1.78714259                0.25600678                2.25962208               -5.00556308               35.77281902              -13.72974274
              21.20530480                5.89072170               64.57640093                0.00010000               -1.17925151                0.81087710               -1.12526240               -8.08261830               45.17575178              -17.09694285
              22.20054763                4.34713688               64.29037183                0.00010000                0.17561526                1.15517440               -4.26205227               -8.63929735               44.00523509              -20.35631085
              23.20881710                2.80280335               63.99480946                0.00010000                1.45057528                1.65333320               -7.45412150               -8.82918154               42.97750961              -24.03412934
              24.22955914                1.26221387               63.69202587                0.00010000                2.69751421                2.49996711              -10.94758623               -8.36818686               42.16378102              -28.43915332
              25.26276739               -0.26707205               63.38393064                0.00010000                3.96409265                3.77096423              -14.88930123               -6.85543512               41.18425573              -34.28295668
              26.30884099               -1.77303790               63.06397035                0.00434002                5.40114539                5.67315529              -19.66128036               -3.22551580               39.12562590              -42.67229651
              27.37079029               -3.23025923               62.71310710                0.11132498                6.81421288                8.51883897              -25.89365177                0.06497812               23.06071747              -51.84025220
              28.44512525               -4.69163726               62.06214538                0.60223256                7.43349529               10.46392101              -27.99761845                2.26799902                8.93545491              -65.57385612
              19.70372294               11.37274884               65.89459827                0.65082278               -0.34801171               -0.93859017                2.72419180               -0.10860644                0.11860051                7.41357603
              20.70024283                9.92020870               65.08921445                0.09614025               -1.04253761                0.24391016               -0.40821888               -1.56690406               17.37556553               -6.54137015
              21.68287219                8.43480053               64.62917500                0.00025628               -1.93104319                0.63184775                2.28065102               -5.57718442               45.50008996              -12.16764534
              22.66162196                6.90196137               64.39110491                0.00010000               -1.43254281                1.40025259               -1.49195829               -8.35715442               55.96072545              -15.16747804
              23.65422134                5.36384914               64.14298354                0.00010000               -0.11786823                2.06803540               -5.03168562               -8.78262717               54.65693161              -18.15863153
              24.65926460                3.82614983               63.88242367                0.00010000                1.11028054                2.87448841               -8.68974658               -8.68394788               53.09821789              -21.48137244
              25.67642695                2.29539038               63.60752242                0.00010000                2.36853674                3.99490217              -12.74874000               -7.88834489               51.29483436              -25.46485710
              26.70663533                0.78030433               63.31533055                0.00010000                3.83345404                5.51710781              -17.51119600               -5.92664441               49.14337071              -30.40492919
              27.75309603               -0.70539458               63.00033895                0.00775073                5.92121092                7.47496615              -23.39979882               -1.84732831               46.57365498              -36.14679061
              28.82505955               -2.13969470               62.65558879                0.11703828                8.28293416                9.50887890              -31.11406760                1.02879799               27.35570371              -41.66227000
              29.91875471               -3.58520214               61.94652061                0.60609544                9.36951586               10.89275008              -33.47369750                2.13102346               10.12137220              -54.23176489
              21.14929471               12.36414522               65.72614463                0.64391745               -0.16368331               -0.78621314                2.27413416               -0.10775309                0.12677405                7.41957694
              22.14765788               10.92369820               64.85126343                0.09129976               -0.92292039                0.45776283               -1.18391463               -1.93673744               22.40550350               -6.45003073
              23.13083630                9.44298840               64.42206439                0.00121075               -1.92723910                0.96913896                2.25970950               -5.97704121               56.16832454              -10.56590515
              24.10911310                7.91872675               64.22570573                0.00010000               -1.50648406                1.84558603               -1.79588274               -8.34341821               67.21827222              -12.99642231
              25.10070662                6.38849759               64.01963906                0.00010000               -0.27580975                2.70026293               -5.62060466               -8.52041600               65.77509074              -15.42036223
              26.10359690                4.86029312               63.79845445                0.00010000                0.84655596                3.76033276               -9.62802016               -8.05272262               63.79151304              -18.13548305
              27.11763774                3.34211192               63.55787018                0.00010000                2.07112807                5.13951974              -14.15614627               -6.86650075               61.39657189              -21.31960610
              28.14501946                1.84327011               63.29413658                0.00010000                3.71278556                6.83238582              -19.56056556               -4.59456810               58.73842700              -25.00959609
              29.19189345                0.37646142               63.00446276                0.01141660                6.30771742                8.67771167              -26.31408559               -0.51472767               56.21893368              -28.97723586
              30.27117381               -1.04008165               62.69040858                0.12389738                9.34335679               10.27885870              -35.06396314                1.70260419               32.88727290              -32.48445161
              31.37876059               -2.47378226               61.92391547                0.61094847               10.75867775               11.46817033              -37.52721976                1.96271038               11.38003568              -44.95794676
              22.58246193               13.35702458               65.55769273                0.63827966                0.02029693               -0.64058226                1.82780905               -0.10817643                0.13057105                7.34936981
              23.58266490               11.92936396               64.61369400                0.08861691               -0.70795554                0.67883766               -1.96212274               -2.29934553               28.18668149               -6.42004847
              24.56830282               10.45418331               64.23082687                0.00232718               -1.67102435                1.17948606                2.19899337               -6.21227914               67.93374869               -8.79250376
              25.54924441                8.93887309               64.08257761                0.00010000               -1.30280859                1.99916446               -1.99151476               -8.01419560               79.11922878              -10.46449143
              26.54224665                7.41785440               63.92476050                0.00010000               -0.23242973                2.95689074               -5.96357951               -7.75133574               77.54465329              -12.18122574
              27.54459582                5.90135649               63.74952296                0.00010000                0.69366456                4.24570289              -10.18590373               -6.87232608               75.23740261              -14.15051304
              28.55611994                4.39818078               63.55165385                0.00010000                1.78993259                5.85257375              -15.03162306               -5.39252946               72.48324651              -16.42739224
              29.58039447                2.91695204               63.32787802                0.00010000                3.50166456                7.69647142              -20.89915380               -3.06960513               69.59504487              -18.94315592
              30.62615323                1.46815965               63.07781951                0.01489406                6.44804200                9.50362858              -28.29598678                0.58359250               67.21717186              -21.47729273
              31.70935531                0.06588247               62.80811775                0.13075325                9.96284524               10.80285635              -37.72875781                2.04112999               39.03923993              -23.65162271
              32.82541014               -1.35583873               61.98364573                0.61566835               11.60548252               12.13702760              -40.21935600                1.63681685               12.57088141              -36.10251431
              24.00245243               14.35133358               65.38831934                0.63376813                0.20598077               -0.49956288                1.37525419               -0.11120832                0.16700464                7.29045909
              25.00451224               12.93727495               64.37596669                0.08835494               -0.26854204                0.90791824               -2.74296917               -2.75704559               34.83152107               -6.53705021
              25.99708159               11.46657812               64.05681294                0.00356750               -0.96770717                1.05583341                2.07311222               -6.36396332               80.97901695               -6.66020079
              26.98515810                9.95871004               63.96504409                0.00010000               -0.69425399                1.63842673               -2.04500411               -7.07659850               91.78751954               -7.47082644
              27.98319651                8.44763540               63.86253817                0.00010000                0.03329537                2.83625738               -6.00883134               -6.24736146               90.00898982               -8.47385509
              28.98582400                6.94520717               63.74038695                0.00010000                0.54975430                4.37293780              -10.27870772               -5.08797970               87.42275259               -9.69962777
              29.99419160                5.45916339               63.59347354                0.00010000                1.39122429                6.16285281              -15.25078134               -3.57072569               84.44322149              -11.11783416
              31.01364849                3.99719954               63.41966846                0.00010000                3.02216403                8.14399818              -21.36687856               -1.49077411               81.49449386              -12.59602700
              32.05463488                2.56653399               63.22088357                0.01892038                6.11731544               10.05332903              -29.16059005                1.37884260               79.20219778              -13.82986035
              33.13599480                1.17597548               63.00457107                0.13712849               10.01522289               11.10859034              -38.95343063                1.96283919               45.55104998              -14.61904030
              34.25493934               -0.23104170               62.12129458                0.62001774               11.89445378               12.61482233              -41.50241899                1.11615908               13.60137257              -27.09657127
              25.40835501               15.34703332               65.21909042                0.62823652                0.39244277               -0.35435394                0.92548630               -0.11224960               -0.12318702                6.34776283
              26.41227944               13.94752232               64.13557255                0.08817608                0.56167270                1.13655587               -3.54376182               -3.55256958               42.50097366               -5.90571696
              27.41958847               12.47529998               63.90433887                0.00492318                0.71878598               -0.22849944                1.88019399               -5.18925187               95.67690817               -3.75135958
              28.42665516               10.97164162               63.87751654                0.00010000                0.56069064                0.93958846               -1.94505267               -4.72011962              105.17599864               -3.95187666
              29.43080228                9.47457955               63.83673255                0.00010000                0.23265368                2.56076686               -5.73144893               -3.59742572              103.06591033               -4.36362799
              30.43130824                7.98881524               63.77425131                0.00010000                0.09553900                4.34311794               -9.84096414               -2.70657354              100.22972829               -4.93734773
              31.43271306                6.52143784               63.68550574                0.00010000                0.59500770                6.23582186              -14.68720605               -1.64159935               97.07696829               -5.60763339
              32.44320839                5.07983201               63.56953759                0.00010000                2.11205390                8.22403628              -20.75495891               -0.22450141               94.18543941               -6.26468719
              33.47495414                3.66922623               63.43183547                0.02306862                5.14896989               10.19724131              -28.64500476                1.47367379               92.23328176               -6.59421661
              34.54618779                2.28805428               63.28160739                0.14279580                9.34067718               11.14653818              -38.31098184                1.49209197               52.41805668               -5.87232822
              35.66176768                0.89645771               62.33704805                0.62293209               11.55798959               12.38258357              -40.94557563                0.35339801               14.10689231              -16.36026079
              26.79922944               16.34424650               65.03117248                0.81316737                0.59647498               -0.27868258                0.38051584                0.66339973                2.87937991                5.40318151
              27.80519419               14.96000607               63.90987751                0.54530887                3.49739050                1.24837461               -4.27555831               -4.82044337               52.61612370               -5.13556897
              28.86917725               13.46200813               63.78299648                0.46337103                4.31409712               -1.32918463                1.72738240               -4.16633489              111.36684221               -1.84137493
              29.89147613               11.97750181               63.82443903                0.44269053                1.24485626                0.58601815               -1.76018385               -1.67577252              118.86596015               -1.84003827
              30.89407438               10.49885074               63.85023716                0.43716587               -0.33209442                2.42711910               -5.15499605               -0.94440415              116.54039014               -2.02993159
              31.88483425                9.03206953               63.85302175                0.44123420               -1.18657659                4.32542888               -8.84586207               -0.39594460              113.51506896               -2.29069795
              32.87034285                7.58387983               63.82847795                0.45461527               -1.17320910                6.24419932              -13.24020254                0.24351484              110.16772747               -2.57829025
              33.86137006                6.16168026               63.77583935                0.47797742                0.27716192                8.18482546              -18.82907737                1.14611674              107.08577495               -2.81177735
              34.87588608                4.77047882               63.70151459                0.51303589                3.86175464               10.12525838              -26.28124911                1.95449340              105.52058887               -2.77344820
              35.93860516                3.39890624               63.62628386                0.57264938                8.46571704               11.08519659              -35.31220250                1.54829443               61.30123241               -1.00008568
              37.04520042                2.01660997               62.65862065                0.81180733               10.65952681               12.01522548              -37.75197659                0.11364653               18.01861574               -9.47494320
              12.76753092                6.68823153               67.82271071                0.91928892               -1.39676207               -1.56824837                5.32063880               -0.39441290               -4.20103925                4.70564511
              13.75356330                5.11143960               67.31358051                0.67629791               -1.33034045               -0.91897987                3.60737774               -0.40701931               -5.94294579               -3.41203099
              14.74092411                3.52838592               66.77036013                0.52672149               -1.18641692               -0.49925400                1.75032688               -0.46871764               -6.13771874               -0.62051320
              15.72983496                1.93051035               66.25826699                0.47082040               -0.87681383               -0.00778114               -0.00332672               -0.43082821               -3.87041129               -0.50008817
              16.72338784                0.31549958               65.76074585                0.45040844               -0.27389157                0.48206482               -1.80860539               -0.35156871               -2.52379704               -0.30342770
              17.72435713               -1.31378090               65.27525437                0.45534809                0.55445188                0.98518107               -3.65615085               -0.27022945               -1.68656697               -0.08497326
              18.73447687               -2.95005210               64.79358657                0.48661646                1.45188855                1.48422475               -5.50895335               -0.23415298               -1.77860430                0.14118235
              19.75339490               -4.58508428               64.30508567                0.55024677                2.24488082                1.96891214               -7.32052523               -0.23879130               -2.76597424                0.35459444
              20.77937449               -6.21304086               63.80234373                0.66320558                2.87034938                2.44257220               -9.09502372               -0.24790586               -4.46621938                0.44746859
              21.81080189               -7.83151205               63.27835119                0.85846332                3.36932250                2.90940983              -10.88349633               -0.25885552               -5.03512598                1.15668648
              22.84676094               -9.44096953               62.76254993                1.00000000                3.59590502                3.44357189              -12.63676270               -0.67176261               -4.53010285               -3.42200968
              14.34037872                7.67254905               67.61646106                0.75873333               -1.09628073               -1.58089197                4.66139485               -0.20640325                2.71993066                6.58268149
              15.32941591                6.10224980               67.10140893                0.24570980               -0.68385805               -0.70501039                2.95376071               -0.40927432                6.46303806               -6.22544140
              16.32670156                4.52339338               66.66176140                0.02779766                0.12769677                0.04647624                1.61197697               -1.60305560               10.48561049               -9.56135646
              17.33196985                2.93043254               66.22695831                0.01673197                0.76581073               -0.88193045                0.16440439               -3.06167017               11.50393213              -10.44439984
              18.34201778                1.32032022               65.80749328                0.01967743                1.12304133               -0.83315541               -1.29413090               -4.07287059               12.86555336              -12.37225231
              19.35443068               -0.30392909               65.39994037                0.02606543                1.28846279               -0.50937166               -2.79953225               -4.51760439               13.63109151              -14.82872374
              20.36778703               -1.93520986               64.99581333                0.03626485                1.40353456               -0.01617576               -4.29800457               -4.30424448               13.44553255              -17.34650365
              21.38250137               -3.56539516               64.58430423                0.05481981                1.61611429                0.56986059               -5.75653362               -3.43980103               12.32007317              -19.00954359
              22.40010932               -5.18861514               64.15705557                0.16177752                1.98381502                1.46177929               -7.16903119               -1.90950501               10.82363041              -16.71238014
              23.42217767               -6.80241795               63.71456118                0.38415645                2.46957385                2.63948074               -8.58911856               -0.67104868                7.90027789               -0.07666165
              24.44950079               -8.40653381               63.22734600                0.78723312                2.73231257                3.63816676              -10.14075782               -0.52432988                5.76013072               -9.63080099
              15.90400135                8.65661369               67.44858019                0.67731095               -0.94678608               -1.50298223                4.23451396               -0.13453745                0.18350794                7.97684570
              16.89453348                7.09733939               66.83339861                0.12463273               -1.16605413               -0.36995356                2.00712502               -0.39435119                7.97751807               -8.22768930
              17.88068026                5.52931544               66.37461411                0.00091210               -1.14293872                0.08503235                1.31629064               -4.00859552               19.75526056              -17.43237516
              18.87167471                3.91287174               65.99670016                0.00010000               -0.21941037               -1.04679158               -0.36176286               -7.32862129               23.46115048              -20.28789227
              19.87629206                2.29883647               65.61252847                0.00010000                0.89302071               -1.44026362               -2.41059371               -8.25432332               23.13802711              -24.32962396
              20.88953512                0.67603166               65.22913012                0.00010000                1.67829966               -1.27101089               -4.52684382               -8.97217844               23.17464328              -29.28645096
              21.90985805               -0.95037562               64.84737828                0.00010000                2.42345203               -0.76393933               -6.78389328               -8.58822731               23.63207259              -34.54785421
              22.93800416               -2.57368707               64.47504759                0.00010000                3.41745680                0.03127229               -9.27254312               -6.83308364               27.25124126              -39.09475411
              23.97820718               -4.18380528               64.16709217                0.00010000                3.86477111                1.32700955              -12.79883420               -3.99480567               43.69037514              -41.48536996
              25.01529959               -5.77872243               64.12433466                0.09189997                3.31494387                3.76866334              -10.07754662               -1.31210427               31.46851329              -44.00839621
              26.04450606               -7.36820620               63.56592148                0.58831507                2.92064747                6.10026919              -10.65994790                0.33649819                6.29725790              -56.20709342
              17.45623657                9.64248940               67.27127546                0.65825816               -0.74094284               -1.31774455                3.73636389               -0.11448538                0.11072211                7.55954311
              18.44882714                8.09485073               66.58113543                0.10196542               -1.26196338               -0.15356884                1.19526204               -1.02150006               11.18818949               -7.27424426
              19.43099730                6.52509402               66.11294567                0.00010000               -1.64753720               -0.25705551                2.17881017               -4.68272656               28.51815113              -15.41700763
              20.41587640                4.90949671               65.77281175                0.00010000               -0.86129573                0.02817211               -0.84382098               -7.62128429               34.43453046              -19.31327061
              21.41377139                3.29151495               65.42274545                0.00010000                0.41613994               -0.05597596               -3.47285616               -8.40945755               33.55205355              -23.45053354
              22.42419920                1.67065069               65.06670168                0.00010000                1.59849143                0.23047510               -6.20211405               -8.89813737               32.99051068              -28.16765098
              23.44574122                0.04951136               64.70788612                0.00010000                2.75350784                0.85979752               -9.18017163               -8.63097771               33.05193378              -33.52295704
              24.47926935               -1.56476971               64.35582713                0.00010000                3.97536787                1.87178765              -12.58909575               -7.23696552               34.71013273              -39.90309489
              25.52524857               -3.16207495               64.03243322                0.00010000                5.05335748                3.34621753              -15.97225448               -4.42959436               34.61616860              -50.55267942
              26.58033650               -4.72704468               63.67882935                0.09438449                5.49748527                6.37061475              -20.68600674               -0.96532309               22.00540529              -76.85861739
              27.63519828               -6.28452843               63.09508308                0.59070731                5.48617764                9.17302635              -22.12961540                2.07111300               11.45722724              -90.31077412
              18.99698898               10.63025880               67.09596212                0.64897833               -0.54901177               -1.13714689                3.26333375               -0.11194497                0.11740809                7.69849610
              19.99149886                9.09426802               66.33212378                0.09251498               -1.23046127                0.04523793                0.38608350               -1.62573233               15.41136988               -7.00705441
              20.97237975                7.52417433               65.87446672                0.00010000               -1.93353836                0.17068657                2.14322638               -5.43683413               37.95476844              -13.61019967
              21.95282810                5.91343518               65.56478592                0.00010000               -1.27154163                0.75277682               -1.27004390               -8.04096807               44.95157377              -17.68350982
              22.94694892                4.29771695               65.24693027                0.00010000                0.03739387                1.16475065               -4.45158138               -8.68489876               43.95947394              -21.74883407
              23.95357597                2.68064117               64.91887144                0.00010000                1.28549867                1.70943683               -7.72854711               -8.94901135               42.79233647              -26.27600243
              24.97265890                1.06682033               64.58028846                0.00010000                2.56375942                2.57897504              -11.36381065               -8.55779065               41.61743434              -31.65795272
              26.00485116               -0.53625131               64.23140081                0.00010000                3.96156880                3.84095697              -15.53760184               -7.11468221               39.98340997              -38.69431503
              27.05189027               -2.11688093               63.86154818                0.00010000                5.67977215                5.64029636              -20.64514294               -3.61126025               36.71811285              -49.04136260
              28.11844660               -3.65131014               63.44499860                0.09720219                7.45027681                8.26651854              -27.33345509               -0.18575443               21.90559900              -60.81766909
              29.20089581               -5.18474567               62.77027939                0.59197248                8.24492037               10.30237099              -30.03480260                2.24107251                9.71859257              -76.05651103
              20.52597924               11.61974646               66.92221726                0.64137281               -0.35822742               -0.96999437                2.79752514               -0.10986751                0.12189955                7.78066674
              21.52239696               10.09575549               66.08509000                0.08518513               -1.14428933                0.25551350               -0.41416125               -2.08280703               20.27694289               -6.83821329
              22.50309345                8.52850775               65.65126827                0.00010000               -2.04412731                0.66103011                1.94623681               -6.01419702               48.23371178              -12.09880941
              23.48151442                6.92455224               65.37530803                0.00010000               -1.51130106                1.42924813               -1.75951886               -8.23931294               55.78298201              -15.73141875
              24.47286743                5.31480997               65.09148687                0.00010000               -0.26994152                2.14010618               -5.30116819               -8.73450847               54.62710261              -19.40050673
              25.47611559                3.70483943               64.79379780                0.00010000                0.93052260                2.98935525               -9.03244122               -8.72320903               52.87256796              -23.49863808
              26.49147788                2.10109086               64.47736056                0.00010000                2.22806893                4.13693884              -13.24110144               -8.03298126               50.56986511              -28.40976819
              27.52067697                0.51204943               64.13597580                0.00010000                3.83021566                5.65592244              -18.25508429               -6.22231269               47.53134270              -34.56216407
              28.56808219               -1.04926902               63.75945555                0.00059316                6.19045953                7.56823572              -24.54322774               -2.38012885               43.40826479              -41.93291670
              29.64448616               -2.56171431               63.33259930                0.10243104                8.94042949                9.58145313              -32.93842718                0.71378773               25.83536028              -49.80688498
              30.74689078               -4.07848101               62.59658053                0.59548197               10.24046289               11.05598007              -36.04031394                2.24728494               11.07158872              -63.36763796
              22.04277358               12.61085891               66.74921501                0.63483051               -0.16921480               -0.81226652                2.33755677               -0.10944886                0.13157101                7.79097991
              23.04108143               11.09937829               65.83927168                0.08071764               -0.97372601                0.47343064               -1.21123471               -2.44558543               25.79607775               -6.74632551
              24.02329906                9.53739493               65.44272945                0.00073294               -1.96709029                1.07313945                1.66758637               -6.35323533               59.48260722              -10.50758817
              25.00173963                7.94202015               65.20624898                0.00010000               -1.56637447                1.95676131               -2.19612612               -8.18370483               67.19937966              -13.46190728
              25.99197157                6.34051907               64.96188238                0.00010000               -0.44543630                2.84065211               -5.97171191               -8.41299310               65.87678787              -16.46320969
              26.99283090                4.74042827               64.70014815                0.00010000                0.64088494                3.93775779              -10.03408034               -8.04387474               63.62897628              -19.86758236
              28.00478927                3.14955911               64.41328755                0.00010000                1.89669435                5.35444671              -14.71568075               -6.99307888               60.61760054              -23.90876039
              29.03076479                1.57686714               64.09368270                0.00010000                3.66310843                7.08441137              -20.40958629               -4.91788627               56.89172648              -28.70928866
              30.07805144                0.03448379               63.73317711                0.00391262                6.55847789                8.98312581              -27.68238502               -1.09116489               52.54796748              -34.17114209
              31.16193434               -1.45968108               63.32431630                0.10879659               10.06617285               10.71264728              -37.49143152                1.41305685               31.23866117              -39.74031967
              32.27937489               -2.96362607               62.52958237                0.59978970               11.74405497               12.00996654              -40.76393838                2.17483320               12.70502334              -53.02164374
              23.54675151               13.60350113               66.57624122                0.62930197                0.01977209               -0.66249957                1.87864627               -0.11028695                0.13413771                7.71960862
              24.54694923               12.10522410               65.59381686                0.07788567               -0.66823148                0.69974699               -2.00911311               -2.76931237               32.03962065               -6.71998392
              25.53338688               10.54997054               65.24951542                0.00155238               -1.61165265                1.35756323                1.32559804               -6.53265563               71.88457213               -8.75660051
              26.51471618                8.96368747               65.06050247                0.00010000               -1.35937200                2.18851171               -2.52380997               -7.84062091               79.39879672              -10.79244682
              27.50619944                7.37162301               64.86322491                0.00010000               -0.42590623                3.16611745               -6.39203480               -7.62070631               77.90739412              -12.97140848
              28.50619806                5.78359458               64.64540920                0.00010000                0.44889981                4.48923271              -10.64467413               -6.83878999               75.27358640              -15.52466617
              29.51517744                4.20817979               64.39806216                0.00010000                1.55982514                6.14789401              -15.64585751               -5.49491692               71.80038966              -18.54616543
              30.53739456                2.65373766               64.11354289                0.00010000                3.38148354                8.07902598              -21.84695873               -3.35655801               67.67893217              -22.04679714
              31.58280711                1.13039349               63.78542329                0.00729742                6.67312945               10.03717292              -29.90436239                0.10168304               63.28234764              -25.91263555
              32.67085715               -0.34746137               63.41175028                0.11514710               10.77351584               11.59176967              -40.88196803                1.86801765               37.47054902              -29.86201808
              33.79827743               -1.83828168               62.55895603                0.60453171               12.74202790               13.05310281              -44.21509630                1.93359785               14.41475630              -43.04654919
              25.03712190               14.59760892               66.40228407                0.62496466                0.21038706               -0.51669536                1.41462047               -0.11279322                0.17500665                7.65997368
              26.03922577               13.11337323               65.34817616                0.07740329               -0.14696627                0.93373848               -2.81124563               -3.15116232               39.11958946               -6.85084189
              27.03418258               11.56454620               65.07287309                0.00238990               -0.79755155                1.30981832                0.94506903               -6.60564798               85.61893462               -6.66382272
              28.02327474                9.98579038               64.94176930                0.00010000               -0.72661234                1.90153369               -2.70681683               -6.91603028               92.53299991               -7.63497517
              29.01965033                8.40384142               64.80028180                0.00010000               -0.18882139                3.11191567               -6.49997276               -6.12586650               90.79395630               -8.97679089
              30.01949832                6.83021293               64.63523160                0.00010000                0.25487628                4.67757548              -10.77157596               -5.04991437               87.84192836              -10.64407317
              31.02474786                5.27251699               64.43760468                0.00010000                1.09608043                6.53001229              -15.89476117               -3.63887178               84.06419270              -12.63771430
              32.04141992                3.73844766               64.20041184                0.00010000                2.82681327                8.63156639              -22.37620501               -1.68245195               79.74271515              -14.90656584
              33.08128412                2.23522725               63.91903698                0.01089328                6.32749725               10.77483863              -30.96234649                1.08749607               75.27388073              -17.24141057
              34.16796987                0.77215432               63.59232794                0.12148425               10.92016729               12.20181675              -42.77936307                1.92529164               44.20948875              -19.39117672
              35.29968747               -0.70256401               62.68022981                0.60882164               13.17175994               13.88874911              -46.14496770                1.40225485               15.96412212              -32.60956965
              26.51296704               15.59316723               66.22850013                0.61961094                0.40216717               -0.36555314                0.95330029               -0.11496487               -0.13149008                6.67234000
              27.51698871               14.12389887               65.09965178                0.07743471                0.79448648                1.16684864               -3.63515977               -3.83712052               47.19522102               -6.19885959
              28.52885677               12.57616691               64.91714975                0.00327459                1.00558202                0.09442137                0.54158194               -5.28600132              101.05958343               -3.72872822
              29.53710035               11.00171814               64.85478081                0.00010000                0.52014001                1.27580446               -2.69995407               -4.60370507              106.57688454               -3.97967469
              30.53925957                9.43386132               64.77713686                0.00010000               -0.02880743                2.88537261               -6.25588271               -3.52103180              104.47763248               -4.58750040
              31.53652420                7.87714609               64.67353334                0.00010000               -0.25471473                4.69169669              -10.33898693               -2.68289916              101.29626019               -5.40564786
              32.53416527                6.33878004               64.53543309                0.00010000                0.22555294                6.65300681              -15.32266646               -1.67577830               97.32882200               -6.39855624
              33.54103526                4.82636898               64.35660048                0.00010000                1.83425484                8.77677399              -21.75874532               -0.30343939               92.96598602               -7.51941902
              34.57085037                3.34589027               64.13516501                0.01479173                5.30594886               11.00799421              -30.49143784                1.38964401               88.78899235               -8.57096773
              35.64715424                1.89657497               63.87394099                0.12665292               10.24544027               12.48020031              -42.62583545                1.52951906               51.66983161               -8.56222278
              36.77575918                0.43949331               62.90028606                0.61184472               12.86049381               13.89670568              -45.98083535                0.50861862               17.13285316              -19.63092727
              27.97335932               16.59029786               66.03505695                0.80887241                0.61243645               -0.28693685                0.39197807                0.68046177                3.02656522                5.68216001
              28.97948368               15.13671020               64.86651506                0.53967359                3.86419815                1.28113270               -4.38832435               -4.94366465               57.82683250               -5.39877306
              30.05064328               13.56643463               64.79367485                0.46123199                4.70112750               -0.97322848                0.30533747               -4.09153535              117.51843131               -1.79570501
              31.07350623               12.01130647               64.80354314                0.44245067                1.15792342                0.95883258               -2.51757470               -1.60369959              121.08657585               -1.86397753
              32.07380175               10.46154887               64.79653242                0.43724184               -0.62923076                2.76875529               -5.66331585               -0.90876267              118.86456160               -2.16463278
              33.06092162                8.92404686               64.76253270                0.44091608               -1.58961739                4.69007670               -9.31121592               -0.35884617              115.59417841               -2.56392357
              34.04200940                7.40557712               64.69334672                0.45367733               -1.63403543                6.67970867              -13.82030495                0.28122632              111.54831895               -3.03438255
              35.02824091                5.91398314               64.58296328                0.47580222               -0.15691898                8.76141512              -19.74049349                1.21106492              107.08164933               -3.53459821
              36.03887102                4.45538713               64.42966555                0.50871947                3.83581526               10.94968643              -27.96132510                2.19082424              103.41816787               -3.96923131
              37.10495721                3.02175832               64.25029223                0.56474160                9.25760718               12.51833554              -39.57680713                1.77944597               61.73269557               -2.58388861
              38.22402316                1.57537010               63.25655082                0.80637631               11.90659515               13.58767980              -42.58782919                0.18757684               22.10837790              -11.43317782
              13.24237601                6.94569980               68.87661328                0.91366252               -1.43393643               -1.60906136                5.45872712               -0.40638007               -4.37145920                4.87993114
              14.22803665                5.29199262               68.35010987                0.66861120               -1.37290594               -0.94075650                3.69799182               -0.42996758               -6.18463765               -3.56747567
              15.21491789                3.63160528               67.78807474                0.52348708               -1.21948757               -0.51282941                1.79399951               -0.47487559               -6.39973246               -0.59250889
              16.20364690                1.95595639               67.25821681                0.46970347               -0.87853425               -0.00496906               -0.00519093               -0.43168286               -4.10634414               -0.50295154
              17.19734721                0.26314100               66.74241085                0.45044424               -0.24550979                0.49913782               -1.85474385               -0.35373467               -2.81043440               -0.30078619
              18.19873670               -1.44362859               66.23822182                0.45574794                0.60325534                1.01556322               -3.74663010               -0.27880656               -2.00388637               -0.08893979
              19.20941232               -3.15694783               65.73778598                0.48666071                1.51202760                1.52793242               -5.64215290               -0.24297545               -2.08359745                0.13777201
              20.22897725               -4.86861739               65.23095307                0.54861195                2.31366173                2.02654507               -7.50149841               -0.24892372               -3.03581513                0.34727000
              21.25568555               -6.57291662               64.71021722                0.65881873                2.94709424                2.51383560               -9.32277791               -0.25635105               -4.72883152                0.44634005
              22.28791914               -8.26757547               64.16805708                0.84816343                3.45566714                2.99533921              -11.15926654               -0.26530303               -5.29152919                1.16835708
              23.32479889               -9.95323602               63.63444921                1.00000000                3.68797551                3.54439913              -12.96308385               -0.67575970               -4.77519334               -3.56494762
              14.89201939                7.92960918               68.66367706                0.74796370               -1.12351539               -1.62724739                4.78123582               -0.21727032                2.89208223                6.87779759
              15.88078423                6.28258506               68.13131424                0.23266462               -0.69160652               -0.71528180                3.02707335               -0.44110101                6.82062607               -6.52793876
              16.87818726                4.62647698               67.67804747                0.02854976                0.13889887               -0.09201462                1.64238613               -1.69781894               10.97462029               -9.57490302
              17.88356221                2.95590670               67.22852826                0.01774936                0.77075470               -0.99066915                0.15061852               -3.15968368               11.93299787              -10.79329999
              18.89360235                1.26813237               66.79425260                0.02075183                1.12154204               -0.88732506               -1.35456887               -4.18035853               13.26806812              -13.18816271
              19.90599305               -0.43347296               66.37140995                0.02740217                1.29373061               -0.53887441               -2.90521552               -4.64802058               14.01155507              -16.13119091
              20.91947696               -2.14166851               65.95205162                0.03818106                1.42396784               -0.04234990               -4.45282661               -4.47029816               13.84458589              -19.21267556
              21.93447241               -3.84835194               65.52572201                0.05752727                1.65620575                0.52825554               -5.95786645               -3.65080745               12.76129255              -21.59172286
              22.95260108               -5.54777826               65.08411007                0.15448136                2.04767004                1.34823355               -7.41975831               -2.19071498               11.28148577              -20.53043698
              23.97542581               -7.23762207               64.62713460                0.36912079                2.55503865                2.76719154               -8.88598559               -0.83645855                8.28727932               -2.37126420
              25.00370185               -8.91779203               64.12415403                0.77650938                2.82760419                3.80569607              -10.48586540               -0.38249123                6.08054570              -11.55808378
              16.53207886                8.91315485               68.49149870                0.66732496               -0.97320295               -1.55183015                4.34477782               -0.13687670                0.16482089                8.35478702
              17.52234683                7.27768699               67.85373733                0.11320643               -1.22194906               -0.36740771                2.06092218               -0.57834486                8.77211692               -8.60971043
              18.50763988                5.62976499               67.38862553                0.00024638               -1.17744972               -0.24946741                1.47149615               -4.30796882               20.81096393              -17.10819270
              19.49879783                3.93614300               66.99298459                0.00010000               -0.22600928               -1.22570200               -0.40503618               -7.44910564               23.85974534              -20.97043169
              20.50311969                2.24539449               66.58802121                0.00010000                0.83896700               -1.53995905               -2.49956891               -8.39556811               23.38385478              -25.92563887
              21.51557717                0.54559392               66.18314962                0.00010000                1.58828225               -1.32691088               -4.66760726               -9.17938045               23.32335025              -31.83236823
              22.53488534               -1.15779483               65.77841787                0.00010000                2.32468408               -0.81548868               -6.99540891               -8.86473265               23.56937683              -38.18778778
              23.56207086               -2.85805228               65.38056680                0.00010000                3.31280242               -0.05890688               -9.59302273               -7.22408550               26.50666507              -44.08257269
              24.60114139               -4.54595195               65.03704831                0.00010000                3.95664387                1.17054893              -13.16781778               -4.15200552               45.04561027              -47.91163374
              25.64120373               -6.21223163               65.01374113                0.07916444                3.81737972                3.48571524              -12.40202841               -1.19885406               34.41055454              -52.50657490
              26.67748898               -7.87712210               64.45206763                0.57977543                3.62852456                5.63690365              -12.43742105                0.68964842                8.33955421              -65.11678521
              18.16021758                9.89857258               68.30913627                0.64845449               -0.76103783               -1.36048530                3.83166611               -0.11694090                0.11308922                7.91246478
              19.15260720                8.27523690               67.59325957                0.09076866               -1.33228576               -0.14813267                1.23038651               -1.43306666               12.94376103               -7.58663357
              20.13357186                6.62148764               67.13438447                0.00010000               -1.68283053               -0.49700690                1.97614099               -5.04591170               30.14242139              -14.96612974
              21.11895059                4.93139266               66.76392418                0.00010000               -0.86658970               -0.07938963               -0.97629664               -7.55397759               34.34406160              -19.97249671
              22.11624007                3.23733319               66.38733857                0.00010000                0.33220899               -0.09878562               -3.62576392               -8.44359688               33.65117808              -24.97251670
              23.12559477                1.53998883               66.00367582                0.00010000                1.47942220                0.22966299               -6.40059354               -8.97915096               32.93679665              -30.59838720
              24.14582851               -0.15797828               65.61455501                0.00010000                2.62765215                0.86876045               -9.46097421               -8.75128955               32.65148099              -36.98414102
              25.17814781               -1.84953008               65.22761276                0.00010000                3.89559047                1.84726305              -13.00011720               -7.36419946               34.02475968              -44.56149855
              26.22374032               -3.52436728               64.86853825                0.00010000                5.22355332                3.25322317              -16.73111993               -4.49568093               33.21518909              -56.40990856
              27.28261888               -5.16790777               64.46652897                0.08018079                6.17677121                5.59245383              -21.59740700               -1.08596694               21.48709812              -87.56367670
              28.34727575               -6.80505396               63.86569408                0.58003921                6.46568677                8.14285882              -23.65187544                1.85770837               12.50109700             -103.02013483
              19.77641139               10.88594514               68.12901268                0.63955141               -0.56409531               -1.17316454                3.34489265               -0.11218778                0.11969092                8.06898762
              20.77077044                9.27472433               67.33605647                0.08134005               -1.29227517                0.05298153                0.40268185               -2.09984126               17.67187383               -7.31312845
              21.75056589                7.61982485               66.89443762                0.00010000               -1.94488574                0.15369899                1.70132641               -5.82062925               40.12499690              -13.60518313
              22.73187273                5.93455521               66.55100006                0.00010000               -1.24571533                0.72386382               -1.55080111               -7.91468237               44.85235370              -18.32656530
              23.72565158                4.24341878               66.20134020                0.00010000               -0.02835470                1.17768510               -4.69017565               -8.61672374               43.97189402              -23.15983046
              24.73130563                2.55018718               65.84023851                0.00010000                1.18634323                1.74557679               -7.99553325               -8.92954549               42.62258663              -28.52312746
              25.74937845                0.85958038               65.46474965                0.00010000                2.49351171                2.60871094              -11.70989566               -8.57382362               41.03487083              -34.87113098
              26.78117587               -0.82110702               65.07317860                0.00010000                4.01135044                3.81546177              -16.02412316               -7.17242345               38.69368404              -43.08312402
              27.82960546               -2.48088748               64.65106749                0.00010000                5.94976001                5.43427225              -21.27772795               -3.91890173               34.19411937              -55.27931653
              28.90017107               -4.10038256               64.16643800                0.08283053                7.96650312                7.63788316              -27.94546012               -0.56772702               20.40660177              -69.56169269
              29.98893552               -5.71426492               63.46144933                0.58107706                8.87644537                9.65980384              -31.19964125                1.85917796                9.89829953              -86.45475887
              21.38041544               11.87510929               67.95054877                0.63208918               -0.36847717               -1.00021451                2.86622780               -0.11120594                0.12609414                8.15976413
              22.37673067               10.27629654               67.08093123                0.07426708               -1.15435213                0.26602496               -0.41527239               -2.56265629               22.95528212               -7.13906089
              23.35732840                8.62456162               66.66809973                0.00010000               -1.98338314                0.73823231                1.25790665               -6.37406708               50.91253832              -12.17510446
              24.33706301                6.94586993               66.35591453                0.00010000               -1.45273888                1.48694735               -2.18359830               -8.07998439               55.79894491              -16.34859307
              25.32827362                5.26088689               66.03696017                0.00010000               -0.31103716                2.20382831               -5.63489930               -8.61389737               54.69303664              -20.65760611
              26.33084227                3.57490036               65.70177485                0.00010000                0.86863099                3.05714405               -9.37115554               -8.66126678               52.68362086              -25.51214112
              27.34564624                1.89419593               65.34270039                0.00010000                2.21624689                4.18273642              -13.64983250               -8.05222262               49.83253516              -31.33249622
              28.37516720                0.22677916               64.95022886                0.00010000                3.94957924                5.63121347              -18.78255793               -6.40446008               45.84670817              -38.66985608
              29.42463783               -1.41568184               64.50947440                0.00010000                6.47372868                7.39791592              -25.20384184               -2.96577603               40.08036541              -47.66725821
              30.50464178               -3.01515011               63.99682025                0.08749408                9.37931031                9.31717708              -33.61344316                0.15973332               23.85964789              -57.94151640
              31.61222403               -4.61185788               63.22571434                0.58412050               10.75822569               10.88371453              -37.43033037                1.99889297               11.28571773              -72.67994524
              22.97181279               12.86594085               67.77289576                0.62579299               -0.17477961               -0.83808017                2.39519078               -0.11070346                0.13477729                8.17360003
              23.97006499               11.28004483               66.82703874                0.06980435               -0.91508176                0.48816324               -1.23145463               -2.89494549               28.84090348               -7.04719182
              24.95351115                9.63458949               66.45541612                0.00010000               -1.80586152                1.21730204                0.73143403               -6.68852140               62.66911990              -10.63382979
              25.93394776                7.96429416               66.18178320                0.00010000               -1.45839715                2.08169471               -2.76263026               -8.03231529               67.44887406              -13.97805719
              26.92434321                6.28749535               65.90020482                0.00010000               -0.45882515                2.95699579               -6.39987127               -8.28749568               66.10921945              -17.52250017
              27.92477126                4.61133006               65.59777284                0.00010000                0.60559962                4.04396767              -10.44392824               -7.99361067               63.52816180              -21.59094308
              28.93645520                2.94323510               65.26355656                0.00010000                1.90965905                5.43722056              -15.18644585               -7.07325056               59.84417127              -26.46713363
              29.96296444                1.29151725               64.88594486                0.00010000                3.78820002                7.12539037              -21.00892177               -5.23597408               54.95451232              -32.36592532
              31.01221920               -0.33292917               64.45081506                0.00010000                6.82886674                8.98644518              -28.47892634               -1.83006496               48.58550826              -39.36447448
              32.09954177               -1.91403902               63.94057995                0.09287230               10.50548625               10.78902865              -38.52253447                0.84651539               29.01860083              -47.25074336
              33.22232893               -3.49659063               63.10863670                0.58795887               12.27871532               12.22203610              -42.65819479                2.09832480               13.25324679              -61.56002123
              24.54999342               13.85834769               67.59526566                0.62046140                0.01897066               -0.68333571                1.92417964               -0.11100842                0.13911529                8.10136030
              25.55018312               12.28605980               66.57351174                0.06731375               -0.53423840                0.71891787               -2.04872959               -3.15950072               35.41726077               -7.02569123
              26.53930865               10.64890766               66.25733883                0.00053925               -1.33361363                1.55389210                0.15605690               -6.80999922               75.59437947               -8.91076561
              27.52351085                8.98750383               66.03210141                0.00010000               -1.19104217                2.37190188               -3.22675391               -7.72096100               80.02589068              -11.18567876
              28.51548780                7.32002681               65.79691981                0.00010000               -0.41402768                3.33461445               -6.91008611               -7.52269894               78.43701330              -13.78480960
              29.51523030                5.65577972               65.53662947                0.00010000                0.42531207                4.64357547              -11.12158407               -6.82590130               75.40063718              -16.89025628
              30.52399405                4.00294035               65.23873670                0.00010000                1.56908479                6.29015364              -16.17967268               -5.63263698               71.13964952              -20.63224257
              31.54661199                2.36928697               64.89093885                0.00010000                3.47993752                8.22466896              -22.53791114               -3.73936166               65.65285701              -25.11323481
              32.59359280                0.76404706               64.47973227                0.00010000                6.93107796               10.24466120              -30.89460559               -0.63396577               58.84052480              -30.38971576
              33.68523355               -0.79936953               63.99047839                0.09874551               11.28504819               12.00001258              -42.48148746                1.39928763               35.13171544              -36.49322091
              34.81929376               -2.36741716               63.09934380                0.59216253               13.40602089               13.60137490              -46.82272187                1.99969388               15.42258536              -50.62165756
              26.11416839               14.85227414               67.41661175                0.61624683                0.21466139               -0.53202204                1.44753235               -0.11366970                0.18304592                8.04261826
              27.11631501               13.29442319               66.31974178                0.06651757                0.08493733                0.95732139               -2.87115032               -3.46278374               42.82918484               -7.17291240
              28.11586714               11.66566734               66.07571432                0.00101216               -0.39528101                1.55079995               -0.42495376               -6.81742663               89.94938787               -6.83407715
              29.10840939               10.01173220               65.91090776                0.00010000               -0.51268989                2.13852334               -3.52933810               -6.83924051               93.70262018               -7.88563247
              30.10561334                8.35418764               65.73253871                0.00010000               -0.15348454                3.32760575               -7.09711643               -6.07080109               91.79118426               -9.50963428
              31.10533970                6.70420157               65.52495543                0.00010000                0.23409348                4.88107355              -11.30647066               -5.07212733               88.38518512              -11.58312046
              32.11029521                5.06903818               65.27557832                0.00010000                1.08653950                6.73921602              -16.48467222               -3.79813141               83.73265954              -14.12733006
              33.12707049                3.45601063               64.97214436                0.00010000                2.89505864                8.88026070              -23.15378653               -2.04449567               77.86059187              -17.18166809
              34.16819638                1.87196406               64.60163664                0.00308127                6.59606306               11.15656239              -32.16576260                0.48756444               70.66210982              -20.69888379
              35.25899175                0.32596124               64.14898381                0.10446412               11.51108342               12.91075320              -44.96549314                1.63513103               42.00495098              -24.66484054
              36.39841805               -1.22456313               63.19839522                0.59615681               13.94263054               14.74676559              -49.36079207                1.56960475               17.59337269              -38.77173383
              27.66342192               15.84770725               67.23815643                0.61121356                0.41123314               -0.37490357                0.97365982               -0.11629533               -0.14113880                7.00510108
              28.66753425               14.30520623               66.06286936                0.06628692                1.11145948                1.19404291               -3.71516404               -4.04928297               51.24728545               -6.49714583
              29.68565111               12.67992366               65.91517051                0.00148682                1.53357438                0.36882422               -0.95087651               -5.41406354              106.12195274               -3.83151588
              30.69820574               11.03027429               65.82351746                0.00010000                0.79756479                1.54827023               -3.61060586               -4.57020145              108.47357445               -4.08003936
              31.70160240                9.38657893               65.71161489                0.00010000                0.03657352                3.12896690               -6.90755176               -3.50551996              106.14514316               -4.83517291
              32.69893721                7.75340119               65.56747157                0.00010000               -0.26900219                4.92953844              -10.91543933               -2.71452221              102.51726466               -5.87132365
              33.69622236                6.13772467               65.37905242                0.00010000                0.19294939                6.91633735              -15.95525802               -1.79627905               97.66063364               -7.16790167
              34.70279620                4.54689218               65.13436268                0.00010000                1.85855594                9.11260285              -22.59971655               -0.54663078               91.64645370               -8.74828552
              35.73339348                2.98717831               64.82200671                0.00678912                5.58335833               11.50645260              -31.84015848                1.03387294               84.48620029              -10.53445692
              36.81446336                1.45884553               64.42909068                0.10974939               10.91705561               13.42823695              -45.40428864                1.38609453               49.96427479              -11.73345845
              37.95173459               -0.07248184               63.41743134                0.59923484               13.72712284               14.99900165              -49.71823828                0.68890036               19.61052902              -23.53334555
              29.19684452               16.84477607               67.03901204                0.80477283                0.62684144               -0.29311777                0.39603460                0.69505846                3.17813686                5.96465566
              30.20311294               15.31830405               65.82211102                0.53425637                4.28366392                1.30978215               -4.48589640               -5.02874369               62.38729235               -5.66350615
              31.28251780               13.67304382               65.78910323                0.45907971                5.36185749               -0.68798349               -1.20709834               -4.09365311              123.39130139               -1.88548133
              32.31035009               12.04269760               65.77408754                0.44221627                1.49291241                1.24233069               -3.43652063               -1.59940736              123.83045865               -1.95387159
              33.31237605               10.41676698               65.73697084                0.43723206               -0.52232885                3.01880496               -6.32193830               -0.91789838              121.44703358               -2.33133019
              34.29990351                8.80279234               65.66679744                0.44082920               -1.57487067                4.93911563               -9.90471691               -0.37347235              117.83613587               -2.85342555
              35.28087864                7.20736492               65.55207185                0.45280493               -1.66096435                6.96402579              -14.48354840                0.23914480              113.03710956               -3.50061425
              36.26668422                5.63826269               65.38102948                0.47381054               -0.19790730                9.13705075              -20.62711922                1.12521203              107.07018198               -4.28249978
              37.27692049                4.10209311               65.14228808                0.50473941                3.98447857               11.49147980              -29.36033800                2.16586547              100.45208937               -5.18738385
              38.34637379                2.59452597               64.83474772                0.55611513                9.89651609               13.56804425              -42.63259044                1.85723261               61.31395042               -4.69348402
              39.47485081                1.07541690               63.80686406                0.80014052               12.84770176               14.78987446              -46.45038926                0.40071463               25.94349534              -14.07812378
              13.73310855                7.21170258               69.93188525                0.90817774               -1.46994608               -1.64829994                5.59192087               -0.41837634               -4.54233145                5.05408256
              14.71840909                5.47768135               69.38754035                0.66136531               -1.41430103               -0.96177801                3.78449520               -0.45072037               -6.42443219               -3.72339723
              15.70482253                3.73659028               68.80624012                0.52006604               -1.25185565               -0.52457517                1.83777420               -0.47690333               -6.65755801               -0.56493064
              16.69337197                1.97982843               68.25816317                0.46874316               -0.88241934               -0.00296739               -0.00357458               -0.43422622               -4.33914535               -0.50234916
              17.68717414                0.20580035               67.72365097                0.45068044               -0.22338488                0.51462556               -1.89343090               -0.35588915               -3.09307917               -0.29857143
              18.68890428               -1.58193596               67.20032177                0.45622570                0.64497666                1.04552520               -3.82606856               -0.28556625               -2.31450253               -0.08919182
              19.70007367               -3.37582795               66.68074352                0.48619647                1.56715404                1.57326848               -5.76906484               -0.25773682               -2.38613161                0.12958424
              20.72024736               -5.16767674               66.15505570                0.54708571                2.38100910                2.08334003               -7.67525763               -0.26144958               -3.30715724                0.34041424
              21.74769385               -6.95189976               65.61588817                0.65389559                3.02459781                2.58447873               -9.54290647               -0.26790250               -4.98834246                0.43872822
              22.78073931               -8.72629996               65.05516586                0.83721934                3.53894739                3.07726664              -11.42001296               -0.27491924               -5.54463850                1.17600676
              23.81847280              -10.49167811               64.50328825                0.99578248                3.77334901                3.63642077              -13.26361766               -0.67781056               -5.01750283               -3.70873020
              15.46294601                8.19521958               69.71208578                0.73764624               -1.14879806               -1.67261779                4.89489225               -0.23000353                3.06550810                7.17592911
              16.45145803                6.46806357               69.16195040                0.21995258               -0.69830298               -0.72407478                3.09650970               -0.47175725                7.18098323               -6.83030864
              17.44897995                4.73134453               68.69460913                0.02934895                0.14833227               -0.28878479                1.66765958               -1.77175316               11.46718703               -9.52276572
              18.45442468                2.97979876               68.22997068                0.01879757                0.77587451               -1.08806244                0.13873518               -3.21479843               12.36410109              -11.15898677
              19.46449744                1.21094660               67.78040190                0.02185509                1.12190417               -0.92813147               -1.41316714               -4.23247382               13.66773509              -14.01403184
              20.47686276               -0.57148071               67.34183606                0.02876137                1.29346263               -0.54728034               -3.00633972               -4.71703341               14.38961562              -17.43929152
              21.49036670               -2.36009526               66.90675680                0.04010302                1.44030034               -0.04034107               -4.60677024               -4.58039523               14.24586856              -21.09214516
              22.50566877               -4.14684334               66.46514690                0.06020317                1.69798702                0.52237352               -6.15892524               -3.83500220               13.20343514              -24.20526811
              23.52432644               -5.92605497               66.00866040                0.14707879                2.11052643                1.27168123               -7.67069704               -2.52163710               11.74309332              -24.37611113
              24.54787930               -7.69552729               65.53684147                0.35411589                2.63732091                2.90258248               -9.17557052               -1.07534421                8.67839452               -5.85330775
              25.57707285               -9.45531390               65.01762869                0.76588856                2.91935583                3.97980827              -10.81411768               -0.17009445                6.39855878              -14.35671929
              17.18282050                9.17825023               69.53547575                0.65737157               -0.99715038               -1.59974322                4.44546841               -0.13974977                0.14434032                8.73752627
              18.17284899                7.46319986               68.87461706                0.10197431               -1.25841096               -0.36323280                2.11315277               -0.82197545                9.63565903               -8.99096538
              19.15765228                5.73081459               68.40404404                0.00010000               -1.16875312               -0.56925998                1.57164234               -4.54657544               21.86391923              -16.92961448
              20.14947393                3.95806718               67.98859943                0.00010000               -0.19240747               -1.38837226               -0.49308939               -7.40990079               24.18705131              -21.68824240
              21.15380413                2.18723772               67.56253710                0.00010000                0.80657717               -1.61004872               -2.60696445               -8.42014391               23.63640838              -27.54137834
              22.16560547                0.40711843               67.13577797                0.00010000                1.50121374               -1.34626211               -4.80630432               -9.25082793               23.46760362              -34.39135885
              23.18382840               -1.37663477               66.70747010                0.00010000                2.19507752               -0.82039918               -7.18021413               -8.99402527               23.48180761              -41.84416218
              24.20950702               -3.15722927               66.28318714                0.00010000                3.10583287               -0.08840691               -9.85871785               -7.48594165               25.75342967              -49.10651513
              25.24594506               -4.92646614               65.90373582                0.00010000                3.94921681                1.08813394              -13.46530992               -4.23546666               45.27585383              -54.47802771
              26.28849136               -6.66824831               65.87629409                0.06710955                4.43495431                3.22561027              -15.43270601               -1.02862326               36.52261424              -61.20762527
              27.33464415               -8.41208195               65.31717306                0.57135798                4.61527860                5.05005405              -14.96456368                1.10749380               11.04131572              -74.56640079
              18.89025175               10.16322472               69.34790878                0.63900714               -0.77975931               -1.40120879                3.91945415               -0.11884475                0.11491838                8.27223781
              19.88245416                8.46079892               68.60574316                0.07963705               -1.35353187               -0.14330332                1.26703091               -1.83014941               14.54121244               -7.89857040
              20.86318112                6.71995933               68.15246849                0.00010000               -1.63253171               -0.62295895                1.55321705               -5.32418850               31.71496218              -14.77664316
              21.84980353                4.95203131               67.75328581                0.00010000               -0.80689021               -0.15768282               -1.18733825               -7.38575194               34.36554622              -20.70718829
              22.84704331                3.17874563               67.35023017                0.00010000                0.29575807               -0.11694914               -3.81171469               -8.35465225               33.77353561              -26.52604587
              23.85571869                1.40159405               66.93868981                0.00010000                1.38952911                0.24805748               -6.59462731               -8.91180466               32.88076541              -33.04707846
              24.87483390               -0.37650325               66.51866663                0.00010000                2.50313066                0.89435515               -9.69330403               -8.68088526               32.21673732              -40.45399644
              25.90578130               -2.14861148               66.09582479                0.00010000                3.79011207                1.83496859              -13.30501154               -7.24445333               33.17386343              -49.21238174
              26.95063614               -3.90429229               65.69781082                0.00010000                5.35706699                3.15313694              -17.36278980               -4.29177008               31.67772249              -62.23011720
              28.01292264               -5.63101508               65.24688121                0.06555869                6.81269382                4.77065206              -22.18669274               -1.11575470               20.64486516              -96.81273887
              29.08689001               -7.35431282               64.62204557                0.56896478                7.39673714                6.91104218              -24.89799136                1.37997501               12.82451898             -114.65657967
              20.58529520               11.15022605               69.16285997                0.63033406               -0.57838136               -1.20830287                3.41981898               -0.11500306                0.12037572                8.44735546
              21.57951139                9.46033379               68.34017741                0.07066859               -1.26795471                0.05965454                0.42303364               -2.51865782               19.65627370               -7.61971372
              22.55993611                7.71835541               67.90849325                0.00010000               -1.82693997                0.20339196                1.02507797               -6.11202352               42.17014454              -13.75478945
              23.54297259                5.95491353               67.53376989                0.00010000               -1.13938829                0.73829617               -1.93524896               -7.73136629               44.93462891              -19.05022124
              24.53714834                4.18489874               67.15312675                0.00010000               -0.01771679                1.20237964               -4.97210070               -8.45047051               44.04378905              -24.60922077
              25.54261826                2.41207958               66.75896077                0.00010000                1.16339415                1.77341140               -8.25686644               -8.76586497               42.45660451              -30.78577901
              26.56041623                0.64125234               66.34609055                0.00010000                2.48943754                2.60686347              -11.98763263               -8.38844031               40.41384505              -38.07635199
              27.59240701               -1.12052990               65.91091835                0.00010000                4.10485172                3.72487642              -16.34855755               -6.97999570               37.35078349              -47.41029618
              28.64251326               -2.86340340               65.43599362                0.00010000                6.18948945                5.09652674              -21.56923661               -3.99216904               31.76892586              -61.22451727
              29.71619680               -4.57283526               64.88608940                0.06816892                8.31629328                6.81642460              -27.85707795               -0.89705875               18.78461792              -77.60684054
              30.80883913               -6.27386110               64.14628656                0.56996707                9.26423320                8.75227724              -31.47783384                1.29376336                9.61346987              -95.98354774
              22.26773621               12.13905866               68.97954181                0.62291972               -0.37845652               -1.03060109                2.93002245               -0.11226684                0.13010163                8.54731676
              23.26395165               10.46199201               68.07678456                0.06379696               -1.06876512                0.27600758               -0.41172295               -2.95818683               25.24016948               -7.44166178
              24.24636091                8.72402717               67.67642641                0.00010000               -1.76593878                0.85619147                0.35917753               -6.65969440               53.36317683              -12.40166212
              25.22863287                6.96679724               67.33163607                0.00010000               -1.27465325                1.56793008               -2.71371435               -7.91390669               56.05426274              -17.03840046
              26.22086785                5.20279322               66.97878888                0.00010000               -0.22925406                2.26053503               -6.02038406               -8.43584897               54.84013155              -21.95437439
              27.22404779                3.43706228               66.60637469                0.00010000                0.94033634                3.08376019               -9.70551842               -8.48675287               52.50803505              -27.53575774
              28.23967457                1.67563402               66.20436391                0.00010000                2.33946648                4.14638951              -13.97490660               -7.90458900               49.07086951              -34.23001103
              29.27083712               -0.07411395               65.76032465                0.00010000                4.17117742                5.46842734              -19.08765045               -6.39031284               44.13418413              -42.68399215
              30.32309812               -1.80236176               65.25537871                0.00010000                6.73010266                7.01699129              -25.37269609               -3.39796940               36.86998236              -53.18760944
              31.40543917               -3.49468659               64.66033044                0.07245010                9.58594191                8.72405862              -33.23803142               -0.43087956               21.67657759              -65.67997577
              32.51481696               -5.17926728               63.84797392                0.57264456               10.93777854               10.27025719              -37.52915675                1.51629108               10.86416432              -81.68936798
              23.93718317               13.12961403               68.79711882                0.61692431               -0.18040302               -0.86231521                2.44702139               -0.11073598                0.13837489                8.56723092
              24.93537914               11.46585394               67.81464259                0.05924571               -0.76230908                0.50076164               -1.24507209               -3.24325818               31.39247496               -7.35197373
              25.92193699                9.73547924               67.45735813                0.00010000               -1.47253699                1.37149325               -0.35661508               -6.96289625               65.55151982              -10.89947446
              26.90592840                7.98627213               67.15099637                0.00010000               -1.18853354                2.20260536               -3.42949639               -7.91748253               67.98690029              -14.58335375
              27.89816632                6.23010944               66.83388495                0.00010000               -0.29430037                3.03998522               -6.88674731               -8.14867705               66.44481960              -18.62213365
              28.90004240                4.47375479               66.49126958                0.00010000                0.76671774                4.07722935              -10.85523927               -7.87915969               63.45125154              -23.31948256
              29.91350068                2.72418013               66.10955863                0.00010000                2.12770683                5.39395802              -15.56627364               -7.04648275               59.04815608              -28.98816439
              30.94259653                0.98883865               65.67350427                0.00010000                4.08129185                6.96937025              -21.34652439               -5.43123430               52.97466717              -35.93003867
              31.99512651               -0.72306357               65.16359858                0.00010000                7.09440951                8.70696774              -28.65882495               -2.51064006               44.65399817              -44.39706062
              33.08448472               -2.39835409               64.55386561                0.07697735               10.65999054               10.44784726              -38.17507917                0.15241781               26.41538478              -54.58448625
              34.20832632               -4.06845596               63.67641847                0.57584168               12.38416009               11.93969634              -42.97688542                1.69888082               12.94568105              -70.08938051
              25.59304167               14.12181236               68.61472482                0.61204004                0.01796097               -0.70217551                1.96195064               -0.11353223                0.14147804                8.49167526
              26.59322128               12.47200724               67.55284227                0.05637868               -0.31784335                0.73517083               -2.07881136               -3.45137815               38.22437136               -7.33477252
              27.58668480               10.75145703               67.25263655                0.00010000               -0.87841276                1.72768709               -1.07755015               -7.05452661               78.97099247               -9.21326285
              28.57565302                9.01084934               66.99596740                0.00010000               -0.81365769                2.51947770               -4.02294292               -7.66448795               80.98053842              -11.67345914
              29.57041165                7.26359293               66.72502319                0.00010000               -0.16295557                3.44221059               -7.49496646               -7.44912291               79.09583485              -14.64354621
              30.57239391                5.51860687               66.42297752                0.00010000                0.66247063                4.69768164              -11.61264488               -6.79798640               75.56200058              -18.25892459
              31.58366106                3.78351318               66.07446871                0.00010000                1.85311110                6.27372719              -16.62940156               -5.73109861               70.45410246              -22.67423640
              32.60945613                2.06527345               65.66278467                0.00010000                3.82085006                8.12759056              -22.94935025               -4.08793447               63.54832614              -28.08528970
              33.66007806                0.37177760               65.16753117                0.00010000                7.22118938               10.10193477              -31.19071428               -1.42213687               54.29366527              -34.74368181
              34.75387992               -1.28572965               64.56212053                0.08211801               11.44601261               11.92996524              -42.34714738                0.72873196               32.21908820              -43.10729302
              35.88899831               -2.94047335               63.62250159                0.57940563               13.51183926               13.61848660              -47.51719713                1.74591753               15.37349093              -58.34259694
              27.23452276               15.11557052               68.43123472                0.60780905                0.21841393               -0.54716996                1.47364008               -0.11747882                0.18944210                8.43199162
              28.23670690               13.48055736               67.29075315                0.05589524                0.37407972                0.97897344               -2.92032506               -3.69192382               45.89810484               -7.49746983
              29.24200436               11.77003298               67.06437402                0.00010000                0.18979254                1.73453208               -1.78128544               -6.99663778               93.88887702               -7.13883820
              30.24050275               10.03666168               66.87118254                0.00010000               -0.02890081                2.30441172               -4.43259374               -6.83024471               95.23751453               -8.22840044
              31.24142634                8.29895365               66.65833947                0.00010000                0.18298295                3.45664008               -7.77290514               -6.05782928               92.93838758              -10.09094010
              32.24416241                6.56770842               66.40910218                0.00010000                0.53928877                4.96353747              -11.87852937               -5.11304575               88.97183783              -12.52579136
              33.25221212                4.84965467               66.10791123                0.00010000                1.42055110                6.77076429              -17.01624476               -3.97460917               83.37187720              -15.57254614
              34.27257343                3.15139046               65.73733611                0.00010000                3.27373801                8.86223517              -23.66858893               -2.45628190               75.86133015              -19.36115185
              35.31768688                1.47897512               65.27572173                0.00010000                6.93684386               11.13860468              -32.63606274               -0.26884662               65.76044702              -24.04965486
              36.41131031               -0.15975479               64.69301808                0.08712091               11.75226056               13.09357665              -45.24572527                1.10369156               39.05247191              -30.05609890
              37.55273209               -1.79608623               63.69301397                0.58288996               14.14217770               15.04154530              -50.60037977                1.48136222               18.10968795              -45.14958463
              28.86071841               16.11086896               68.24797333                0.60264683                0.42019301               -0.38453842                0.98587120               -0.11815880               -0.15016164                7.34666482
              29.86492034               14.49158671               67.02534850                0.05549201                1.49646556                1.21996898               -3.78407086               -4.21449237               54.62888456               -6.79997459
              30.89064772               12.78614768               66.89813222                0.00010000                2.26035584                0.54132869               -2.37413252               -5.50803461              110.77412968               -4.01657851
              31.91012746               11.05693758               66.78256869                0.00010000                1.37803009                1.72136012               -4.59013222               -4.58384543              110.75641370               -4.25639410
              32.91820832                9.33272573               66.63898583                0.00010000                0.46522594                3.26283595               -7.65726793               -3.52268922              107.97160068               -5.11894531
              33.91943197                7.61787762               66.45522455                0.00010000                0.11392573                5.03090971              -11.56574791               -2.77081716              103.77406550               -6.34091859
              34.92048684                5.91892847               66.21632793                0.00010000                0.57890318                6.99356495              -16.58163789               -1.95260132               97.94699584               -7.90777268
              35.93101004                4.24251816               65.90460615                0.00010000                2.26797681                9.18045412              -23.24341945               -0.87619513               90.17042243               -9.90270045
              36.96584637                2.59454969               65.49836184                0.00010000                6.00025321               11.60507928              -32.52483534                0.50657117               79.70949637              -12.41520485
              38.05101510                0.97614189               64.96585521                0.09185832               11.27210322               13.81646826              -46.22584532                1.05788979               47.40194874              -15.01254804
              39.19128844               -0.63964245               63.90592130                0.58556746               14.02733346               15.55142087              -51.51725573                0.71798109               21.06546795              -27.53970725
              30.47072408               17.10787975               68.04297764                0.80052340                0.64142512               -0.29892071                0.39382899                0.70826632                3.33793417                6.25619283
              31.47713833               15.50495674               66.77679713                0.52855526                4.78843561                1.33700298               -4.57507993               -5.12921029               66.29835729               -5.93281264
              32.56649280               13.78085955               66.76953289                0.45706942                6.25547285               -0.52881244               -2.63241348               -4.10888510              128.89955510               -2.04503694
              33.60224779               12.07108888               66.73481272                0.44200961                2.17698616                1.41513071               -4.43358360               -1.62042559              126.94507837               -2.10623236
              34.61003252               10.36421037               66.67009365                0.43726896                0.01477677                3.14846392               -7.10827982               -0.95569378              124.15164443               -2.53003533
              35.60254333                8.66832661               66.56443836                0.44067735               -1.07564856                5.04489994              -10.62413852               -0.42308474              120.05806288               -3.15485151
              36.58851955                6.98952597               66.40367575                0.45202035               -1.15575070                7.05974976              -15.22729042                0.13691747              114.41478875               -3.96239865
              37.57942831                5.33499954               66.17042090                0.47173156                0.28375114                9.24813835              -21.45573248                0.91936456              106.82198798               -5.00076627
              38.59419457                3.71107671               65.84245879                0.50074722                4.36159645               11.65270211              -30.32611002                1.91357166               96.93008371               -6.38555493
              39.66666024                2.11657458               65.39764042                0.54737802               10.22329029               14.04326912              -43.97885716                1.75778795               60.18007985               -6.92013079
              40.79866038                0.51494219               64.32754303                0.79347464               13.20001345               15.45846362              -48.68393419                0.57395511               29.06848438              -16.78429661
              14.24021919                7.48638039               70.98845170                0.90278880               -1.50260554               -1.68431253                5.71507453               -0.42946964               -4.71208000                5.22225306
              15.22519313                5.66870458               70.42579978                0.65394394               -1.45376379               -0.98023982                3.86451115               -0.47184449               -6.66006396               -3.87717710
              16.21114391                3.84356866               69.82483023                0.51669688               -1.28699928               -0.53509045                1.87974628               -0.48382781               -6.90900568               -0.53742029
              17.19945315                2.00229440               69.25814532                0.46774382               -0.89084408               -0.00036986                0.00136287               -0.43521654               -4.56471204               -0.49799366
              18.19332703                0.14366771               68.70454223                0.45079890               -0.20495212                0.52979032               -1.92641837               -0.36030586               -3.36671797               -0.29681289
              19.19535410               -1.72844100               68.16170045                0.45660991                0.68143612                1.07260115               -3.89795721               -0.29488444               -2.62399901               -0.09084941
              20.20695575               -3.60638271               67.62240468                0.48628603                1.61676755                1.61447114               -5.88548175               -0.26475113               -2.68984350                0.12497404
              21.22768945               -5.48199150               67.07744792                0.54527123                2.44263946                2.14027662               -7.83870742               -0.27038564               -3.57816519                0.33288372
              22.25580854               -7.34968652               66.51935909                0.64916137                3.09684176                2.65383860               -9.75423630               -0.27476922               -5.25062372                0.43091861
              23.28962629               -9.20740655               65.93965682                0.82584333                3.61977601                3.15900885              -11.67084704               -0.28033692               -5.79617661                1.18327217
              24.32820406              -11.05609150               65.36917686                0.98718932                3.85777714                3.72802830              -13.55462016               -0.67904248               -5.25431096               -3.85411647
              16.05360031                8.46953727               70.76157491                0.72707331               -1.17197548               -1.71490071                4.99893173               -0.24031556                3.24128552                7.47297011
              17.04188055                6.65890218               70.19324444                0.20727705               -0.70447919               -0.73148290                3.16068574               -0.50104578                7.54261093               -7.13025931
              18.03951072                4.83821776               69.71140066                0.03020591                0.15854537               -0.51276641                1.69298938               -1.84097530               11.96556338               -9.44351584
              19.04505146                3.00229070               69.23130296                0.01987226                0.77904742               -1.16156893                0.12642232               -3.23297471               12.80034146              -11.56215212
              20.05509167                1.14896561               68.76598926                0.02298592                1.11895041               -0.94645262               -1.46770548               -4.23316988               14.06718011              -14.85954551
              21.06743047               -0.71771499               68.31128316                0.03012539                1.29959105               -0.53230031               -3.10386404               -4.72807338               14.76333274              -18.75577038
              22.08108349               -2.59023800               67.85991621                0.04198903                1.46035182               -0.01026026               -4.75024490               -4.63585869               14.64030365              -22.96631686
              23.09663750               -4.46058874               67.40254350                0.06279727                1.73424405                0.55655152               -6.35641876               -3.98629299               13.64208476              -26.82542920
              24.11576837               -6.32314813               66.93069613                0.14010177                2.16939549                1.25118008               -7.91481364               -2.87423815               12.20363003              -28.21678678
              25.14002541               -8.17581646               66.44362319                0.33989920                2.71651090                3.04913360               -9.46023068               -1.35352981                9.07616870              -10.86314300
              26.17009859              -10.01881122               65.90787168                0.75569637                3.00731772                4.16122530              -11.13316094                0.11818955                6.72832351              -18.45463302
              17.85668305                9.45208238               70.58040806                0.64763404               -1.01913284               -1.64520741                4.53999950               -0.13840242                0.12430553                9.12578727
              18.84649172                7.65407492               69.89600038                0.09079285               -1.28735843               -0.35985199                2.16208619               -1.08889279               10.52567989               -9.36947452
              19.83093588                5.83331333               69.42005837                0.00010000               -1.12229619               -0.83560993                1.57530954               -4.70970825               22.87381522              -16.94109791
              20.82404580                3.97906302               68.98312281                0.00010000               -0.11332814               -1.51061335               -0.62078924               -7.25631551               24.45757269              -22.48371025
              21.82866932                2.12473865               68.53588193                0.00010000                0.79752213               -1.63714954               -2.73191990               -8.34674577               23.90067116              -29.19640358
              22.83999624                0.26091299               68.08702353                0.00010000                1.42215019               -1.32102775               -4.94338594               -9.19917094               23.61605748              -36.96812599
              23.85711233               -1.60658791               67.63481359                0.00010000                2.04387437               -0.77203332               -7.34055063               -8.99143377               23.38613235              -45.49990903
              24.88087373               -3.47086047               67.18339244                0.00010000                2.82195889               -0.04600943              -10.07327159               -7.61158059               25.01663578              -54.12884920
              25.91355150               -5.32466292               66.76774212                0.00010000                3.86725255                1.09603506              -13.73500420               -4.25467127               44.05468672              -61.15715606
              26.95821878               -7.14642388               66.70508701                0.05559578                5.15029341                3.09293062              -18.91387490               -0.84740327               37.39706607              -69.95588439
              28.01655737               -8.97286700               66.15277636                0.56359857                5.83385896                4.57560823              -18.28738799                1.52262843               14.16902387              -84.34443465
              19.64684718               10.43663312               70.38752535                0.62941788               -0.79754376               -1.44115805                4.00114371               -0.11774974                0.11718578                8.63794609
              20.63887174                8.65170514               69.61860019                0.06931637               -1.32593601               -0.13931266                1.30503361               -2.16783237               15.88839314               -8.20918306
              21.62032846                6.82150556               69.16544881                0.00010000               -1.51859548               -0.62710966                1.02649449               -5.50931435               33.16582989              -14.91355920
              22.60849983                4.97207843               68.74017742                0.00010000               -0.70108371               -0.19312427               -1.45828697               -7.16984704               34.54005985              -21.54326732
              23.60630678                3.11622262               68.31110428                0.00010000                0.31368936               -0.10314984               -4.02483699               -8.17734073               33.92584141              -28.13217781
              24.61477362                1.25586446               67.87178327                0.00010000                1.33607494                0.29368679               -6.78387493               -8.72118007               32.83005930              -35.52414850
              25.63302828               -0.60567866               67.42068893                0.00010000                2.38536392                0.94719869               -9.87880024               -8.43939651               31.76966789              -43.93334153
              26.66248089               -2.46150893               66.96151253                0.00010000                3.66050359                1.85238377              -13.51109260               -6.90670174               32.16743757              -53.83717948
              27.70623835               -4.30122743               66.52128246                0.00010000                5.44002667                3.08586000              -17.87486187               -3.80937500               30.08009968              -67.94049404
              28.77128143               -6.11395785               66.02279512                0.05140575                7.35995230                4.02276411              -22.59661983               -0.93599608               19.57429482             -104.05442710
              29.85343740               -7.92729906               65.36773425                0.55797064                8.21559703                5.65013882              -25.89060871                0.87854001               12.49085303             -124.41852815
              21.42418402               11.42325922               70.19740906                0.62112691               -0.59213825               -1.24181719                3.49000285               -0.11281446                0.12351977                8.83323941
              22.41826264                9.65128867               69.34451715                0.05982244               -1.19038576                0.06464951                0.44607944               -2.83551722               21.27549026               -7.92630959
              23.40037630                7.82077114               68.91493918                0.00010000               -1.61654175                0.30789666                0.27650539               -6.33380800               43.98382851              -14.06045344
              24.38593180                5.97520053               68.51229508                0.00010000               -0.95199096                0.78985074               -2.37757459               -7.54047632               45.21913567              -19.88634180
              25.38133648                4.12267566               68.10189819                0.00010000                0.07710618                1.24092935               -5.28390724               -8.21914775               44.17391575              -26.12073207
              26.38747392                2.26678673               67.67510119                0.00010000                1.21806457                1.80059720               -8.50856340               -8.48326383               42.29590862              -33.08314354
              27.40569778                0.41235606               67.22499700                0.00010000                2.54072697                2.59031478              -12.19718410               -8.02570661               39.76969589              -41.28357416
              28.43828846               -1.43381280               66.74620745                0.00010000                4.20575757                3.60111627              -16.51781185               -6.54732921               36.01953404              -51.66345836
              29.48981293               -3.26294572               66.21968276                0.00010000                6.36410104                4.70942248              -21.56769132               -3.81812343               29.56011683              -66.75010964
              30.56557048               -5.06596860               65.60929644                0.05413849                8.54988297                5.87160067              -27.32714890               -1.13109072               17.17214795              -84.75606817
              31.66081059               -6.85986422               64.83189266                0.55925448                9.52401014                7.57609554              -31.10788241                0.64958535                9.01425463             -104.27125209
              23.18853199               12.41179677               70.00914922                0.61412582               -0.38825205               -1.05783735                2.98776986               -0.11242782                0.13292359                8.94345968
              24.18464947               10.65299813               69.07269677                0.05311263               -0.93957814                0.28294917               -0.40345988               -3.23603685               27.07539863               -7.74451063
              25.16974043                8.82766349               68.67528328                0.00010000               -1.44318413                0.98093577               -0.54557070               -6.86556111               55.52223501              -12.76782749
              26.15578579                6.98787545               68.30164025                0.00010000               -0.97013973                1.65476100               -3.29252483               -7.76975736               56.53567492              -17.83114812
              27.15033763                5.14104121               67.91655249                0.00010000               -0.01789249                2.30713539               -6.43452432               -8.21845723               55.05696701              -23.31787383
              28.15542794                3.29187640               67.50766448                0.00010000                1.13880206                3.07754263              -10.02653249               -8.21324449               52.33475440              -29.59350310
              29.17311367                1.44612763               67.06320226                0.00010000                2.57040752                4.05054783              -14.21300202               -7.59385671               48.29374546              -37.11754679
              30.20683609               -0.38948660               66.56847585                0.00010000                4.44590044                5.21346274              -19.17985258               -6.15186209               42.47030743              -46.59081233
              31.26203168               -2.20703898               66.00202047                0.00010000                6.93710151                6.49614367              -25.11373284               -3.59571730               33.98300834              -58.40835062
              32.34557812               -3.99652584               65.33205962                0.05796690                9.60943369                7.92248828              -32.12551210               -0.96395364               19.52649660              -72.72241097
              33.45422036               -5.77577715               64.47513120                0.56170067               10.86422386                9.34791549              -36.57457505                0.84118120               10.02205990              -89.89763521
              24.93953275               13.40210247               69.82183619                0.60838166               -0.18575735               -0.88657403                2.49112572               -0.11267787                0.13887582                8.96488155
              25.93767518               11.65694765               68.80213730                0.04872225               -0.56724958                0.51278276               -1.25151847               -3.48016352               33.42586789               -7.65476997
              26.92818776                9.84038986               68.44828382                0.00010000               -1.02581198                1.49815089               -1.38575186               -7.13944774               68.08316980              -11.29485484
              27.91715894                8.00829575               68.11319328                0.00010000               -0.76106875                2.29865145               -4.12697869               -7.83111499               68.76723525              -15.29134293
              28.91296639                6.16881836               67.76246988                0.00010000                0.04818337                3.08300812               -7.40083618               -7.99507147               66.85564417              -19.79049845
              29.91812261                4.32833758               67.38066805                0.00010000                1.11086264                4.04461124              -11.25311696               -7.69272493               63.37098227              -25.07803288
              30.93518364                2.49336702               66.95223109                0.00010000                2.51476138                5.24876943              -15.84738105               -6.88629244               58.22352790              -31.48722417
              31.96841784                0.67045646               66.45901437                0.00010000                4.48770880                6.66179659              -21.42611935               -5.43549490               51.02752388              -39.38921259
              33.02493782               -1.13302284               65.87763856                0.00010000                7.33058695                8.20446305              -28.28823651               -2.99383655               41.05167754              -49.18104793
              34.11502958               -2.90751883               65.17707836                0.06206930               10.55995069                9.79289877              -36.73932807               -0.54081427               23.73356942              -61.33754162
              35.23613683               -4.67290591               64.24909899                0.56431779               12.11072549               11.24562787              -41.79001274                1.05034666               11.97366015              -77.97140830
              26.67658808               14.39406529               69.63450467                0.60318554                0.01707369               -0.72185057                1.99273919               -0.11177023                0.14878288                8.88913854
              27.67675881               12.66325378               68.53193551                0.04593728               -0.04923540                0.75099560               -2.10070358               -3.64880800               40.46881146               -7.64456181
              28.67560337               10.85762651               68.23578783                0.00010000               -0.30119165                1.85025261               -2.20026875               -7.21888894               81.94744869               -9.62453384
              29.67073498                9.03384848               67.95164255                0.00010000               -0.26044952                2.61335684               -4.82486125               -7.64449305               82.18386603              -12.26513670
              30.67039438                7.20270137               67.64702048                0.00010000                0.31449041                3.47939175               -8.10825116               -7.37923954               79.83230836              -15.57064674
              31.67702479                5.37276862               67.30437658                0.00010000                1.14372857                4.65505677              -12.09674449               -6.72581314               75.70940613              -19.65279718
              32.69326895                3.55110302               66.90614867                0.00010000                2.37456314                6.11805085              -16.98050592               -5.73520499               69.71477001              -24.68485400
              33.72451605                1.74374933               66.43195184                0.00010000                4.34306458                7.82548270              -23.07567937               -4.29919936               61.43014577              -30.94501016
              34.78013024               -0.04294972               65.85591798                0.00010000                7.50644250                9.65815721              -30.82600030               -2.08158299               50.02858035              -38.86671180
              35.87464490               -1.80066786               65.14353544                0.06616698               11.29356062               11.43117009              -40.77669892               -0.00977466               29.10568395              -49.25981518
              37.00600145               -3.55086459               64.14899986                0.56711254               13.13565522               13.09656890              -46.31659575                1.20448784               14.47576022              -65.57472364
              28.39892037               15.38766546               69.44608455                0.59963444                0.22174341               -0.55838369                1.49298203               -0.11577622                0.19642307                8.83032064
              29.40113780               13.67196756               68.26133528                0.04589165                0.71474609                0.99544853               -2.95963722               -3.85381528               48.37488795               -7.82658932
              30.41321529               11.87739491               68.04008861                0.00010000                0.90282095                1.84033533               -2.95943006               -7.15472635               97.40803550               -7.53219722
              31.41919422               10.06056289               67.82225588                0.00010000                0.66230787                2.38338755               -5.32623262               -6.86216430               97.01648890               -8.66258671
              32.42646145                8.23840620               67.57708061                0.00010000                0.80052353                3.48722365               -8.48271887               -6.05699955               94.15749482              -10.73506821
              33.43520469                6.42143872               67.28738484                0.00010000                1.15186918                4.92390082              -12.45974597               -5.13132708               89.52389619              -13.48936881
              34.44949883                4.61572803               66.93525342                0.00010000                2.06409485                6.63508359              -17.46666404               -4.09804360               82.91977546              -16.98226126
              35.47648659                2.82696611               66.49877258                0.00010000                3.91122579                8.60020227              -23.89869601               -2.79665214               73.78532506              -21.42472735
              36.52772335                1.06014030               65.94891539                0.00010000                7.31311791               10.75434402              -32.37852407               -0.98287196               61.01501339              -27.17654479
              37.62274895               -0.67889543               65.24406930                0.07063784               11.64483473               12.73200437              -43.77799087                0.45915718               35.69264788              -35.15500912
              38.76062004               -2.41097453               64.18638763                0.56994682               13.78710942               14.65297652              -49.65858205                1.13760592               17.50288023              -51.22466290
              30.10566835               16.38289762               69.25787385                0.59440079                0.42847094               -0.38870770                0.99077357               -0.12129388               -0.15955393                7.69487558
              31.10995306               14.68316275               67.98718794                0.04547513                1.91225817                1.23914859               -3.84086424               -4.35386842               57.40754208               -7.10893324
              32.14391351               12.89443322               67.86768786                0.00010000                3.12636732                0.59734168               -3.57804189               -5.61842535              114.97239336               -4.26163310
              33.17248040               11.08151623               67.73171481                0.00010000                2.22325253                1.77610002               -5.55438738               -4.62453543              113.26255033               -4.49259310
              34.18837856                9.27244584               67.55846953                0.00010000                1.22980052                3.27722103               -8.45520657               -3.54738653              109.84295240               -5.44651694
              35.19707641                7.47124664               67.33615661                0.00010000                0.87010600                4.99144909              -12.25396933               -2.81815877              104.94927863               -6.82576659
              36.20578068                5.68380469               67.04741966                0.00010000                1.35471640                6.88466400              -17.16693600               -2.09001128               98.07126609               -8.62398217
              37.22417074                3.91575338               66.66949429                0.00010000                3.02768303                8.98258731              -23.64749950               -1.19065875               88.52044309              -10.97577578
              38.26633434                2.17213716               66.17151001                0.00010000                6.53860684               11.30239070              -32.50057573               -0.06009296               74.87626295              -14.11673023
              39.35494288                0.45397223               65.50457378                0.07485775               11.32887198               13.57241812              -45.10421794                0.60999892               44.17196545              -18.17944842
              40.49291178               -1.25780506               64.38708623                0.57234531               13.79689036               15.37310145              -51.01628321                0.61203348               21.19206096              -31.40254193
              31.79596422               17.37989130               69.04688862                0.79638307                0.65606146               -0.30063159                0.38312590                0.71551053                3.49623933                6.55652220
              32.80252484               15.69675053               67.73060943                0.52361726                5.32645440                1.35877779               -4.65225398               -5.27029984               69.61589861               -6.21221894
              33.90249331               13.88934174               67.73645496                0.45526677                7.30830262               -0.50914747               -3.85103290               -4.17530186              133.95127489               -2.24777443
              34.94869089               12.09608489               67.68541586                0.44177115                3.16449966                1.45686643               -5.43061238               -1.64850726              130.24617491               -2.29794095
              35.96578331               10.30395062               67.59480525                0.43731927                0.93958881                3.15047797               -7.97161382               -1.00038524              126.83107286               -2.75520156
              36.96748267                8.52126770               67.45431467                0.44047420               -0.12957175                5.00210577              -11.42394797               -0.48583995              122.09303338               -3.46438321
              37.96319187                6.75342131               67.24752604                0.45106326               -0.15708592                6.96166210              -15.99410976                0.00862693              115.47451027               -4.40704664
              38.96434095                5.00661786               66.95191483                0.46964834                1.25553844                9.08644809              -22.14719537                0.65536083              106.19354873               -5.66626026
              39.98830264                3.28618811               66.53576588                0.49695327                5.02750978               11.40509549              -30.73014944                1.49358354               93.00111111               -7.44042652
              41.06489114                1.59255293               65.95517057                0.53864508               10.40563220               13.85807065              -43.58114275                1.50979575               58.10812456               -9.14129914
              42.19641528               -0.10351250               64.83318538                0.78686465               13.15241388               15.42925534              -49.01105625                0.74380635               30.76223532              -19.50838100
              14.76417078                7.76990122               72.04618674                0.89707645               -1.53415045               -1.71785989                5.83121076               -0.43908325               -4.88136429                5.39241013
              15.74882928                5.86524849               71.46483057                0.64636957               -1.49369560               -0.99907153                3.94074745               -0.49448837               -6.89369154               -4.03110096
              16.73429687                3.95270100               70.84383505                0.51332202               -1.32317754               -0.54549395                1.92158721               -0.49117813               -7.15462603               -0.50866494
              17.72236573                2.02355328               70.25819043                0.46659587               -0.90061099                0.00249499                0.00778189               -0.43883007               -4.78053006               -0.49332165
              18.71628465                0.07697004               69.68512260                0.45082615               -0.19019407                0.54459623               -1.95599686               -0.36596230               -3.63289002               -0.29377813
              19.71856185               -1.88291836               69.12236262                0.45702207                0.71223405                1.09991654               -3.96445502               -0.30201711               -2.92374609               -0.09263437
              20.73052933               -3.84835153               68.56303388                0.48605930                1.65838978                1.65210255               -5.98670079               -0.27628388               -2.99025711                0.11926144
              21.75172964               -5.81121023               67.99828155                0.54356102                2.49715750                2.19137777               -7.98637396               -0.28010607               -3.85463975                0.32241159
              22.78047248               -7.76595546               67.42080344                0.64412879                3.16341844                2.71817317               -9.94713119               -0.28316510               -5.51357291                0.42253985
              23.81499801               -9.71056726               66.82174892                0.81403066                3.69370091                3.23469155              -11.90319493               -0.28681895               -6.05026818                1.18568762
              24.85434650              -11.64615007               66.23219585                0.97838861                3.93484898                3.81440082              -13.83029023               -0.67869580               -5.49904429               -3.99631244
              16.66443267                8.75272262               71.81206441                0.71633991               -1.19481709               -1.75428441                5.09836556               -0.24892458                3.42342219                7.77648567
              17.65248450                6.85525778               71.22516412                0.19439502               -0.70999869               -0.73969404                3.22296990               -0.52967743                7.91213682               -7.43104784
              18.65023270                4.94724606               70.72846891                0.03111854                0.16792053               -0.73782634                1.71894331               -1.89851303               12.47205482               -9.39595463
              19.65584291                3.02357823               70.23249912                0.02097741                0.78140757               -1.20173793                0.11419705               -3.21969803               13.24113207              -12.02215627
              20.66586085                1.08241600               69.75104779                0.02414165                1.11797746               -0.93877047               -1.52011807               -4.19326253               14.47298000              -15.73321209
              21.67820246               -0.87191920               69.27975878                0.03150022                1.30257886               -0.49129190               -3.19740700               -4.69066959               15.14225577              -20.07831374
              22.69191242               -2.83183051               68.81175190                0.04382466                1.47640437                0.04729336               -4.88354342               -4.63622237               15.02680840              -24.83379714
              23.70773055               -4.78929645               68.33801852                0.06521870                1.77034601                0.62174728               -6.53871334               -4.08808277               14.06938893              -29.42996649
              24.72731935               -6.73877373               67.85036413                0.13266578                2.22482885                1.28799392               -8.14554412               -3.20260734               12.66224903              -32.06025391
              25.75222712               -8.67822034               67.34763686                0.32583885                2.79115056                3.20146674               -9.73059101               -1.64159508                9.47316271              -17.51508581
              26.78314236              -10.60800606               66.79496547                0.74557112                3.09152329                4.36584282              -11.43884269                0.43639928                7.05809987              -24.22550004
              18.55412196                9.73481553               71.62627574                0.63794539               -1.04096843               -1.68699844                4.63064134               -0.13543472                0.10183354                9.52042034
              19.54371228                7.85045461               70.91785878                0.07945505               -1.30579025               -0.35796430                2.21037416               -1.35284907               11.38603804               -9.74540927
              20.52800616                5.93794448               70.43555023                0.00010000               -1.04552242               -1.02193643                1.46675855               -4.81241513               23.85107706              -17.17281536
              21.52280183                3.99951852               69.97618365                0.00010000               -0.00446671               -1.57922667               -0.77395381               -7.03217506               24.71644266              -23.38936118
              22.52791683                2.05819463               69.50789870                0.00010000                0.80965640               -1.61650943               -2.86850122               -8.20846405               24.18743669              -30.91142143
              23.53899496                0.10725580               69.03691025                0.00010000                1.36326556               -1.25236883               -5.07786787               -9.05337649               23.77898539              -39.56566202
              24.55518214               -1.84740567               68.56065909                0.00010000                1.89581259               -0.67614903               -7.47851886               -8.87227542               23.30707465              -49.14901327
              25.57691121               -3.79877528               68.08172170                0.00010000                2.50810450                0.05631881              -10.23705994               -7.59919713               24.30502276              -59.12083918
              26.60534423               -5.74019559               67.62903574                0.00010000                3.72436131                1.18654589              -13.98863549               -4.20632243               41.31432030              -67.93220555
              27.65139844               -7.64653792               67.49801660                0.04507306                5.86508514                3.09536449              -22.31620105               -0.64540022               36.72410705              -78.76562275
              28.72264593               -9.55883321               66.95142530                0.55653210                7.12474915                4.31031896              -22.28513310                1.95479355               17.18292185              -94.43159007
              20.43044580               10.71898265               71.42793165                0.62004281               -0.81472346               -1.47742790                4.07775733               -0.11704273                0.12117252                9.00861210
              21.42229857                8.84809849               70.63184383                0.05862185               -1.27626576               -0.13717979                1.34279934               -2.41982620               16.96676594               -8.51587281
              22.40492049                6.92680734               70.17299838                0.00010000               -1.36746544               -0.53163050                0.51565552               -5.61381038               34.46248126              -15.35419961
              23.39494926                4.99199370               69.72412007                0.00010000               -0.54830997               -0.18973302               -1.75898839               -6.95635288               34.87180205              -22.50023170
              24.39395429                3.05008581               69.26973343                0.00010000                0.38929819               -0.05793742               -4.25292773               -7.95282717               34.12284206              -29.80964724
              25.40273522                1.10303343               68.80301231                0.00010000                1.32718554                0.36398507               -6.96519235               -8.44983208               32.80390370              -38.03992290
              26.42049800               -0.84535349               68.32109063                0.00010000                2.29006515                1.02365961              -10.02047718               -8.08408772               31.34344249              -47.41975966
              27.44853653               -2.78817007               67.82560294                0.00010000                3.52287694                1.90064433              -13.62831406               -6.42443043               31.05740289              -58.42657742
              28.49095554               -4.71504282               67.34031358                0.00010000                5.47101110                3.05259909              -18.23854076               -3.14302980               28.43575986              -73.48428919
              29.55795675               -6.61631305               66.79494881                0.03799920                7.79366383                3.46583984              -22.93065326               -0.53627258               18.31216251             -109.18637168
              30.64682881               -8.52179968               66.10423340                0.54772943                8.88720664                4.60750594              -26.67341913                0.51562948               11.60530466             -131.88499926
              22.29354942               11.70526697               71.23266003                0.61219311               -0.60583510               -1.27409646                3.55509837               -0.11290550                0.12316639                9.22503031
              23.28749107                9.84771102               70.34909900                0.04951672               -1.08573344                0.06915750                0.47158335               -3.04640539               22.53463526               -8.23159581
              24.27183475                7.92731187               69.91402336                0.00010000               -1.35473838                0.42593247               -0.39635820               -6.45227560               45.55740330              -14.52250973
              25.26039630                5.99572386               69.48621840                0.00010000               -0.70070995                0.86411895               -2.82649221               -7.35740437               45.68021032              -20.84821113
              26.25782055                4.05703588               69.04744861                0.00010000                0.25206583                1.28891241               -5.60468224               -7.95798478               44.36991289              -27.71337350
              27.26543762                2.11453550               68.58878951                0.00010000                1.34416657                1.82959601               -8.74275049               -8.13052288               42.15844363              -35.43083703
              28.28470388                0.17306753               68.10214687                0.00010000                2.63371573                2.57012436              -12.34077315               -7.55288921               39.14329139              -44.50284267
              29.31811193               -1.76076239               67.58056211                0.00010000                4.29613633                3.47164768              -16.54839233               -5.96613029               34.77060238              -55.83739332
              30.37062661               -3.67914360               67.00463980                0.00010000                6.46589617                4.32791183              -21.35259066               -3.41198711               27.67156360              -71.83649052
              31.44742985               -5.57722112               66.33954642                0.04089380                8.66525876                4.96981576              -26.56181701               -1.13189297               15.75161445              -90.90589329
              32.54393178               -7.46668310               65.52412892                0.54948469                9.65019294                6.36866826              -30.32516178                0.16811171                8.31271213             -111.08261543
              24.14329959               12.69350072               71.03929721                0.60535801               -0.39740328               -1.08553795                3.03793535               -0.11145447                0.13532660                9.34198659
              25.13932556               10.84948164               70.06871536                0.04287482               -0.77187306                0.29043922               -0.39035602               -3.41084628               28.49551739               -8.04405357
              26.12786213                8.93532599               69.66551499                0.00010000               -1.06242008                1.08828623               -1.32436162               -6.97479540               57.38516560              -13.26149659
              27.11807716                7.00927607               69.26578557                0.00010000               -0.59395910                1.73595526               -3.85228215               -7.63855878               57.19273768              -18.73684927
              28.11598295                5.07586406               68.85009840                0.00010000                0.30079789                2.33978027               -6.84763339               -7.98334262               55.33822270              -24.76785661
              29.12409312                3.13962535               68.40584404                0.00010000                1.43775798                3.04732675              -10.31954655               -7.87759230               52.17598494              -31.70542034
              30.14473811                1.20604900               67.92010387                0.00010000                2.86659670                3.92108523              -14.36301626               -7.17207143               47.54177154              -40.01107507
              31.18142505               -0.71873712               67.37672759                0.00010000                4.72182074                4.91704020              -19.08851740               -5.74529860               40.94399187              -50.39540258
              32.23917452               -2.62848458               66.75310405                0.00010000                7.07166640                5.92807843              -24.55036083               -3.53550770               31.56885329              -63.30885639
              33.32285838               -4.51691674               66.01782020                0.04437446                9.49702325                7.03201862              -30.61898726               -1.28379551               17.65420317              -78.93933101
              34.42911499               -6.39442632               65.11648242                0.55159022               10.62566110                8.24651546              -34.94858478                0.24036616                9.07912291              -97.01443528
              25.97935848               13.68355621               70.84694134                0.59982024               -0.19096046               -0.90769748                2.52826342               -0.11083788                0.14262152                9.36834363
              26.97744887               11.85351980               69.78961222                0.03869610               -0.34070345                0.52181903               -1.25151165               -3.62449158               35.00547866               -7.95661763
              27.97254441                9.94907759               69.42964309                0.00010000               -0.51809115                1.59177916               -2.23728593               -7.25061193               70.27012314              -11.80035453
              28.96708705                8.03044297               69.06845680                0.00010000               -0.23699920                2.36039642               -4.78266909               -7.76127867               69.71151459              -16.10437622
              29.96780443                6.10383148               68.68586823                0.00010000                0.53068893                3.08526012               -7.90388373               -7.83100459               67.32037604              -21.04486930
              30.97770083                4.17548204               68.26620724                0.00010000                1.59102469                3.96043927              -11.61470532               -7.44907638               63.28808092              -26.88862955
              31.99962492                2.25148923               67.79261101                0.00010000                3.00193538                5.03723860              -16.02246210               -6.61302720               57.40471784              -33.98491673
              33.03773954                0.33757841               67.24498188                0.00010000                4.92355759                6.26760774              -21.27759148               -5.26032930               49.21366037              -42.75259705
              34.09809607               -1.56058204               66.59783385                0.00010000                7.49780733                7.58255550              -27.50981294               -3.21338126               38.00189595              -53.67544309
              35.18769568               -3.43658075               65.81907905                0.04797782               10.28311002                8.94999243              -34.69813198               -1.05587065               21.34400600              -67.34032159
              36.30375827               -5.30175279               64.84061822                0.55391083               11.60625880               10.25849280              -39.59697414                0.40628118               10.82432765              -84.89281221
              27.80115565               14.67534677               70.65457960                0.59492782                0.01586961               -0.73742298                2.01898961               -0.11330995                0.15301442                9.29460337
              28.80131435               12.85991802               69.51082820                0.03632772                0.23855398                0.76266699               -2.11631058               -3.77167361               42.22945085               -7.95611921
              29.80592673               10.96716157               69.20863118                0.00010000                0.33916732                1.92057064               -3.10370108               -7.33669845               84.52956796              -10.11730522
              30.80809769                9.05648400               68.89947017                0.00010000                0.41985286                2.64473593               -5.56428588               -7.64194144               83.53047693              -12.95317273
              31.81432379                7.13756926               68.56285817                0.00010000                0.96780747                3.44858715               -8.70288962               -7.30035114               80.60278551              -16.57938778
              32.82745384                5.21883413               68.18104263                0.00010000                1.80287028                4.53294859              -12.54143206               -6.60043990               75.82584534              -21.09295300
              33.85038119                3.30679377               67.73485859                0.00010000                3.04179449                5.86246108              -17.21540832               -5.63120659               68.94180476              -26.68680489
              34.88828973                1.40661504               67.20127108                0.00010000                4.93424340                7.38875255              -22.93695640               -4.33744057               59.40795812              -33.70354193
              35.94906606               -0.47683347               66.55101117                0.00010000                7.73109920                9.02171194              -29.94431769               -2.49687828               46.34375583              -42.70758756
              37.04291172               -2.33791689               65.74658655                0.05175154               10.92593106               10.63437246              -38.35462959               -0.62138233               26.21952694              -54.70861595
              38.16758468               -4.18925646               64.69616967                0.55617791               12.46729661               12.15434662              -43.78170012                0.58578079               13.20506578              -71.92181805
              29.60794977               15.66880775               70.46109436                0.59131396                0.22508321               -0.56921854                1.50426422               -0.11628546                0.20130148                9.23475694
              30.61020060               13.86877314               69.23156041                0.03590811                1.06473460                1.01079348               -2.98921936               -3.96879595               50.36224061               -8.15627459
              31.62924446               11.98748901               69.00518542                0.00010000                1.68199643                1.86935452               -3.88355884               -7.28967390              100.50332173               -7.97046032
              32.64384053               10.08333768               68.76465789                0.00010000                1.51014061                2.37208647               -6.14090326               -6.90933426               98.90366773               -9.18147558
              33.65944727                8.17280323               68.48868509                0.00010000                1.63134955                3.42507443               -9.17197150               -6.04474454               95.37967166              -11.44893889
              34.67646752                6.26614101               68.15990726                0.00010000                1.98863055                4.77991646              -13.00611795               -5.10255964               89.99996942              -14.49122493
              35.69921988                4.36873845               67.75857795                0.00010000                2.90752225                6.36912175              -17.80311208               -4.12971318               82.37128346              -18.37915658
              36.73461797                2.48535346               67.25936219                0.00010000                4.67352719                8.16226806              -23.84550092               -2.99237159               71.73350906              -23.38653728
              37.79269043                0.61985220               66.62815125                0.00010000                7.65365323               10.10990294              -31.51815834               -1.50103403               56.80772057              -30.04410719
              38.88769103               -1.22389330               65.81745826                0.05533372               11.27313045               11.96842665              -41.15618664               -0.12757933               32.42278401              -39.61804828
              40.01815304               -3.05866585               64.69984232                0.55829644               13.04620068               13.73827125              -46.99287420                0.64874837               16.27052337              -56.45174142
              31.39889916               16.66396240               70.26778880                0.58649082                0.43580154               -0.39135454                0.98885153               -0.11997613               -0.16827714                8.04451880
              32.40325717               14.88013389               68.94853122                0.03556089                2.33347762                1.25481207               -3.88517800               -4.48621889               59.70373681               -7.41685849
              33.44556871               13.00454866               68.82657138                0.00010000                4.06698061                0.54404251               -4.50632405               -5.73703836              118.74135624               -4.53377572
              34.48459679               11.10392573               68.67148095                0.00010000                3.25284311                1.71951410               -6.43631747               -4.67487180              115.82850503               -4.78312846
              35.51062557                9.20607075               68.46988170                0.00010000                2.24353195                3.18158416               -9.23937187               -3.55926856              111.66734565               -5.81929187
              36.52946742                7.31443246               68.21014516                0.00010000                1.89744524                4.82909161              -12.92152155               -2.83394322              105.97182939               -7.33689968
              37.54857448                5.43417621               67.87298921                0.00010000                2.39305633                6.62169061              -17.65555106               -2.16911805               97.99146255               -9.33431681
              38.57732855                3.56986040               67.43165616                0.00010000                3.98588333                8.57398989              -23.77891921               -1.41850688               86.75190170              -11.98125255
              39.62829214                1.72536459               66.84835032                0.00010000                7.07748179               10.69521100              -31.83773489               -0.50690654               70.44537136              -15.64153738
              40.71887819               -0.09854835               66.06377085                0.05912807               11.09063041               12.82241542              -42.56251758                0.19282893               40.82299505              -20.92092835
              41.85010475               -1.91449104               64.88559563                0.56031504               13.12265655               14.56210622              -48.52906149                0.39185327               20.38303270              -34.61790531
              33.17320726               17.66098066               70.05064016                0.79251666                0.66827064               -0.29817385                0.36424221                0.71968224                3.65306985                6.85369308
              34.17988996               15.89386938               68.68375205                0.51887149                5.87522994                1.37354903               -4.70922949               -5.46726130               72.44744654               -6.48944698
              35.29071185               13.99836986               68.69251223                0.45374924                8.44655207               -0.61788043               -4.80340929               -4.29275641              138.56326875               -2.46169481
              36.34882100               12.11772797               68.62620048                0.44147161                4.35216594                1.38022337               -6.36470009               -1.67432537              133.55889492               -2.50962411
              37.37775517               10.23643491               68.51066137                0.43731125                2.14310980                3.03641608               -8.84217875               -1.03729619              129.38126942               -2.99810864
              38.39168320                8.36272284               68.33595940                0.44018615                1.13272076                4.82903790              -12.22678203               -0.54155472              123.84490062               -3.77827716
              39.40040959                6.50117227               68.08379356                0.45026928                1.16881227                6.69960585              -16.69209811               -0.11096799              116.13116109               -4.83234602
              40.41505945                4.65683326               67.72747699                0.46763372                2.52757302                8.69728616              -22.59733295                0.40229731              105.14927066               -6.26385587
              41.45096105                2.83375642               67.22785580                0.49337465                5.81718960               10.83918326              -30.54327995                1.05297785               89.06065002               -8.33382529
              42.53140324                1.03255501               66.52601757                0.53074717               10.34572100               13.11033598              -41.66253301                1.19349741               55.43346484              -11.01183822
              43.65787547               -0.76742373               65.34732191                0.78090307               12.64722319               14.70673075              -47.33043186                0.77919815               30.98194438              -21.72719448
              15.30530424                8.06247325               73.10507591                0.89158386               -1.56332470               -1.74952689                5.93827540               -0.44926710               -5.05100097                5.55839394
              16.28967099                6.06741547               72.50461473                0.63921032               -1.53063530               -1.01624576                4.01056369               -0.51250097               -7.12223900               -4.18343783
              17.27469153                4.06412764               71.86326197                0.51010538               -1.35579995               -0.55441486                1.95989640               -0.48771663               -7.39038800               -0.47921540
              18.26255499                2.04381058               71.25830096                0.46577241               -0.90972496                0.00437735                0.01619605               -0.43527043               -4.98999809               -0.48512339
              19.25649703                0.00594177               70.66542229                0.45100957               -0.17935457                0.55835034               -1.97912561               -0.36537043               -3.89099810               -0.28890567
              20.25896790               -2.04508599               70.08241135                0.45735144                0.73673239                1.12570986               -4.02093998               -0.30840681               -3.21729799               -0.09246915
              21.27123168               -4.10143351               69.50267066                0.48581755                1.69295974                1.68943666               -6.07973907               -0.28373818               -3.28805777                0.11150672
              22.29282710               -6.15501722               68.91772044                0.54178018                2.54190164                2.23889965               -8.11715134               -0.28758380               -4.13055775                0.31284022
              23.32206971               -8.20035709               68.32041647                0.63894336                3.22007142                2.77715924              -10.11594814               -0.29004235               -5.77733151                0.40973892
              24.35722852              -10.23546867               67.70159292                0.80153084                3.76298050                3.30828181              -12.12014855               -0.29411514               -6.30553433                1.18617749
              25.39732932              -12.26155700               67.09257106                0.96933313                4.01007998                3.90063300              -14.09331019               -0.68142925               -5.74740621               -4.13907500
              17.29586935                9.04497798               72.86354222                0.70580998               -1.21505582               -1.79248512                5.19090663               -0.26002650                3.60648818                8.08003784
              18.28371879                7.05725301               72.25770383                0.18174178               -0.71262673               -0.74642283                3.27921796               -0.55637423                8.28251651               -7.72888657
              19.28161681                5.05858349               71.74577953                0.03206402                0.17882177               -0.94000371                1.74119400               -1.92288182               12.97552150               -9.43276177
              20.28729522                3.04385435               71.23358690                0.02209876                0.78374020               -1.20778680                0.10265100               -3.17935145               13.67931695              -12.54444523
              21.29729162                1.01152527               70.73558690                0.02531071                1.11381250               -0.90585926               -1.56761745               -4.12444153               14.87470234              -16.63861706
              22.30957147               -1.03382889               70.24733502                0.03287017                1.30341477               -0.42838962               -3.28452874               -4.61083787               15.51750143              -21.40834162
              23.32335991               -3.08453915               69.76224534                0.04560960                1.49207876                0.12633012               -5.01202362               -4.57943197               15.41403954              -26.68189682
              24.33941305               -5.13262822               69.27176923                0.06746957                1.80175541                0.70777727               -6.70604667               -4.11379570               14.49211036              -31.99985586
              25.35939502               -7.17258550               68.76778525                0.12534414                2.27371391                1.35503072               -8.35958819               -3.41421669               13.11579966              -35.89330081
              26.38488733               -9.20238585               68.24901137                0.31140418                2.86041712                3.32101918               -9.98905335               -1.84411668                9.87861449              -25.62809021
              27.41660336              -11.22255067               67.67909482                0.73539757                3.17160347                4.53951369              -11.73819086                0.78697244                7.40044985              -31.98594978
              19.27555364               10.02662355               72.67302089                0.62831064               -1.06156446               -1.72784529                4.71280225               -0.13480754                0.07731150                9.91823479
              20.26493800                8.05248701               71.94020787                0.06858587               -1.29605439               -0.35527770                2.25854552               -1.59372202               12.15849915              -10.11802875
              21.24963256                6.04532756               71.44939354                0.00010000               -0.94559086               -1.13175257                1.26727238               -4.85735697               24.77098827              -17.57726072
              22.24602618                4.01965484               70.96764373                0.00010000                0.10294475               -1.59076537               -0.93017886               -6.77986949               25.00597367              -24.42724409
              23.25169145                1.98782458               70.47851190                0.00010000                0.83946898               -1.55227533               -3.00885038               -8.03644309               24.50122299              -32.69764577
              24.26281556               -0.05365378               69.98546617                0.00010000                1.33754581               -1.14921811               -5.20797444               -8.84042363               23.96734604              -42.18864873
              25.27844237               -2.09890691               69.48524321                0.00010000                1.78909882               -0.55112461               -7.59687055               -8.66306453               23.26237188              -52.77525611
              26.29859754               -4.14086167               68.97865125                0.00010000                2.25503245                0.18736682              -10.35758419               -7.46783096               23.63158831              -64.05474388
              27.32354302               -6.17325648               68.48796941                0.00010000                3.58569117                1.30341123              -14.18216182               -4.09869816               37.25261548              -74.75334683
              28.37031136               -8.16904829               68.25876299                0.03495185                6.49276965                3.15853741              -24.91795102               -0.43963570               34.26613730              -87.67260694
              29.45339841              -10.17076673               67.70707370                0.54985444                8.30870479                4.24240054              -26.45262757                2.34670390               19.13536339             -104.83590344
              21.24144626               11.01042107               72.46908050                0.61099913               -0.83059293               -1.51146418                4.14701753               -0.11657410                0.12322562                9.38019872
              22.23314033                9.05014746               71.64545618                0.04857218               -1.20722094               -0.13508951                1.37946917               -2.59093129               17.80497899               -8.81671982
              23.21730184                7.03594844               71.17576192                0.00010000               -1.19697585               -0.37616151                0.08921455               -5.66679990               35.60180443              -16.00830619
              24.20920082                5.01203905               70.70499765                0.00010000               -0.37152295               -0.15420147               -2.05380436               -6.76920496               35.33201723              -23.58083826
              25.20987138                2.98047976               70.22604572                0.00010000                0.51468396                0.01093213               -4.47974643               -7.71900583               34.37395511              -31.56862307
              26.21949449                0.94318674               69.73247942                0.00010000                1.37175612                0.44960243               -7.13433497               -8.14562142               32.82083443              -40.59596674
              27.23730651               -1.09556164               69.22027939                0.00010000                2.24557525                1.10964379              -10.12539742               -7.68594982               30.97164143              -50.90481397
              28.26440600               -3.12888088               68.68894624                0.00010000                3.41505846                1.95881754              -13.66902275               -5.91727968               29.91146577              -62.96187137
              29.30560767               -5.14651728               68.15651164                0.00010000                5.45994311                3.03952415              -18.41740128               -2.48086745               26.77316715              -78.84724712
              30.37360486               -7.13921511               67.56418205                0.02536893                8.06833223                3.10452224              -23.14870029               -0.01915451               16.94876238             -112.48856241
              31.46697432               -9.13770266               66.83426587                0.53876401                9.33694581                3.85005898              -27.12922662                0.37631587               10.37797854             -136.92471607
              23.19376939               11.99639426               72.26851102                0.60347325               -0.61773817               -1.30329382                3.60898065               -0.11310565                0.12221903                9.61636411
              24.18759201               10.04978522               71.35394881                0.03967494               -0.96822108                0.07281927                0.49936154               -3.16941123               23.49215401               -8.52923753
              25.17440497                8.03780433               70.90701202                0.00010000               -1.07406274                0.54326942               -0.92338353               -6.50713611               46.90181844              -15.11292025
              26.16611076                6.01657081               70.45576523                0.00010000               -0.41206671                0.94305102               -3.23441287               -7.19523930               46.26653110              -21.92667364
              27.16616364                3.98804322               69.98980454                0.00010000                0.49168900                1.33923435               -5.91114837               -7.70301576               44.63319734              -29.39284673
              28.17594454                1.95533826               69.50024618                0.00010000                1.53136802                1.85817555               -8.95093135               -7.76547964               42.06920153              -37.83186387
              29.19679100               -0.07671404               68.97818154                0.00010000                2.76315237                2.55018128              -12.42572000               -7.06322702               38.58193090              -47.72956442
              30.23120758               -2.10168532               68.41523960                0.00010000                4.37344470                3.35332325              -16.46974401               -5.37211088               33.66958696              -59.92592013
              31.28425989               -4.11246600               67.79263094                0.00010000                6.49530358                4.00535581              -20.99935199               -2.92820260               26.13161862              -76.51273396
              32.36111365               -6.10695784               67.07806010                0.02848155                8.68199731                4.21850091              -25.72537132               -0.98102988               14.59241642              -96.20875944
              33.45789984               -8.09376555               66.22538942                0.54037913                9.67861824                5.25737543              -29.38442464               -0.10556797                7.65459147             -116.71300547
              25.13240223               12.98435520               72.06990793                0.59677097               -0.40601889               -1.11036552                3.08175200               -0.11143385                0.13807609                9.74384939
              26.12834204               11.05160384               71.06488965                0.03308949               -0.60143486                0.29586178               -0.37388850               -3.50251933               29.57598026               -8.33953923
              27.12037353                9.04681383               70.64879605                0.00010000               -0.66424503                1.17311231               -1.91745206               -7.01815520               58.95920472              -13.85326407
              28.11505714                7.03090007               70.22459460                0.00010000               -0.16649549                1.79764065               -4.34455491               -7.52480180               57.95790834              -19.74919662
              29.11704362                5.00726445               69.77959983                0.00010000                0.69425121                2.35589903               -7.22892116               -7.75449936               55.67747999              -26.30791139
              30.12894216                2.98035026               69.30127355                0.00010000                1.80109644                3.00140666              -10.57020434               -7.53127776               52.05897421              -33.87636364
              31.15306555                0.95544199               68.77594193                0.00010000                3.18867912                3.78139970              -14.43148004               -6.72261534               46.87094426              -42.91271336
              32.19271574               -1.06181442               68.18670551                0.00010000                4.96252996                4.62731758              -18.86251162               -5.27957621               39.63882703              -54.09928090
              33.25231615               -3.06641016               67.51101326                0.00010000                7.12840357                5.40135869              -23.81914319               -3.32060000               29.68531648              -67.89665394
              34.33528382               -5.05484509               66.71967987                0.03189906                9.30811111                6.19331142              -29.03983918               -1.40666598               16.19255238              -84.43820140
              35.43847837               -7.03255515               65.77615950                0.54231739               10.31945546                7.16580681              -33.11375048               -0.18874570                8.26241560             -103.18235996
              27.05704342               13.97418695               71.87240146                0.59154221               -0.19604259               -0.92754306                2.55943747               -0.11100194                0.14459137                9.77675394
              28.05508300               12.05570246               70.77710706                0.02870649               -0.11488888                0.52896822               -1.24575857               -3.69830800               36.22597459               -8.25639605
              29.05474564               10.06126658               70.40353810                0.00010000                0.00405491                1.64621279               -2.87095004               -7.29998049               72.13502428              -12.37982411
              30.05516409                8.05252363               70.01753989                0.00010000                0.34389081                2.38419323               -5.34784793               -7.70224914               70.73729822              -17.01868688
              31.06162346                6.03516121               69.60439220                0.00010000                1.09886751                3.05161485               -8.35887449               -7.66616111               67.82447527              -22.38722124
              32.07714145                4.01536640               69.14837395                0.00010000                2.14399508                3.84296445              -11.91797539               -7.18240687               63.22802367              -28.75847250
              33.10450336                1.99891396               68.63178185                0.00010000                3.51633812                4.79789989              -16.09369751               -6.28471587               56.65553191              -36.48996641
              34.14746821               -0.00913897               68.03346254                0.00010000                5.31875994                5.85563018              -20.95683364               -4.97729449               47.64266469              -46.02553224
              35.21087856               -2.00443882               67.32744230                0.00010000                7.58285595                6.94956448              -26.50294291               -3.22894542               35.59983903              -57.87920190
              36.29912533               -3.98309162               66.48311572                0.03495974                9.93332456                8.08128484              -32.52489402               -1.37087353               19.44158205              -72.63587570
              37.40954505               -5.95044941               65.45715951                0.54438850               11.04197263                9.20150481              -37.07458881               -0.11287243                9.80887340              -90.88316560
              28.96715117               14.96580434               71.67488446                0.58689294                0.01450775               -0.75177788                2.03728452               -0.11356867                0.15518598                9.69934902
              29.96729625               13.06218321               70.48960930                0.02650406                0.52007885                0.77182942               -2.12221563               -3.84288466               43.62279615               -8.26260125
              30.97755275               11.07973808               70.17371381                0.00010000                0.99106381                1.93894615               -3.75957856               -7.40803381               86.76855595              -10.66118849
              31.98711753                9.07858393               69.84035683                0.00010000                1.16624387                2.61994884               -6.19602877               -7.64187641               84.92241415              -13.72875880
              33.00087763                7.06829675               69.47296268                0.00010000                1.72118712                3.36213449               -9.23569244               -7.20961714               81.38293218              -17.66897522
              34.02154127                5.05720954               69.05354793                0.00010000                2.54994835                4.35726434              -12.91470645               -6.43634907               75.93002763              -22.58830888
              35.05187660                3.05139998               68.56184050                0.00010000                3.74906830                5.55501613              -17.32623756               -5.44725701               68.20233923              -28.69553618
              36.09652264                1.05529819               67.97321271                0.00010000                5.49066456                6.89946273              -22.58555794               -4.23517949               57.61604986              -36.37526278
              37.16168989               -0.92741887               67.25703163                0.00010000                7.86771487                8.31789131              -28.75598600               -2.68072286               43.39781789              -46.26499337
              38.25387693               -2.89321939               66.37644285                0.03830825               10.46233144                9.73254577              -35.68284940               -1.03589793               23.86083438              -59.42624678
              39.37093652               -4.84852506               65.27336586                0.54642926               11.70595819               11.05070458              -40.70435182                0.05530028               12.00107411              -77.30464795
              30.86201431               15.95915140               71.47616983                0.58341397                0.22772538               -0.57810702                1.50854799               -0.11789458                0.20707386                9.63887401
              31.86429156               14.07113905               70.20155089                0.02663734                1.40849707                1.02253647               -3.00715522               -4.05784646               51.98361894               -8.48259352
              32.89018425               12.10004550               69.96241743                0.00010000                2.47381706                1.83464052               -4.54936114               -7.39891445              103.23244382               -8.43448597
              33.91376790               10.10492260               69.69943782                0.00010000                2.43106296                2.28635684               -6.83414978               -6.95094738              100.78664783               -9.76662011
              34.93880551                8.10240390               69.39364118                0.00010000                2.57716634                3.28934881               -9.78992278               -6.01136470               96.56658114              -12.22931582
              35.96531123                6.10251168               69.02726249                0.00010000                2.93320374                4.56234841              -13.47274591               -5.02627002               90.40761468              -15.54020060
              36.99746958                4.11001428               68.57919118                0.00010000                3.81361237                6.02513823              -18.00100955               -4.07195268               81.78942668              -19.78324177
              38.04158347                2.12885029               68.02186257                0.00010000                5.41560506                7.63576666              -23.54493638               -3.03851251               69.85694267              -25.27473076
              39.10578168                0.16191900               67.31855222                0.00010000                7.89650391                9.35103668              -30.26626051               -1.79269008               53.38496945              -32.65483336
              40.19951355               -1.78844070               66.42094557                0.04138206               10.77403539               11.01068724              -38.11495524               -0.55368948               29.66705265              -43.38623028
              41.32126239               -3.72943532               65.24653014                0.54829283               12.17488369               12.54411539              -43.53166927                0.19985595               14.97653078              -60.75688274
              32.74081798               16.95424220               71.27765088                0.57840494                0.44272389               -0.39444717                0.97930856               -0.12144941               -0.17963601                8.39673145
              33.74524522               15.08263394               69.90948438                0.02649340                2.74864643                1.26904351               -3.91703315               -4.62505815               61.63886324               -7.72273394
              34.79579091               13.11643089               69.77756138                0.00010000                5.02474856                0.40903229               -5.17920124               -5.85984265              122.11923302               -4.81777151
              35.84574019               11.12431107               69.60298846                0.00010000                4.36351750                1.57653709               -7.19062990               -4.71977120              118.33078130               -5.11134658
              36.88306126                9.13408372               69.37368210                0.00010000                3.38326483                3.00125973               -9.95014907               -3.55051447              113.39322502               -6.23353203
              37.91340548                7.14845651               69.07772618                0.00010000                3.05188415                4.57810010              -13.50684096               -2.81218522              106.83962951               -7.88015392
              38.94409894                5.17190275               68.69430864                0.00010000                3.52210907                6.25757116              -17.99693037               -2.18075373               97.76131457              -10.05453117
              39.98384767                3.20801352               68.19391591                0.00010000                4.95140668                8.04243921              -23.63743005               -1.53101204               85.02681133              -12.94896298
              41.04312707                1.25960186               67.53475531                0.00010000                7.51549014                9.92908278              -30.70517028               -0.79128929               66.72694140              -17.00632578
              42.13415747               -0.67300565               66.65332343                0.04470509               10.68979022               11.81317183              -39.40163327               -0.13319167               37.82866558              -23.17567694
              43.25692288               -2.59764275               65.41650500                0.55006877               12.27654088               13.39631878              -45.00728717                0.14544498               19.20755589              -37.15389032
              34.60280183               17.95126245               71.05417346                0.78856797                0.67998671               -0.29797446                0.34080334                0.72413230                3.81739442                7.15181889
              35.60960170               16.09651992               69.63642484                0.51433732                6.42542151                1.38859801               -4.75502213               -5.71616673               74.91415050               -6.76131602
              36.73131026               14.10822615               69.64038678                0.45246516                9.60589716               -0.82047441               -5.50887411               -4.45139277              142.75292896               -2.66215774
              37.80171964               12.13645335               69.55812186                0.44131067                5.61697542                1.21422786               -7.18392372               -1.69190721              136.75564558               -2.72589194
              38.84364977               10.16242909               69.41796167                0.43737827                3.47644268                2.83453658               -9.64913148               -1.06013139              131.75298714               -3.24951681
              39.87124850                8.19407369               69.20977903                0.44004482                2.53238632                4.56171735              -12.95044796               -0.57886788              125.31694622               -4.09337299
              40.89429750                6.23516570               68.91368408                0.44943661                2.60078119                6.32629554              -17.23287910               -0.19887472              116.44602747               -5.23993912
              41.92326412                4.28969907               68.49996817                0.46571432                3.83387814                8.16855518              -22.74169973                0.20839329              103.86529547               -6.80225436
              42.97097506                2.36050066               67.92490029                0.48972924                6.54151042               10.08987965              -29.80689980                0.69098218               85.48427037               -9.07904624
              44.05409433                0.44782274               67.12191991                0.52357552               10.12352162               12.08283828              -38.91598022                0.89320601               52.66468527              -12.41637314
              45.17344549               -1.46150895               65.88657674                0.77557990               11.93511641               13.61338034              -44.40974268                0.71909353               30.30133684              -23.29571528
              15.86407313                8.36413647               74.16495225                0.88594038               -1.58746914               -1.77580807                6.03091314               -0.45688731               -5.21607954                5.72135538
              16.84819844                6.27540152               73.54504185                0.63122752               -1.56351259               -1.03146173                4.07256857               -0.53283631               -7.34437604               -4.33423560
              17.83280288                4.17808158               72.88303298                0.50673543               -1.38964991               -0.56223262                1.99777679               -0.50041188               -7.61773695               -0.44698658
              18.82040544                2.06327893               72.25851435                0.46465745               -0.92242911                0.00676264                0.02686942               -0.43929927               -5.18765665               -0.47820900
              19.81435430               -0.06913728               71.64554009                0.45124585               -0.17189634                0.56913326               -1.99535657               -0.36945218               -4.14227345               -0.28284209
              20.81696751               -2.21461508               71.04194382                0.45772566                0.75523934                1.14742265               -4.06590406               -0.31402146               -3.50678199               -0.09293863
              21.82945908               -4.36527076               70.44143910                0.48547973                1.72025841                1.72297694               -6.15933094               -0.29180475               -3.58294484                0.10472212
              22.85137268               -6.51305101               69.83593853                0.53988075                2.57971441                2.28266360               -8.22927175               -0.29535746               -4.40296421                0.30315211
              23.88105337               -8.65249825               69.21848448                0.63330221                3.26800254                2.83055582              -10.26426328               -0.29749722               -6.04489628                0.39067375
              24.91673273              -10.78168061               68.57934595                0.78897077                3.81943660                3.37283929              -12.30674427               -0.29833235               -6.57253801                1.18791026
              25.95744210              -12.90197910               67.95032964                0.95980617                4.07093702                3.97514032              -14.31315792               -0.67561455               -6.01089140               -4.27147962
              17.94823921                9.34637839               73.91588255                0.69535993               -1.23416847               -1.82472656                5.27085435               -0.26809323                3.78709852                8.38247183
              18.93589752                7.26508691               73.29074847                0.16965378               -0.71895742               -0.75299133                3.32796419               -0.58039846                8.65448640               -8.01969488
              19.93386006                5.17245925               72.76329279                0.03305076                0.18621784               -1.08323562                1.76384224               -1.92765854               13.48766450               -9.58743389
              20.93962188                3.06334655               72.23455214                0.02324511                0.78733594               -1.18580177                0.08899768               -3.12538484               14.12096567              -13.12587631
              21.94960678                0.93655405               71.71969544                0.02649401                1.11360792               -0.85399162               -1.60942057               -4.03614311               15.27195782              -17.57803563
              22.96189404               -1.20314085               71.21406820                0.03421322                1.30761105               -0.35232507               -3.36170442               -4.49759922               15.88533924              -22.74516001
              23.97575900               -3.34804099               70.71151143                0.04731214                1.50694064                0.21629651               -5.12879930               -4.46490488               15.79553593              -28.50780056
              24.99203285               -5.49022437               70.20389759                0.06955331                1.83171006                0.80019179               -6.86275961               -4.03537988               14.90906758              -34.52056129
              26.01239320               -7.62419269               69.68317237                0.11782808                2.32284933                1.42546631               -8.55913416               -3.42482129               13.56136931              -39.68195017
              27.03848984               -9.74795222               69.14785579                0.29558188                2.92956260                3.32599321              -10.22746395               -1.85754259               10.27159425              -34.58732900
              28.07098445              -11.86222770               68.56020165                0.72414689                3.24946143                4.56283864              -12.01127041                1.13693570                7.72682450              -41.58922504
              20.02129424               10.32764194               73.72053179                0.61895228               -1.07846303               -1.76409520                4.78238469               -0.13403671                0.05239291               10.31581215
              21.01050961                8.26034170               72.96302969                0.05840129               -1.26520885               -0.35318775                2.30213562               -1.77029363               12.80496181              -10.48068298
              21.99599006                6.15641687               72.46089567                0.00010000               -0.83533304               -1.17182587                1.03603214               -4.86118826               25.59484584              -18.11348990
              22.99380295                4.03956289               71.95758007                0.00010000                0.20643891               -1.55455622               -1.07670693               -6.54750307               25.34689810              -25.59365451
              24.00011884                1.91378289               71.44772169                0.00010000                0.89038109               -1.45666720               -3.14450613               -7.84398179               24.83733863              -34.55803101
              25.01161057               -0.22166158               70.93275076                0.00010000                1.35628308               -1.02625277               -5.33119255               -8.58517532               24.18235124              -44.83387063
              26.02724450               -2.36094483               70.40872168                0.00010000                1.76031061               -0.41735514               -7.70127481               -8.38402915               23.25449368              -56.36740427
              27.04681678               -4.49704717               69.87457002                0.00010000                2.15201441                0.31142570              -10.44264351               -7.22716793               22.99894427              -68.89814324
              28.07028479               -6.62398892               69.34539250                0.00010000                3.54000548                1.37716966              -14.27527696               -3.96618516               32.39840873              -81.51390995
              29.11761689               -8.71516074               68.99965758                0.02424500                6.92234971                3.12854045              -25.98674979               -0.30227382               30.05924230              -96.63019577
              30.20873179              -10.81072233               68.42237275                0.54271751                9.11148924                4.18089852              -29.67351454                2.60565678               18.99477694             -115.44597291
              22.08015897               11.31109649               73.51087200                0.60206518               -0.84422394               -1.54375607                4.20458467               -0.11613483                0.12313400                9.74980699
              23.07171673                9.25802315               72.65943322                0.03818828               -1.13719319               -0.13244516                1.41549024               -2.68751058               18.44979371               -9.10990889
              24.05741510                7.14902274               72.17478267                0.00010000               -1.02054618               -0.21987670               -0.22308672               -5.68515439               36.58829570              -16.77523358
              25.05130580                5.03225543               71.68304399                0.00010000               -0.17317433               -0.09847289               -2.31636880               -6.62352908               35.87375496              -24.77643454
              26.05395161                2.90742071               71.18013850                0.00010000                0.68062225                0.09209782               -4.69004131               -7.50183117               34.67523468              -33.40440977
              27.06491825                0.77633409               70.66032561                0.00010000                1.47561954                0.53828391               -7.28721074               -7.84873581               32.88822487              -43.18288954
              28.08346401               -1.35638809               70.11858268                0.00010000                2.28076683                1.18792621              -10.20184998               -7.31126881               30.66928491              -54.36686830
              29.11053358               -3.48399586               69.55222248                0.00010000                3.38595325                2.00035562              -13.65021920               -5.50118601               28.79565768              -67.40645327
              30.15118307               -5.59664929               68.97196556                0.00010000                5.43220937                3.00445113              -18.37484834               -2.06159277               25.11226006              -84.00788755
              31.21917777               -7.68538141               68.33197481                0.01431956                8.15188442                2.91333065              -23.15288181                0.34711896               15.56915375             -114.59986963
              32.31422076               -9.77860973               67.56164887                0.53067840                9.50429878                3.39427431              -27.13437920                0.35882694                9.05590159             -139.82202958
              24.12511822               12.29676682               73.30483964                0.59468118               -0.62850682               -1.33046100                3.65572609               -0.11046704                0.12510733               10.00968286
              25.11883315               10.25769279               72.35908623                0.02983039               -0.85317600                0.07547280                0.52800230               -3.22535836               24.22579757               -8.82108762
              26.10805470                8.15201933               71.89555569                0.00010000               -0.79493763                0.63559436               -1.29123451               -6.50865959               48.04755416              -15.79092044
              27.10293440                6.03759343               71.42153014                0.00010000               -0.10255720                1.01310266               -3.57482258               -7.06343724               46.91916031              -23.10590179
              28.10600355                3.91562484               70.92922564                0.00010000                0.77551280                1.38487333               -6.18341532               -7.47936741               44.95617753              -31.14927904
              29.11844465                1.78910410               70.40977088                0.00010000                1.76727596                1.88181051               -9.12666426               -7.43994485               42.04445558              -40.27232957
              30.14134907               -0.33718631               69.85363247                0.00010000                2.93048053                2.52912578              -12.46403312               -6.64415600               38.11863109              -50.94087511
              31.17705426               -2.45704006               69.25116723                0.00010000                4.45447057                3.25250904              -16.31584681               -4.90584555               32.74669978              -63.90510107
              32.23043849               -4.56389990               68.58465276                0.00010000                6.47327204                3.77101380              -20.57481452               -2.55653271               24.92431356              -80.84334115
              33.30651971               -6.65689413               67.82503899                0.01706467                8.59632416                3.73225081              -24.89950455               -0.82757690               13.71134494             -100.83070233
              34.40236497               -8.74283684               66.93644042                0.53234777                9.58452630                4.43830614              -28.42208779               -0.23510738                7.10341985             -121.48119203
              26.15609768               13.28448727               73.10093225                0.58854414               -0.41406330               -1.13260337                3.11903656               -0.10942224                0.13797061               10.14827624
              27.15195705               11.25953261               72.06123759                0.02368923               -0.43782040                0.29897192               -0.35428487               -3.53770352               30.41153710               -8.62932230
              28.14734127                9.16173462               71.62716595                0.00010000               -0.27627480                1.22720087               -2.32163818               -7.01288800               60.30484779              -14.51912208
              29.14643155                7.05251748               71.17889447                0.00010000                0.27561658                1.83567829               -4.74602554               -7.42859679               58.76731093              -20.85126923
              30.15285360                4.93511817               70.70551997                0.00010000                1.12494734                2.35496795               -7.55538243               -7.55454292               56.06917970              -27.92476583
              31.16893050                2.81397030               70.19443995                0.00010000                2.19357189                2.94670534              -10.76920541               -7.22483732               52.00928568              -36.09203001
              32.19672504                0.69419442               69.63147427                0.00010000                3.50998840                3.64888194              -14.43330318               -6.33090422               46.32783355              -45.80375555
              33.23913026               -1.41894568               68.99947736                0.00010000                5.15907242                4.38003083              -18.55874471               -4.87726657               38.60067463              -57.68874461
              34.29990649               -3.52122902               68.27672119                0.00010000                7.12164569                4.98577269              -23.04667110               -3.08947653               28.30785432              -72.19040073
              35.38156318               -5.61073639               67.43702341                0.01993334                9.07487734                5.54164416              -27.59750412               -1.41620857               15.15413465              -89.35863002
              36.48140404               -7.68984361               66.45420741                0.53415494                9.98408570                6.31071950              -31.40012880               -0.43656145                7.65759477             -108.60873951
              28.17283910               14.27411475               72.89813008                0.58325361               -0.20073721               -0.94609472                2.58341740               -0.10865083                0.14757983               10.18500455
              29.17083173               12.26367223               71.76469704                0.01942508                0.09864839                0.53447830               -1.23409206               -3.72837613               37.19103688               -8.54978621
              30.17481207               10.17656335               71.37222409                0.00010000                0.50735940                1.66619219               -3.29919437               -7.30780960               73.73982375              -13.01372859
              31.18097891                8.07430700               70.96149984                0.00010000                0.93239055                2.37467118               -5.80157230               -7.64868009               71.77744890              -18.01242026
              32.19345988                5.96272420               70.51869074                0.00010000                1.69463722                2.99113038               -8.73955289               -7.51655340               68.36238220              -23.80356508
              33.21487166                3.84803820               70.02784774                0.00010000                2.70935450                3.71045582              -12.14933720               -6.93433917               63.22467321              -30.67554857
              34.24764697                1.73579133               69.47073706                0.00010000                4.00303581                4.56396459              -16.07618192               -5.97197428               56.04153668              -38.99068856
              35.29493237               -0.36943944               68.82584521                0.00010000                5.63963513                5.48277145              -20.53512380               -4.68432194               46.38889251              -49.19861728
              36.36043967               -2.46418444               68.06777499                0.00010000                7.59388733                6.39928813              -25.44325992               -3.13680084               33.84104685              -61.80687090
              37.44681012               -4.54606125               67.16858117                0.02306039                9.57042509                7.32323611              -30.52845642               -1.51035082               18.07331013              -77.33320258
              38.55184817               -6.61662245               66.09912644                0.53597754               10.50380499                8.25617740              -34.69896094               -0.43831466                9.05275845              -96.09772163
              30.17480971               15.26556538               72.69532529                0.57885296                0.01312205               -0.76479712                2.04856178               -0.10981823                0.15914718               10.10722929
              31.17494093               13.27022217               71.46838388                0.01752085                0.78703037                0.77869787               -2.11973293               -3.88566251               44.75755218               -8.56602944
              32.19055031               11.19505847               71.13343961                0.00010000                1.61780866                1.91941821               -4.20217074               -7.45084620               88.72155882              -11.23816634
              33.20729710                9.10001090               70.77554960                0.00010000                1.91205084                2.55333257               -6.69906872               -7.63734307               86.28938844              -14.56945514
              34.22879133                6.99494078               70.37814432                0.00010000                2.49397405                3.23866489               -9.67655000               -7.11685683               82.16562927              -18.82500424
              35.25717658                4.88817942               69.92274850                0.00010000                3.29859351                4.15602735              -13.19627351               -6.26344559               76.06239021              -24.13051465
              36.29476320                2.78547371               69.38833384                0.00010000                4.41215114                5.24070738              -17.32293011               -5.23541467               67.58044403              -30.70805471
              37.34541960                0.69070975               68.74955992                0.00010000                5.95145391                6.42975459              -22.09886376               -4.06267842               56.16328457              -38.96376820
              38.41379228               -1.39324326               67.97589145                0.00010000                7.91872841                7.66081486              -27.47607742               -2.70571367               41.21644956              -49.55731867
              39.50379417               -3.46427167               67.03292956                0.02589765                9.99839374                8.87813827              -33.18636434               -1.26163792               22.13072425              -63.51747379
              40.61376015               -5.52472006               65.88208264                0.53777046               10.99659815                9.98399011              -37.73486063               -0.31152248               11.08096106              -81.87805204
              32.16132914               16.25881881               72.49126532                0.57570345                0.22962470               -0.58359892                1.50796788               -0.11577512                0.21254904               10.04310186
              33.16362538               14.27924619               71.17141730                0.01774309                1.73386374                1.02915466               -3.01511329               -4.13420397               53.34568097               -8.80537626
              34.19600641               12.21495172               70.91419819                0.00010000                3.23621786                1.75827075               -5.00323132               -7.49867845              105.64807387               -8.91222421
              35.22834974               10.12537365               70.62797489                0.00010000                3.34739083                2.15019250               -7.38698217               -6.98298125              102.59489974              -10.39733079
              36.26295423                8.02749750               70.29288664                0.00010000                3.53600362                3.10694167              -10.30112490               -5.96269358               97.70879870              -13.06227117
              37.29906981                5.93115875               69.89045235                0.00010000                3.87270552                4.30667127              -13.82933624               -4.92175608               90.79252937              -16.63143452
              38.34040834                3.84060548               69.39855776                0.00010000                4.66629820                5.65594845              -18.05829431               -3.95776292               81.27533265              -21.19975843
              39.39239578                1.75915565               68.78846346                0.00010000                6.04492396                7.10328895              -23.06791160               -2.97875626               68.30316719              -27.10655917
              40.46130682               -0.31096815               68.02282604                0.00010000                8.03291937                8.60666344              -28.86314770               -1.90114791               50.81931918              -35.04429043
              41.55305416               -2.36849848               67.05515916                0.02908115               10.26038422               10.06177143              -35.20858295               -0.80334348               27.59041601              -46.53457968
              42.66651450               -4.41694265               65.82920894                0.53955170               11.34603370               11.35523072              -40.09104357               -0.13778835               13.90896870              -64.25036416
              34.13163945               17.25389340               72.28737497                0.57071209                0.44844961               -0.39234680                0.96330941               -0.12264983               -0.18964254                8.74794314
              35.13612394               15.29080527               70.87019055                0.01970743                3.14049186                1.27579786               -3.93479324               -4.76676190               63.31456578               -8.02810391
              36.19444928               13.23022388               70.72298735                0.00010000                5.94838745                0.22620930               -5.64828227               -5.98617575              125.15396323               -5.10397468
              37.25509169               11.14301475               70.52766835                0.00010000                5.46515369                1.37848415               -7.79917612               -4.75674950              120.69924747               -5.46267502
              38.30375236                9.05707961               70.27087871                0.00010000                4.52708922                2.76939623              -10.54419824               -3.52491928              115.01240617               -6.67908491
              39.34563348                6.97431284               69.94000834                0.00010000                4.19293421                4.27954697              -13.96611269               -2.76285128              107.60793036               -8.45272953
              40.38761104                4.89859268               69.51305060                0.00010000                4.58923148                5.85085565              -18.16940837               -2.14023278               97.50530602              -10.79089760
              41.43741811                2.83277553               68.95890756                0.00010000                5.79062053                7.47639963              -23.26872444               -1.54746487               83.53520653              -13.89696347
              42.50342345                0.77889001               68.23424692                0.00010000                7.81418503                9.14268450              -29.33997028               -0.92119368               63.88903754              -18.25239733
              43.59370181               -1.26303624               67.27573819                0.03210654               10.22346352               10.77665259              -36.25333083               -0.32695673               35.49059725              -24.97879134
              44.70789272               -3.29761544               65.98544989                0.54105253               11.41909166               12.17305651              -41.31369672               -0.05421812               18.09726089              -39.07604901
              36.08505240               18.25097188               72.05745623                0.78477247                0.69072599               -0.29215209                0.31189985                0.72032234                3.97375842                7.45218598
              37.09195966               16.30476215               70.58865161                0.51011616                6.95105046                1.39568802               -4.78736030               -5.99122712               77.10789565               -7.03816057
              38.22407341               14.21947590               70.58233475                0.45157820               10.71996803               -1.07479812               -6.01847719               -4.62852832              146.56154091               -2.83809574
              39.30635902               12.15294333               70.48252200                0.44099573                6.85421726                0.99285783               -7.86192963               -1.70279119              139.76675431               -2.93577124
              40.36115775               10.08288542               70.31767874                0.43745413                4.79703490                2.58058092              -10.33824650               -1.06914262              133.95127422               -3.50098967
              41.40229972                8.01674969               70.07695044                0.43987727                3.89916197                4.24368468              -13.53518646               -0.59651732              126.59136892               -4.40598341
              42.43914099                5.95762259               69.73913597                0.44858537                3.94247162                5.90299109              -17.57002022               -0.25030729              116.59273500               -5.63247937
              43.48114915                3.90868364               69.27264300                0.46381579                4.97768609                7.59081106              -22.58532878                0.08625187              102.61875316               -7.29659491
              44.53869471                1.87188554               68.63171780                0.48617980                7.09356678                9.29955308              -28.69917879                0.44467252               82.58530786               -9.70691846
              45.62302049               -0.15296543               67.74769797                0.51700679                9.79469161               11.00708086              -35.94800016                0.66351470               50.24698102              -13.42203537
              46.73458855               -2.17348152               66.45912705                0.77112431               11.15680614               12.41339226              -41.01942631                0.61797337               29.26031347              -24.33703819
              16.44080345                8.67503976               75.22569417                0.88022559               -1.61007120               -1.79918821                6.11124164               -0.46462547               -5.37604095                5.88151133
              17.42470274                6.48931750               74.58606610                0.62406310               -1.59695825               -1.04462308                4.12450081               -0.54902163               -7.55645281               -4.48442006
              18.40886429                4.29466827               73.90321751                0.50381464               -1.42039967               -0.56961607                2.03326028               -0.48711966               -7.83404979               -0.41149770
              19.39629475                2.08217082               73.25883835                0.46364705               -0.93210993                0.01002881                0.03918297               -0.43298853               -5.37787093               -0.47090637
              20.39022209               -0.14802578               72.62551516                0.45127595               -0.16807490                0.58087337               -2.00681248               -0.36895462               -4.38381477               -0.27533911
              21.39293325               -2.39119352               72.00109327                0.45807942                0.76779968                1.16544846               -4.10047761               -0.31999493               -3.79029865               -0.09427194
              22.40557808               -4.63948372               71.37948405                0.48526444                1.73945897                1.75059873               -6.22012368               -0.29762362               -3.87463595                0.09770853
              23.42772243               -6.88487230               70.75313501                0.53772974                2.60931403                2.32013645               -8.31919580               -0.30068054               -4.67540401                0.29039127
              24.45776436               -9.12191939               70.11513120                0.62742500                3.31050869                2.87868672              -10.39188729               -0.30290820               -6.31026947                0.36956889
              25.49393260              -11.34873015               69.45545804                0.77547555                3.86898732                3.42860885              -12.45754715               -0.30482921               -6.82591251                1.18629620
              26.53514411              -13.56673062               68.80630790                0.94975183                4.12115072                4.03523414              -14.48475042               -0.66964523               -6.25498923               -4.40613439
              18.62187946                9.65704788               74.96895931                0.68492075               -1.24811908               -1.85447142                5.33794827               -0.27754909                3.96940504                8.68321776
              19.60939827                7.47887127               74.32426312                0.15744832               -0.71565129               -0.75644450                3.37012895               -0.60525806                9.03094418               -8.30595776
              20.60756643                5.28897211               73.78105637                0.03406762                0.19568100               -1.15501926                1.77953539               -1.92426816               13.99671852               -9.85563339
              21.61331189                3.08227111               73.23536685                0.02440069                0.78241390               -1.14404539                0.07766223               -3.06728896               14.55937991              -13.75792837
              22.62321471                0.85778296               72.70339848                0.02768523                1.10751919               -0.78766621               -1.64996179               -3.93823496               15.67315155              -18.54726577
              23.63546227               -1.37953903               72.18010093                0.03551591                1.31132640               -0.26975455               -3.42809458               -4.36156705               16.24746993              -24.08995574
              24.64944124               -3.62197773               71.65966936                0.04890405                1.52355926                0.30787353               -5.23112562               -4.29985022               16.16290264              -30.30855392
              25.66593346               -5.86167094               71.13451404                0.07140217                1.86114826                0.88614385               -7.00599882               -3.84858088               15.30995180              -36.97904777
              26.68666421               -8.09313252               70.59660256                0.11252128                2.36782333                1.47957605               -8.74324804               -3.20569259               13.99827181              -43.36670569
              27.71328993              -10.31444406               70.04446209                0.27794651                2.98919604                3.14794645              -10.44698899               -1.63311979               10.66549246              -43.48390485
              28.74644813              -12.52637828               69.43886941                0.71096425                3.31582010                4.27986086              -12.25309137                1.44255352                8.05725820              -52.24001477
              20.79160569               10.63795033               74.76866858                0.60958748               -1.09323449               -1.79692599                4.84004013               -0.13081977                0.02706322               10.71142831
              21.78067335                8.47418861               73.98625058                0.04783130               -1.23133004               -0.34892664                2.33983970               -1.87775871               13.32747113              -10.83365825
              22.76697909                6.27156789               73.47011419                0.00010000               -0.72676097               -1.15941803                0.83660328               -4.85040741               26.34045565              -18.78357177
              23.76613813                4.05928991               72.94610959                0.00010000                0.31442201               -1.48554110               -1.20728848               -6.36694013               25.74449035              -26.86787657
              24.77326753                1.83622090               72.41562178                0.00010000                0.96622365               -1.34476689               -3.26702419               -7.64993916               25.19072326              -36.48364942
              25.78546260               -0.39658861               71.87884232                0.00010000                1.42227269               -0.89760638               -5.44358444               -8.30973039               24.41589498              -47.49548202
              26.80171299               -2.63332625               71.33121771                0.00010000                1.82215002               -0.29160315               -7.79274689               -8.06033616               23.27025091              -59.91142569
              27.82190560               -4.86714943               70.76979838                0.00010000                2.23553249                0.40318898              -10.49511425               -6.89994001               22.39515140              -73.61465455
              28.84642363               -7.09232787               70.20246387                0.00010000                3.63051801                1.35986179              -14.23762354               -3.85927237               27.49014483              -88.07256453
              29.89451596               -9.28577122               69.73902799                0.01277422                7.07199881                2.89250725              -25.26450249               -0.33954153               24.66140567             -105.38627840
              30.98786361              -11.48113340               69.11360341                0.53468436                9.33476499                3.90836724              -30.70933607                2.57858732               16.48764667             -125.87902935
              22.94678651               11.62110936               74.55317219                0.59312834               -0.85609702               -1.57113313                4.25324771               -0.11302936                0.12546407               10.12103112
              23.93822554                9.47189274               73.67376598                0.02838167               -1.06647610               -0.13147556                1.45020848               -2.73035191               18.96107609               -9.39480343
              24.92545699                7.26578375               73.17130019                0.00010000               -0.84527307               -0.09826237               -0.42594260               -5.66997006               37.44947108              -17.60029385
              25.92132008                5.05256028               72.65867027                0.00010000                0.03187305               -0.03438080               -2.53216370               -6.51051274               36.44596512              -26.06195750
              26.92609445                2.83088762               72.13224490                0.00010000                0.87473684                0.17276388               -4.87256357               -7.31362624               35.01453409              -35.29999132
              27.93881482                0.60250884               71.58673521                0.00010000                1.63504427                0.61829728               -7.41896789               -7.58665987               32.99857000              -45.78125997
              28.95879533               -1.62780980               71.01624239                0.00010000                2.40607306                1.24515626              -10.25490164               -7.00308584               30.42854703              -57.77605759
              29.98693628               -3.85360716               70.41594186                0.00010000                3.46526087                2.00536040              -13.58418811               -5.24548999               27.75857639              -71.71141152
              31.02810055               -6.06593529               69.78901468                0.00010000                5.41841747                2.91197089              -18.10774650               -2.02679951               23.47740249              -88.92236845
              32.09530463               -8.25659392               69.10112442                0.00373445                8.03218400                2.85753629              -22.83543548                0.33806414               14.24283192             -116.28656368
              33.18874423              -10.44821093               68.29157828                0.52376304                9.34396060                3.25927348              -26.64332533                0.30338676                7.86860111             -141.27609552
              25.08777835               12.60652767               74.34162554                0.58628469               -0.63864344               -1.35395412                3.69716373               -0.10863445                0.12531661               10.40555302
              26.08139192               10.47155910               73.36450886                0.02047112               -0.74331030                0.07569251                0.55643547               -3.24057439               24.80599475               -9.10639775
              27.07291214                8.26960264               72.88118733                0.00010000               -0.52839538                0.69896126               -1.52554725               -6.48000959               49.03586453              -16.53142258
              28.07082401                6.05860229               72.38426878                0.00010000                0.20671539                1.06723522               -3.83936568               -6.95986056               47.58742364              -24.35734497
              29.07704645                3.83967618               71.86613624                0.00010000                1.08014056                1.42082079               -6.40899763               -7.30188363               45.32290865              -32.96041435
              30.09242682                1.61577734               71.31771289                0.00010000                2.03604072                1.89619801               -9.26607480               -7.18702698               42.08497009              -42.72537336
              31.11776727               -0.60842313               70.72890087                0.00010000                3.13472358                2.50360401              -12.46709493               -6.35150406               37.76056201              -54.10036758
              32.15512129               -2.82704222               70.08892267                0.00010000                4.55535673                3.16699386              -16.11730270               -4.65596420               31.99094461              -67.73756413
              33.20887440               -5.03408845               69.38113465                0.00010000                6.42157986                3.62974390              -20.12109997               -2.43758220               23.98094470              -84.88477434
              34.28355289               -7.22862049               68.58007001                0.00665611                8.41454875                3.55170250              -24.12786083               -0.81419087               13.05676642             -104.94824569
              35.37716538               -9.41594793               67.65694766                0.52521259                9.36124880                4.03974851              -27.52105385               -0.30684155                6.67421602             -125.73020478
              27.21455096               13.59403028               74.13228866                0.58045326               -0.42118822               -1.15168335                3.14629894               -0.10823156                0.13686062               10.55118099
              28.21033908               11.47340659               73.05780395                0.01481159               -0.28686802                0.30006707               -0.33006829               -3.54247437               31.08253719               -8.91152583
              29.20881360                9.27976298               72.60236329                0.00010000                0.08551264                1.25578539               -2.57736722               -6.98372089               61.46619020              -15.23233259
              30.21204933                7.07390499               72.12967409                0.00010000                0.70340658                1.85089024               -5.05090725               -7.35182645               59.57321458              -22.01710451
              31.22288173                4.85930403               71.62849218                0.00010000                1.55621219                2.33946901               -7.81527690               -7.39977171               56.50245583              -29.59247496
              32.24317358                2.64043280               71.08588944                0.00010000                2.58515369                2.88847695              -10.91396990               -6.99399915               52.03953219              -38.32321996
              33.27458481                0.42226228               70.48727587                0.00010000                3.81543701                3.53318707              -14.38700200               -6.05653601               45.93172684              -48.64984313
              34.31948232               -1.79026728               69.81553061                0.00010000                5.31711878                4.19241739              -18.22788729               -4.62579265               37.82511710              -61.13698895
              35.38092718               -3.99334041               69.05007983                0.00010000                7.06989849                4.71709743              -22.32137203               -2.96017259               27.34624620              -76.19744492
              36.46088029               -6.18555987               68.16772979                0.00921658                8.81675442                5.14793396              -26.38905535               -1.41941806               14.45978913              -93.82792375
              37.55726227               -8.36741596               67.14815693                0.52679878                9.63819845                5.78344277              -29.96909041               -0.56839411                7.24948740             -113.50170537
              29.32686110               14.58349400               73.92406981                0.57556069               -0.20513714               -0.96082953                2.60055544               -0.11005772                0.14872271               10.59017075
              30.32480973               12.47756044               72.75242522                0.01309928                0.29391139                0.53678870               -1.21725473               -3.73908780               37.98310140               -8.83495063
              31.33273933               10.29471835               72.33755421                0.00010000                0.97183482                1.66188363               -3.57093788               -7.29678655               75.13736959              -13.68133217
              32.34424642                8.09562010               71.90150845                0.00010000                1.48919404                2.34073936               -6.14213663               -7.60507717               72.78852286              -19.05942499
              33.36252321                5.88646556               71.42960114                0.00010000                2.26710821                2.91483652               -9.03432822               -7.39818247               68.92994711              -25.26721751
              34.38958859                3.67354687               70.90538720                0.00010000                3.24067099                3.57809215              -12.30672454               -6.73994827               63.30425214              -32.61243442
              35.42733663                1.46224062               70.31025821                0.00010000                4.43097709                4.35779554              -15.99391858               -5.73257483               55.60358050              -41.45842169
              36.47820813               -0.74319387               69.62276006                0.00010000                5.88134527                5.18359262              -20.08144914               -4.46193579               45.47201862              -52.24876047
              37.54496353               -2.93974650               68.81857710                0.00010000                7.55159745                5.98620583              -24.45781905               -3.03729455               32.63837303              -65.46884076
              38.62924008               -5.12566182               67.87254659                0.01196439                9.22730754                6.77065060              -28.86471981               -1.55563151               17.16880984              -81.56113148
              39.72950968               -7.30027908               66.76318029                0.52846556               10.02696048                7.56236828              -32.72243794               -0.61236049                8.55936121             -100.74795110
              31.42421693               15.57481369               73.71585570                0.57102737                0.01160451               -0.77651272                2.05367205               -0.11212149                0.16080033               10.51290886
              32.42433298               13.48414236               72.44721464                0.01398961                1.03006404                0.78322056               -2.10919801               -3.91752299               45.71385524               -8.86260511
              33.44481821               11.31300065               72.08967039                0.00010000                2.19338027                1.87674602               -4.48827915               -7.47868891               90.44242301              -11.83446240
              34.46820058                9.12071978               71.70637546                0.00010000                2.60865469                2.46185693               -7.07511045               -7.63344302               87.59363077              -15.45103313
              35.49699131                6.91760076               71.27943168                0.00010000                3.21994842                3.09792608              -10.01301842               -7.03721577               82.95363871              -20.02263917
              36.53259955                4.71199464               70.78962246                0.00010000                3.98413745                3.95381373              -13.38260991               -6.11402321               76.26414792              -25.69647559
              37.57667406                2.50941819               70.21538190                0.00010000                4.98155837                4.95308670              -17.23148528               -5.04807887               67.14257538              -32.70367013
              38.63223072                0.31340457               69.53123544                0.00010000                6.29875897                6.02826688              -21.55914617               -3.89320379               55.10006263              -41.45737990
              39.70264924               -1.87361629               68.70751008                0.00010000                7.90347547                7.12121146              -26.26891315               -2.65212961               39.72527747              -52.61232628
              40.79030023               -4.05014685               67.71271557                0.01491420                9.58001721                8.18604469              -31.08857693               -1.34267050               20.97806929              -67.12321156
              41.89424958               -6.21616860               66.51866865                0.53015842               10.39493517                9.12346095              -35.23889785               -0.51054812               10.47508386              -85.85039479
              33.50596132               16.56796375               73.50632919                0.56810914                0.23109834               -0.59017675                1.50213472               -0.11503806                0.21598770               10.44553115
              34.50827230               14.49322485               72.14124862                0.01715432                2.03134076                1.03475949               -3.01348444               -4.20596538               54.52627424               -9.12203364
              35.54658814               12.33225327               71.86235280                0.00010000                3.93525734                1.66070974               -5.30434403               -7.58967274              107.80645144               -9.39583685
              36.58697745               10.14485724               71.55169817                0.00010000                4.19579453                1.98953407               -7.80280492               -7.00980001              104.29838804              -11.05433319
              37.63050403                7.94842408               71.18761868                0.00010000                4.42566223                2.90545780              -10.69109779               -5.91280070               98.81787272              -13.92731639
              38.67549069                5.75262315               70.75067576                0.00010000                4.72305478                4.04545932              -14.06823243               -4.81645408               91.21297974              -17.74746282
              39.72496512                3.56130235               70.21802529                0.00010000                5.39439225                5.30441942              -17.99791818               -3.83099466               80.92530137              -22.61634153
              40.78337854                1.37737147               69.56050433                0.00010000                6.52536214                6.62450702              -22.50210456               -2.87499296               67.16088309              -28.88241992
              41.85547236               -0.79732227               68.74128927                0.00010000                8.07802158                7.96392220              -27.50755423               -1.89422171               49.06338550              -37.25243578
              42.94493897               -2.96194092               67.71677391                0.01748122                9.79349196                9.25132870              -32.73503401               -0.90106863               26.19417390              -49.21922084
              44.05134220               -5.11780986               66.44470927                0.53166007               10.64032320               10.35433750              -37.14298983               -0.32713794               13.19088406              -67.16982932
              35.57139397               17.56301015               73.29691707                0.56301619                0.45301838               -0.39100419                0.94371570               -0.12101440               -0.19789348                9.09571623
              36.57592415               15.50483755               71.83078851                0.01965610                3.49992043                1.28048695               -3.94075690               -4.90932577               64.80279231               -8.32660084
              37.64139238               13.34621485               71.66459573                0.00010000                6.79548132                0.02580893               -5.97091050               -6.11222699              127.90007385               -5.38965347
              38.71183378               11.16051046               71.44700494                0.00010000                6.47885032                1.15866876               -8.26441066               -4.78858220              122.91345042               -5.82438363
              39.77096938                8.97570992               71.16279813                0.00010000                5.57792112                2.51925786              -11.00310498               -3.49319173              116.54829515               -7.14297841
              40.82339220                6.79290383               70.79840393                0.00010000                5.21682327                3.97233395              -14.28498043               -2.70376937              108.35822196               -9.04380610
              41.87530585                4.61550658               70.33092047                0.00010000                5.49816423                5.45215147              -18.18801349               -2.07572992               97.36002103              -11.53661014
              42.93335548                2.44589471               69.72854142                0.00010000                6.43856718                6.94624123              -22.75713283               -1.50828063               82.42673518              -14.82839339
              44.00407719                0.28566215               68.94795590                0.00010000                7.97054777                8.43713968              -27.95401726               -0.94305520               61.94137295              -19.41079828
              45.09276644               -1.86512028               67.92825681                0.02058994                9.76837502                9.87016980              -33.52519929               -0.40291359               33.89504316              -26.45548749
              46.19944469               -4.00908185               66.59023107                0.53327567               10.66782519               11.11029083              -38.08659214               -0.17358744               17.30903291              -40.60676816
              37.61988623               18.56014367               73.06041146                0.78090250                0.69948609               -0.28664863                0.27851208                0.71831916                4.13182813                7.74781320
              38.62688109               16.51883459               71.54067763                0.50585349                7.43922287                1.39970398               -4.80279508               -6.27301654               79.09323442               -7.30801028
              39.76867069               14.33276945               71.52001723                0.45045044               11.74148189               -1.34453972               -6.38560142               -4.81236750              150.03181580               -2.99279235
              40.86171073               12.16803061               71.40088327                0.44076780                7.97880648                0.75201556               -8.39445664               -1.71031525              142.57941457               -3.13228506
              41.92824682                9.99880923               71.21119674                0.43745108                5.99539571                2.30993141              -10.88390066               -1.07029541              136.01685686               -3.74604841
              42.98161865                7.83206983               70.93907530                0.43970972                5.11064103                3.91660006              -13.95904170               -0.60054816              127.78536193               -4.71160635
              44.03045964                5.67034538               70.56228368                0.44783555                5.07193558                5.48387967              -17.71078237               -0.27329757              116.77218741               -6.01032805
              45.08305736                3.51629629               70.04826160                0.46195084                5.85833049                7.04015807              -22.20640202                0.02394442              101.66656148               -7.75673561
              46.14762625                1.37142052               69.35091671                0.48272986                7.42836693                8.57583685              -27.43594463                0.31321510               80.53954821              -10.25747599
              47.23162470               -0.76453753               68.40295991                0.51122108                9.40836673               10.05827542              -33.21397410                0.53459769               48.48939744              -14.14183887
              48.33579358               -2.89560404               67.06618822                0.76710719               10.41688887               11.34778056              -37.82456270                0.52823797               28.37315401              -25.02840264
              17.03580846                8.99523643               76.28717708                0.87455739               -1.62624106               -1.81680944                6.17399260               -0.47061223               -5.53324429                6.03160116
              18.01954605                6.70931908               75.62753186                0.61657557               -1.62294137               -1.05358144                4.16365978               -0.56579792               -7.75768854               -4.62595783
              19.00334964                4.41417389               74.92369818                0.50052656               -1.44978431               -0.57239887                2.06084706               -0.49165930               -8.03270223               -0.37559765
              19.99055037                2.10080378               74.25929801                0.46258524               -0.94632780                0.01129571                0.05238640               -0.43753022               -5.55861206               -0.45925181
              20.98442308               -0.23041071               73.60540384                0.45113832               -0.16788543                0.59128283               -2.01374825               -0.37471561               -4.61630357               -0.27001475
              21.98719266               -2.57451584               72.95993427                0.45835548                0.77507734                1.18268163               -4.12625025               -0.32583479               -4.06185072               -0.09370961
              22.99992463               -4.92368722               72.31703663                0.48473072                1.75123942                1.77414781               -6.26282144               -0.30633923               -4.15613306                0.08793295
              24.02221745               -7.27000125               71.66955461                0.53518152                2.63001636                2.35325560               -8.39173664               -0.30999520               -4.94678243                0.27199248
              25.05252495               -9.60804959               71.01064674                0.62134173                3.34101702                2.91901261              -10.48994003               -0.30951419               -6.57497436                0.34961335
              26.08903779              -11.93596280               70.33019501                0.76158644                3.90588201                3.47625264              -12.57257840               -0.30925637               -7.07800611                1.17805973
              27.13064259              -14.25522482               69.66063463                0.93960136                4.16048069                4.09013191              -14.62384649               -0.65896423               -6.49944257               -4.53673486
              19.31701969                9.97706834               76.02264151                0.67435511               -1.26003462               -1.87894046                5.39068453               -0.28535439                4.15006071                8.97782402
              20.30441934                7.69878327               75.35815105                0.14498584               -0.71644980               -0.75767070                3.40158958               -0.62755285                9.40075931               -8.58186814
              21.30269069                5.40844990               74.79888350                0.03510785                0.20240114               -1.18361379                1.79025130               -1.91380006               14.50028094              -10.20152943
              22.30846737                3.10091674               74.23610539                0.02557699                0.78225208               -1.09509212                0.07311805               -3.01564941               15.00007120              -14.43290371
              23.31833574                0.77550212               73.68669620                0.02888068                1.10525985               -0.71629027               -1.68763139               -3.84141344               16.07634353              -19.54166639
              24.33057256               -1.56268902               73.14550631                0.03679210                1.31341023               -0.18448313               -3.48924154               -4.21539900               16.61066449              -25.43757355
              25.34460394               -3.90594574               72.60688891                0.05037852                1.53630599                0.39704222               -5.32148285               -4.10054144               16.51839999              -32.08323731
              26.36129868               -6.24646869               72.06377761                0.07296840                1.89033230                0.96165846               -7.13556618               -3.58287577               15.69681425              -39.36422121
              27.38241059               -8.57885947               71.50830741                0.11344156                2.41170772                1.50986345               -8.90851237               -2.81992315               14.41516320              -46.87895029
              28.40953284              -10.90120027               70.93891601                0.25860914                3.04521942                2.82070803              -10.64726909               -1.23981777               11.04327944              -51.44131057
              29.44331497              -13.21432350               70.31513983                0.69642979                3.37821368                3.71065175              -12.47736874                1.62224217                8.38293004              -62.55962009
              21.58667151               10.95765762               75.81733259                0.60026752               -1.10580830               -1.82540933                4.88948678               -0.12614609                0.00112887               11.10890177
              22.57561343                8.69416567               75.00982648                0.03799536               -1.18656739               -0.34572327                2.37222170               -1.93825477               13.75555889              -11.17743398
              23.56294016                6.39050162               74.47762774                0.00010000               -0.62141323               -1.12530935                0.69364823               -4.82270969               27.02483021              -19.55643348
              24.56318516                4.07890194               73.93343430                0.00010000                0.41302050               -1.40298256               -1.31284541               -6.22125520               26.18116341              -28.22646241
              25.57120057                1.75526348               73.38238121                0.00010000                1.05736846               -1.22978486               -3.37023893               -7.46329089               25.55419867              -38.45781074
              26.58433253               -0.57820550               72.82387908                0.00010000                1.52464471               -0.77363259               -5.53883582               -8.03451313               24.65520109              -50.16086014
              27.60169347               -2.91574637               72.25286674                0.00010000                1.95705627               -0.18233334               -7.86599505               -7.71691122               23.29308191              -63.39444148
              28.62347366               -5.25076808               71.66466774                0.00010000                2.45822996                0.45601589              -10.50888942               -6.52359065               21.82139433              -78.17060563
              29.65085807               -7.57785232               71.06064003                0.00010000                3.81159036                1.25460085              -14.04737444               -3.78212894               23.22943051              -94.29140023
              30.69970547               -9.87954864               70.49436753                0.00572837                6.92379144                2.45227903              -23.17990886               -0.56107482               19.18059791             -113.57386211
              31.78933390              -12.18101179               69.80818602                0.52563406                8.96284303                3.34238024              -29.16098146                2.22218903               12.63923905             -135.57448716
              23.84148067               11.94056015               75.59593696                0.58444390               -0.86704202               -1.59481044                4.29514166               -0.10981424                0.12710808               10.49363138
              24.83281025                9.69186880               74.68843739                0.02224748               -0.99902223               -0.13194009                1.48247330               -2.74193016               19.38396291               -9.67121622
              25.82150023                7.38594372               74.16626382                0.00010000               -0.67649295               -0.00869169               -0.55020372               -5.64699064               38.20626579              -18.45082054
              26.81928040                5.07285709               73.63240071                0.00010000                0.23385653                0.02703865               -2.69640988               -6.42442491               37.01328602              -27.40733235
              27.82617736                2.75090642               73.08268723                0.00010000                1.08058807                0.24528948               -5.02019336               -7.16008601               35.37399955              -37.23197700
              28.84089216                0.42183832               72.51194626                0.00010000                1.83254669                0.68239489               -7.52412713               -7.37259706               33.13693490              -48.36836357
              29.86282829               -1.90959240               71.91348465                0.00010000                2.60203326                1.27596177              -10.28314609               -6.77648157               30.23200855              -61.10265171
              30.89293282               -4.23734838               71.28053872                0.00010000                3.63601345                1.96939948              -13.47429449               -5.15046624               26.83368328              -75.83305586
              31.93554856               -6.55376745               70.60981063                0.00010000                5.42689906                2.75958907              -17.65654407               -2.33771722               21.91868844              -93.55156418
              33.00147080               -8.85215469               69.87526610                0.00010000                7.75682440                2.85421110              -22.16295667               -0.07859460               12.99249582             -118.20754867
              34.09068505              -11.14747590               69.02878236                0.51710977                8.92142481                3.34961009              -25.74176864                0.10588327                6.90316148             -142.34100722
              26.08185792               12.92576142               75.37878291                0.57814886               -0.64666616               -1.37467624                3.72675784               -0.10727274                0.12241240               10.79503198
              27.07539126               10.69152687               74.37021494                0.01720512               -0.64229274                0.07584617                0.58583483               -3.23553605               25.28467383               -9.37935345
              28.06901207                8.39032778               73.86504474                0.00010000               -0.28286487                0.73886861               -1.66699819               -6.43947263               49.89818848              -17.30792703
              29.06973396                6.07944271               73.34474283                0.00010000                0.50027755                1.10393178               -4.03261243               -6.88359772               48.23663801              -25.65202353
              30.07901762                3.76016927               72.80104569                0.00010000                1.38227277                1.44486732               -6.58290029               -7.17451548               45.71371765              -34.79738921
              31.09737942                1.43544240               72.22444938                0.00010000                2.31664602                1.89966316               -9.36723258               -7.01755579               42.17931670              -45.15999069
              32.12535054               -0.89022714               71.60429057                0.00010000                3.36299803                2.47163154              -12.44181600               -6.19661864               37.49576216              -57.17161061
              33.16463938               -3.21138009               70.92882118                0.00010000                4.67797496                3.09127618              -15.89411227               -4.62687947               31.37026179              -71.38899413
              34.21891004               -5.52266054               70.18223076                0.00010000                6.36013213                3.55735396              -19.65643070               -2.60003258               23.21147125              -88.68271029
              35.29184202               -7.82246442               69.34248178                0.00010000                8.15919679                3.61916190              -23.41346431               -1.00739887               12.53794940             -108.71240507
              36.38209397              -10.11401958               68.38601935                0.51870117                9.02519520                4.06827796              -26.69694943               -0.41279416                6.33619490             -129.68028185
              28.30780431               13.91306663               75.16385823                0.57231477               -0.42711475               -1.17051422                3.16617751               -0.10584997                0.13951646               10.94899730
              29.30353316               11.69338573               74.05463622                0.01422883               -0.15046897                0.30178319               -0.30361296               -3.53637248               31.64360019               -9.18256030
              30.30479493                9.40072109               73.57561861                0.00010000                0.41168930                1.26509088               -2.73288841               -6.94929195               62.48092204              -15.97133054
              31.31176695                7.09493572               73.07787633                0.00010000                1.09462182                1.84872098               -5.26877356               -7.29744232               60.34617091              -23.21796205
              32.32668737                4.77980377               72.54921443                0.00010000                1.95852503                2.31355343               -8.00712602               -7.29708466               56.96311366              -31.27980982
              33.35093745                2.45983159               71.97616055                0.00010000                2.95155198                2.83070494              -11.00750857               -6.85216619               52.14708000              -40.53569245
              34.38571841                0.13984023               71.34373423                0.00010000                4.09455937                3.43720025              -14.30916078               -5.91796316               45.67569779              -51.41392994
              35.43282864               -2.17552285               70.63491962                0.00010000                5.44569135                4.06303079              -17.90316854               -4.55230628               37.27100523              -64.41629636
              36.49463224               -4.48262037               69.83029375                0.00010000                6.99266145                4.58345203              -21.68436487               -2.98690196               26.68545642              -79.92307282
              37.57268187               -6.77977145               68.90924230                0.00010000                8.54536346                5.00973808              -25.42348028               -1.48744276               14.00444073              -97.92695639
              38.66553950               -9.06611034               67.85482560                0.52000189                9.28576374                5.59631958              -28.84293894               -0.65018682                6.98816479             -117.99400359
              30.51910272               14.90235113               74.95014119                0.56763215               -0.20933729               -0.97512290                2.61205422               -0.10368362                0.15049457               10.99468329
              31.51700935               12.69756253               73.74035195                0.01324131                0.46867554                0.53804718               -1.19512787               -3.74256783               38.65831290               -9.11237436
              32.52847623               10.41562960               73.30080533                0.00010000                1.38465456                1.64247692               -3.73904990               -7.28511898               76.36976973              -14.36560506
              33.54470244                8.11641713               72.83865711                0.00010000                1.98519149                2.29323965               -6.38257266               -7.57738931               73.74898715              -20.13257304
              34.56818006                5.80644034               72.33800418                0.00010000                2.77985983                2.83333468               -9.24512749               -7.32154547               69.52161572              -26.74734668
              35.60029964                3.49205649               71.78171325                0.00010000                3.70828275                3.45648808              -12.39801172               -6.61757994               63.47687520              -34.53558802
              36.64234572                1.17851687               71.15085869                0.00010000                4.78771070                4.18965000              -15.87277041               -5.59463218               55.35040517              -43.85882184
              37.69605385               -1.13011948               70.42421622                0.00010000                6.05374410                4.96703690              -19.64653517               -4.35221667               44.86299568              -55.14922756
              38.76342060               -3.43099150               69.57861861                0.00010000                7.47646420                5.72092121              -23.61339027               -2.99823579               31.86880381              -68.87192218
              39.84558313               -5.72226965               68.59128678                0.00174765                8.91737040                6.44041203              -27.56638825               -1.57932846               16.61316091              -85.42103648
              40.94176801               -8.00209319               67.44467768                0.52178873                9.61848727                7.14267005              -31.20572593               -0.69154559                8.27296668             -105.00076223
              32.71530784               15.89356417               74.73639873                0.56336366                0.00955018               -0.78415333                2.05580663               -0.10638452                0.16596270               10.91693795
              33.71540334               13.70414667               73.42619992                0.01409683                1.24650585                0.78345548               -2.09304071               -3.94378177               46.54731279               -9.15191285
              34.74023795               11.43357063               73.04367402                0.00010000                2.70025428                1.82400192               -4.66989104               -7.50682483               91.97645925              -12.43914881
              35.76940842                9.14080052               72.63404739                0.00010000                3.21895730                2.36201848               -7.34029526               -7.63754907               88.82395351              -16.34983325
              36.80461710                6.83647046               72.17788395                0.00010000                3.85504516                2.95721901              -10.24974717               -6.98425682               83.75238674              -21.23412175
              37.84650933                4.52896135               71.65509630                0.00010000                4.56923182                3.76857689              -13.48533774               -6.01070390               76.56215312              -27.25626751
              38.89600173                2.22363323               71.04370414                0.00010000                5.43916748                4.71116054              -17.08582683               -4.92016952               66.91982845              -34.65280064
              39.95529268               -0.07618212               70.31837700                0.00010000                6.54079816                5.71603732              -21.03392638               -3.77697796               54.41805940              -43.83657746
              41.02681770               -2.36820195               69.45051319                0.00010000                7.84521566                6.72644076              -25.22931377               -2.59483719               38.79543896              -55.44941133
              42.11219699               -4.65096321               68.41115802                0.00425978                9.22689859                7.69227556              -29.45424869               -1.35602429               20.28087796              -70.38748308
              43.21135567               -6.92325694               67.17730468                0.52302025                9.91586810                8.50957679              -33.32761753               -0.59470003               10.13158236              -89.45545941
              34.89581003               16.88666806               74.52130801                0.56067461                0.23172281               -0.59193584                1.49143815               -0.11209935                0.21923271               10.84627816
              35.89812725               14.71323164               73.11114761                0.01719986                2.29379319                1.03487858               -3.00205246               -4.27303171               55.57555393               -9.43351380
              36.94168589               12.45210964               72.80811131                0.00010000                4.54621857                1.55978785               -5.50283901               -7.67888801              109.75279849               -9.87964428
              37.98905163               10.16365750               72.47191879                0.00010000                4.93241019                1.82707339               -8.09898383               -7.03875200              105.89732193              -11.71978696
              39.04033409                7.86558472               72.07906468                0.00010000                5.19355839                2.70857607              -10.96601093               -5.87636461               99.91278414              -14.80247682
              40.09292279                5.56742803               71.60908770                0.00010000                5.43758488                3.80379181              -14.20320890               -4.73391952               91.71684929              -18.86426344
              41.14908579                3.27274008               71.03859940                0.00010000                5.97133350                4.99844363              -17.85952862               -3.72772628               80.79988063              -24.00983438
              42.21234946                0.98420127               70.33842137                0.00010000                6.86095807                6.23162594              -21.92968013               -2.77890332               66.45186543              -30.58930572
              43.28630495               -1.29646269               69.47267495                0.00010000                8.05840880                7.46242765              -26.32195495               -1.84537960               47.99001529              -39.30565549
              44.37351764               -3.56842414               68.40045848                0.00687398                9.40782511                8.63156111              -30.80448812               -0.91542264               25.35917584              -51.61511281
              45.47446145               -5.83190166               67.08634914                0.52434797               10.09438155                9.60135930              -34.88389416               -0.40929140               12.78993177              -69.79966077
              37.05993869               17.88172545               74.30624929                0.55568856                0.45624353               -0.38643513                0.92104084               -0.12079111               -0.20790514                9.43899356
              38.06450113               15.72484424               72.79137542                0.01954448                3.81478199                1.27960331               -3.93444425               -5.04338736               66.14786352               -8.61998416
              39.13623433               13.46476639               72.60356914                0.00010000                7.53285862               -0.16662933               -6.19354917               -6.23420316              130.40241107               -5.67254104
              40.21515830               11.17734199               72.36238013                0.00010000                7.35424726                0.94417376               -8.60310407               -4.82041138              124.98546061               -6.18706361
              41.28331928                8.89064198               72.05081661                0.00010000                6.47586397                2.27912554              -11.33283286               -3.46680147              118.03607994               -7.61189162
              42.34467558                6.60503719               71.65430874                0.00010000                6.06773469                3.68733957              -14.47789426               -2.65213268              109.16489823               -9.63825353
              43.40467397                4.32360210               71.14929034                0.00010000                6.21208981                5.09747696              -18.09668831               -2.01370658               97.42679287              -12.27656102
              44.46891738                2.04845040               70.50376490                0.00010000                6.89307744                6.49536528              -22.19737886               -1.45288045               81.77547267              -15.73357326
              45.54253552               -0.21895339               69.67516657                0.00010000                8.02050653                7.86385481              -26.70211019               -0.91499913               60.77954479              -20.49736439
              46.62932751               -2.47833199               68.60523420                0.00937947                9.37946748                9.16078676              -31.38012763               -0.41285350               32.94774326              -27.74597050
              47.73012487               -4.73122975               67.22371805                0.52583123               10.07973633               10.29688909              -35.59890484               -0.23309809               16.85805671              -41.98587343
              39.20715662               18.87893936               74.06302647                0.77719015                0.70619524               -0.27860908                0.24439727                0.71022765                4.28305901                8.03715422
              40.21421857               16.73882371               72.49259571                0.50187222                7.86737314                1.39794652               -4.80356105               -6.53637075               80.91157237               -7.57260173
              41.36450408               14.44877705               72.45462272                0.44952933               12.62746133               -1.59893319               -6.65085157               -4.98716126              153.21113368               -3.12997168
              42.46676780               12.18254098               72.31463287                0.44047772                8.93993896                0.51989927               -8.79447210               -1.71954089              145.21284261               -3.31474508
              43.54330286                9.91116723               72.10000073                0.43734717                7.00761113                2.05252515              -11.28927837               -1.06994904              138.00118951               -3.98011323
              44.60692002                7.64117482               71.79776961                0.43959806                6.10477890                3.61376379              -14.23671655               -0.59943635              129.00519588               -5.00556914
              45.66539844                5.37468962               71.38492033                0.44713388                5.94636612                5.10875201              -17.70546683               -0.28086527              117.14130559               -6.37092039
              46.72584735                3.11410858               70.82851496                0.46009468                6.46944612                6.56581727              -21.71864986               -0.00076344              101.17239708               -8.18811241
              47.79478736                0.86081441               70.08299891                0.47937514                7.58447907                7.97678025              -26.21314812                0.25933524               79.35416834              -10.75751733
              48.87753693               -1.38520841               69.08341848                0.50560931                9.04038248                9.31235828              -30.97554778                0.48202787               47.45099228              -14.71910446
              49.97559501               -3.62596387               67.70263580                0.76336080                9.80580866               10.52658759              -35.24032965                0.47146771               27.85435590              -25.61024350
              17.64942901                9.32474293               77.34917403                0.86835820               -1.64011380               -1.82940715                6.22319904               -0.47503806               -5.68467511                6.18354979
              18.63302787                6.93555996               76.66933929                0.60871117               -1.64924556               -1.06206769                4.19587030               -0.58350223               -7.95026031               -4.76674454
              19.61644410                4.53678569               75.94443445                0.49730869               -1.48055092               -0.57737179                2.08546169               -0.49208430               -8.22275424               -0.33754873
              20.60341685                2.11937103               75.25988607                0.46194544               -0.95921702                0.01057100                0.06608577               -0.43144865               -5.72907096               -0.44454432
              21.59725976               -0.31601080               74.58524020                0.45129247               -0.16767010                0.59830637               -2.01217260               -0.37105036               -4.83737191               -0.26495557
              22.60006345               -2.76421179               73.91856826                0.45847532                0.77876648                1.19764771               -4.13934537               -0.32900112               -4.31965821               -0.09174858
              23.61283509               -5.21742964               73.25422762                0.48400005                1.75566112                1.79570433               -6.29231807               -0.31304898               -4.43086115                0.07660985
              24.63517667               -7.66787846               72.58530027                0.53268262                2.63946973                2.38099749               -8.43993987               -0.31348343               -5.21153508                0.25648423
              25.66562448              -10.11024846               71.90533240                0.61472296                3.36039561                2.95436422              -10.55465142               -0.31616572               -6.82514776                0.32844477
              26.70238458              -12.54261096               71.20400647                0.74693112                3.93257626                3.51681714              -12.65482549               -0.31751079               -7.31902800                1.16359287
              27.74427601              -14.96647570               70.51383097                0.92901400                4.18914217                4.13536318              -14.72522878               -0.64816434               -6.73952248               -4.66483865
              20.03386159               10.30644885               77.07677300                0.66377874               -1.26901242               -1.89550004                5.43160763               -0.29038351                4.33230608                9.27608726
              21.02117147                7.92493928               76.39229491                0.13296534               -0.71219354               -0.76031819                3.42579565               -0.64876909                9.77723527               -8.85123692
              22.01961772                5.53101197               75.81686140                0.03618268                0.21645715               -1.18633913                1.80519497               -1.90193830               15.01869450              -10.60696542
              23.02550061                3.11947674               75.23682922                0.02676576                0.78614696               -1.04528462                0.07030325               -2.97243155               15.43638849              -15.14050141
              24.03534066                0.68997226               74.66964586                0.03006837                1.09911225               -0.64577709               -1.71583393               -3.75325358               16.46541736              -20.55165987
              25.04748286               -1.75223531               74.11031610                0.03802641                1.30986380               -0.10169868               -3.54284666               -4.07136064               16.96650637              -26.78030571
              26.06153794               -4.19947259               73.55323970                0.05170895                1.54841979                0.48094104               -5.40334147               -3.89411518               16.86639580              -33.82361258
              27.07845125               -6.64406849               72.99180272                0.07422539                1.91455687                1.02779092               -7.24539029               -3.29243507               16.06790734              -41.65462762
              28.09982907               -9.08070482               72.41843232                0.11386989                2.44359216                1.52946844               -9.05371974               -2.38431649               14.81769094              -50.14320252
              29.12732309              -11.50744279               71.83151671                0.23862763                3.09150121                2.45062072              -10.82743849               -0.81099533               11.41137181              -57.98059642
              30.16165910              -13.92512207               71.18932204                0.68069069                3.43360033                3.01050107              -12.68065960                1.66884217                8.69889942              -71.34619073
              22.40664048               11.28683292               76.86645832                0.59145475               -1.11511030               -1.84585961                4.92637868               -0.12462175               -0.02775980               11.50411873
              23.39548937                8.92035360               76.03369501                0.03754477               -1.13862995               -0.34296652                2.39629608               -1.96837747               14.11672710              -11.50530979
              24.38386788                6.51305890               75.48398715                0.00010000               -0.52407222               -1.08308139                0.60114890               -4.79435016               27.64470632              -20.39612911
              25.38500793                4.09846534               74.91985268                0.00010000                0.50194272               -1.31858149               -1.39023844               -6.11617382               26.63356249              -29.64366057
              26.39390673                1.67107366               74.34821700                0.00010000                1.15365809               -1.11943318               -3.45103839               -7.30114295               25.91850526              -40.46035565
              27.40808109               -0.76624576               73.76806561                0.00010000                1.64396161               -0.65967164               -5.61211007               -7.78056138               24.89262337              -52.81278178
              28.42678596               -3.20781082               73.17389781                0.00010000                2.12395538               -0.09070353               -7.91263971               -7.38858910               23.31761127              -66.79874946
              29.45056020               -5.64732265               72.55962059                0.00010000                2.72632450                0.48233848              -10.47692350               -6.15077832               21.31357420              -82.53409807
              30.48131245               -8.07965909               71.92151638                0.00010000                4.00108628                1.10737601              -13.72304221               -3.71790163               20.03029319             -100.07168226
              31.53058192              -10.49359855               71.27542982                0.00280044                6.58494724                1.92918262              -20.56987726               -0.88734346               14.69889467             -120.91917152
              32.61301140              -12.90626568               70.53038378                0.51619795                8.24294747                2.61288347              -25.90668407                1.63907911                9.01298008             -144.08664214
              24.76432781               12.26953166               76.63907503                0.57592693               -0.87498717               -1.61629439                4.32347281               -0.10906757                0.12646031               10.85747346
              25.75557794                9.91807995               75.70341545                0.02212296               -0.93544152               -0.12902015                1.51030573               -2.74235643               19.74672444               -9.93308293
              26.74561898                7.50935034               75.16029611                0.00010000               -0.52077776                0.05152040               -0.62416737               -5.62473482               38.88087974              -19.30515464
              27.74516238                5.09310511               74.60474208                0.00010000                0.42049583                0.08104363               -2.81331131               -6.36094256               37.55548976              -28.78628610
              28.75402890                2.66758360               74.03184103                0.00010000                1.27968578                0.30637675               -5.13017047               -7.04131648               35.73738781              -39.17599404
              29.77075610                0.23457126               73.43625267                0.00010000                2.04070725                0.73044924               -7.59821320               -7.20915405               33.29056325              -50.92304841
              30.79484304               -2.20128666               72.81057947                0.00010000                2.82639324                1.28529478              -10.28226910               -6.62341139               30.07137050              -64.32622374
              31.82728396               -4.63442172               72.14645597                0.00010000                3.84519516                1.90598249              -13.32107104               -5.16222479               26.05107224              -79.75187181
              32.87174694               -7.05855730               71.43588380                0.00010000                5.44494226                2.57166583              -17.09404091               -2.81533235               20.52847254              -97.90453308
              33.93618281               -9.46885914               70.65786528                0.00010000                7.40139961                2.83768732              -21.21502108               -0.71828667               11.84870115             -120.70247095
              35.01977494              -11.87286440               69.77674291                0.51095111                8.35921277                3.53344354              -24.56957551               -0.21038886                6.13599622             -143.91310954
              27.10736254               13.25450704               76.41616070                0.56964033               -0.65389742               -1.39398585                3.74940453               -0.10050939                0.12417501               11.18371987
              28.10082357               10.91777320               75.37622556                0.01723875               -0.55072564                0.07692105                0.61500585               -3.22724765               25.69541832               -9.64370146
              29.09634803                8.51408931               74.84784737                0.00010000               -0.06338719                0.76127170               -1.75119359               -6.40570125               50.65849890              -18.09900931
              30.09955582                6.10008621               74.30361653                0.00010000                0.76331126                1.12631815               -4.16579842               -6.83367905               48.84917057              -26.96280061
              31.11161425                3.67720119               73.73447823                0.00010000                1.66062247                1.45828760               -6.70652499               -7.09460485               46.11150731              -36.63293114
              32.13276827                1.24836323               73.13036824                0.00010000                2.58482315                1.89419145               -9.43033924               -6.92334130               42.31335767              -47.54958906
              33.16331071               -1.18210492               72.48006455                0.00010000                3.59090342                2.43511138              -12.39117563               -6.15347812               37.30919824              -60.13035177
              34.20458634               -3.60920300               71.77104042                0.00010000                4.80662561                3.02167330              -15.65698129               -4.75309584               30.85958663              -74.84750409
              35.25944323               -6.02822578               70.98800604                0.00010000                6.29684743                3.51837918              -19.18753180               -2.95375637               22.55330668              -92.28407517
              36.33052329               -8.43684480               70.11180072                0.00010000                7.86854549                3.79775741              -22.73161206               -1.35582942               12.08319362             -112.25552159
              37.41681414              -10.83559681               69.12300867                0.51225260                8.62908490                4.34550146              -25.91649091               -0.57099832                6.05994434             -133.44846178
              29.43578531               14.24165194               76.19561221                0.56442943               -0.43345964               -1.18299345                3.18358803               -0.09901007                0.14061122               11.35100020
              30.43145071               11.91961838               75.05173169                0.01432469               -0.02966826                0.29880299               -0.27636368               -3.52939450               32.12771188               -9.44682499
              31.43519194                9.52457578               74.54770552                0.00010000                0.69631072                1.26307588               -2.82621971               -6.92526825               63.37724508              -16.71828679
              32.44537692                7.11563147               74.02429862                0.00010000                1.43339206                1.83556843               -5.41567837               -7.26774616               61.07324873              -24.42763005
              33.46385978                4.69674935               73.46834966                0.00010000                2.31092293                2.28239573               -8.13761315               -7.24456268               57.43729609              -32.95826123
              34.49159538                2.27245509               72.86573927                0.00010000                3.27399594                2.77680691              -11.05663698               -6.79152393               52.32038872              -42.70028088
              35.52933970               -0.15258444               72.20109265                0.00010000                4.33737609                3.35995958              -14.21213675               -5.89561519               45.53955647              -54.06964807
              36.57834290               -2.57398825               71.45746724                0.00010000                5.54869614                3.97835969              -17.60028126               -4.62417479               36.88835250              -67.51442699
              37.64031362               -4.98818972               70.61639254                0.00010000                6.90471725                4.54106962              -21.13927986               -3.15449545               26.22231230              -83.38498010
              38.71643725               -7.39290399               69.65926018                0.00010000                8.27726770                5.04232705              -24.65632233               -1.64218577               13.69138959             -101.71318141
              39.80585898               -9.78595437               68.57129815                0.51354326                8.94217281                5.64117031              -27.96585211               -0.73638432                6.82069043             -122.17154701
              31.74944948               15.23084717               75.97631089                0.55998176               -0.21376319               -0.98331596                2.61834647               -0.10236627                0.15165729               11.40085612
              32.74731184               12.92374925               74.72852267                0.01334420                0.61900443                0.53450329               -1.16860378               -3.74715523               39.24954185               -9.38343401
              33.76182957               10.53935083               74.26277321                0.00010000                1.73577397                1.61679599               -3.84163330               -7.28218411               77.46688242              -15.05191438
              34.78202732                8.13679758               73.77385699                0.00010000                2.40349084                2.24149754               -6.54280652               -7.57044606               74.65328281              -21.20847092
              35.80989938                5.72284911               73.24469859                0.00010000                3.21221268                2.75542366               -9.38387188               -7.28839338               70.13024783              -28.21633384
              36.84627158                3.30389936               72.65742697                0.00010000                4.09711854                3.35198758              -12.43732169               -6.56638925               63.73810231              -36.41556427
              37.89184175                0.88509427               71.99280280                0.00010000                5.07182733                4.06029560              -15.73522032               -5.55424668               55.26601532              -46.16457028
              38.94770812               -1.52963580               71.22982936                0.00010000                6.17136515                4.82280654              -19.25929643               -4.35293515               44.50767409              -57.88352044
              40.01526906               -3.93740439               70.34630930                0.00010000                7.38680499                5.57644272              -22.92638831               -3.04495462               31.40914636              -72.02649370
              41.09544422               -6.33599826               69.32121883                0.00010000                8.64590739                6.29178866              -26.59093760               -1.63399856               16.29026305              -88.97976074
              42.18818720               -8.72277340               68.13906577                0.51486398                9.27429797                6.95025626              -30.09411366               -0.74106723                8.12217087             -108.95944090
              34.04793381               16.22198563               75.75697183                0.55623038                0.00701362               -0.79042053                2.05421106               -0.10685354                0.16375316               11.31707329
              35.04800394               13.93030844               74.40535382                0.01416050                1.42830646                0.78149147               -2.07026716               -3.97028466               47.28801244               -9.43282860
              36.07649994               11.55691170               73.99627257                0.00010000                3.12328925                1.77072173               -4.78319469               -7.54018292               93.35884176              -13.04149366
              37.11046973                9.16046142               73.55956955                0.00010000                3.72450958                2.26655864               -7.51738619               -7.65553387               89.98356263              -17.24722548
              38.15099013                6.75185782               73.07443674                0.00010000                4.37763515                2.82963867              -10.40351192               -6.96375803               84.56500496              -22.43491063
              39.19802243                4.33949484               72.51991571                0.00010000                5.03999030                3.61130416              -13.52572464               -5.96074780               76.96410790              -28.78237863
              40.25178993                1.92862148               71.87366536                0.00010000                5.78802138                4.52125953              -16.91949865               -4.86198256               66.90839310              -36.52874301
              41.31378286               -0.47753212               71.11055691                0.00010000                6.69935285                5.49166253              -20.56816500               -3.73250858               54.06794638              -46.08455736
              42.38577699               -2.87666086               70.20292380                0.00010000                7.76717178                6.46578082              -24.39242596               -2.57847968               38.28741849              -58.08394324
              43.46912629               -5.26706822               69.12363059                0.00010000                8.94054598                7.38394516              -28.24645332               -1.36421532               19.90672012              -73.39914091
              44.56458791               -7.64694924               67.85211630                0.51633411                9.54616162                8.12784816              -31.95261874               -0.62948709                9.97012166              -92.82492648
              36.33066677               17.21503876               75.53615795                0.55353465                0.23133074               -0.59570280                1.47633776               -0.11347718                0.22195149               11.23785006
              37.33298008               14.93937908               74.08120757                0.01718920                2.51030754                1.03406660               -2.97880011               -4.33579355               56.52295118               -9.73252626
              38.38087293               12.57476526               73.75229602                0.00010000                5.04952187                1.46704632               -5.63159050               -7.76571961              111.52472563              -10.35935813
              39.43397052               10.18212875               73.38971850                0.00010000                5.53589396                1.67968425               -8.30020360               -7.07487971              107.40593562              -12.38111122
              40.49159080                7.77944188               72.96829846                0.00010000                5.81612245                2.53391088              -11.14660384               -5.86155254              101.00997615              -15.66859601
              41.55029297                5.37612545               72.46661158                0.00010000                6.00191299                3.59810046              -14.26214224               -4.68642018               92.32891211              -19.95878329
              42.61162906                2.97551946               71.86083472                0.00010000                6.40236613                4.75164771              -17.68783705               -3.66661956               80.91505497              -25.35641934
              43.67834029                0.58019745               71.12191073                0.00010000                7.08032467                5.93308889              -21.41326873               -2.72011941               66.14035966              -32.21093846
              44.75323556               -1.80808877               70.21485017                0.00010000                8.00540038                7.10258852              -25.36378768               -1.80475067               47.44537152              -41.22122809
              45.83844830               -4.18831936               69.10068415                0.00010000                9.10619768                8.20342619              -29.38854042               -0.90420667               24.93456713              -53.82521963
              46.93535951               -6.56021644               67.74703139                0.51758588                9.69112129                9.09316354              -33.27615728               -0.43719654               12.61414959              -72.28564802
              38.59698361               18.21007157               75.31533789                0.54826899                0.45779552               -0.38531837                0.89739714               -0.12107185               -0.21612823                9.77622799
              39.60156156               15.95098977               73.75209963                0.01936764                4.07261343                1.27814423               -3.91644787               -5.16413694               67.37803702               -8.90351420
              40.67843588               13.58625262               73.54072475                0.00010000                8.13669777               -0.33511980               -6.34492008               -6.34756937              132.70306294               -5.95298761
              41.76429552               11.19405511               73.27494286                0.00010000                8.06632508                0.75507450               -8.84041338               -4.85487651              126.94098610               -6.54472049
              42.83976238                8.80253604               72.93614148                0.00010000                7.19604617                2.06984286              -11.55684601               -3.45275944              119.50696052               -8.07462462
              43.90821644                6.41145685               72.50884604                0.00010000                6.73115809                3.44556301              -14.57867420               -2.61858053              110.07383111              -10.22138054
              44.97438554                4.02365443               71.96898670                0.00010000                6.73861290                4.80737624              -17.95182993               -1.97079290               97.75020508              -12.99429967
              46.04298870                1.64112965               71.28459384                0.00010000                7.19066214                6.14182401              -21.67319724               -1.40885476               81.57370564              -16.59894553
              47.11819878               -0.73460909               70.41391370                0.00010000                8.00905640                7.43471340              -25.67427950               -0.87794084               60.25034224              -21.51972284
              48.20316983               -3.10299969               69.30065426                0.00010000                9.07196762                8.65155907              -29.80489445               -0.39587650               32.49823246              -28.93274019
              49.29963814               -5.46508597               67.87825297                0.51885606                9.64683075                9.72860100              -33.82721120               -0.25429993               16.67436796              -43.32782109
              40.84640893               19.20733239               75.06529941                0.77363258                0.71073607               -0.27391797                0.21244181                0.70349003                4.43510627                8.32136638
              41.85351629               16.96494197               73.44460641                0.49772469                8.22236364                1.39521956               -4.79376497               -6.76800338               82.59370309               -7.82774233
              43.01085620               14.56806287               73.38700020                0.44849330               13.35366396               -1.81897530               -6.83990361               -5.14355387              156.14525261               -3.25625049
              44.12058957               12.19723024               73.22499383                0.44030957                9.71388356                0.31751323               -9.08575124               -1.73180157              147.69933405               -3.48370268
              45.20513387                9.82083874               72.98541118                0.43751809                7.81066987                1.83026954              -11.57872055               -1.07252711              139.94672833               -4.20073770
              46.27680297                7.44503671               72.65434096                0.43952095                6.87032630                3.35798585              -14.40718376               -0.59993494              130.31780108               -5.28397124
              47.34254040                5.07166699               72.20817434                0.44617350                6.58118749                4.80125572              -17.62395255               -0.28465301              117.77895746               -6.71102601
              48.40842672                2.70303393               71.61388860                0.45840455                6.86328449                6.19042738              -21.23417994               -0.00927274              101.17743599               -8.59207957
              49.47980609                0.34060550               70.82665375                0.47606411                7.62904658                7.52145912              -25.17514002                0.24462535               78.91714755              -11.22294136
              50.56100765               -2.01528818               69.78344895                0.50029759                8.73199889                8.77115176              -29.29628542                0.47128618               47.02861661              -15.24316995
              51.65444607               -4.36564442               68.36138162                0.75985720                9.34384189                9.94415551              -33.34957003                0.44516915               27.69428214              -26.21311731
              18.28178443                9.66370948               78.41164106                0.86224616               -1.65039987               -1.84036938                6.25738272               -0.47989560               -5.83675306                6.32975212
              19.26528043                7.16807296               77.71144927                0.60099900               -1.67183271               -1.06701515                4.21847993               -0.59750109               -8.13610470               -4.90758124
              20.24834777                4.66256902               76.96540742                0.49420840               -1.50586146               -0.58111246                2.10555774               -0.48406673               -8.39840370               -0.29690544
              21.23516320                2.13802661               76.26061973                0.46102651               -0.96771590                0.01134883                0.08249808               -0.42975982               -5.88477345               -0.42873144
              22.22899345               -0.40452114               75.56516039                0.45129694               -0.16755615                0.60132594               -2.00247934               -0.37728004               -5.04650359               -0.26039934
              23.23181207               -2.95984648               74.87714737                0.45874603                0.77909702                1.20539991               -4.13573988               -0.33322529               -4.56990837               -0.09088268
              24.24457539               -5.52017919               74.19119026                0.48329050                1.75349431                1.80910029               -6.29756612               -0.31451443               -4.69502069                0.06607660
              25.26688196               -8.07787645               73.50075581                0.52993363                2.63702059                2.39948938               -8.45208155               -0.31684144               -5.46497121                0.24134307
              26.29731581              -10.62768053               72.79955371                0.60789978                3.36383495                2.97730343              -10.57815585               -0.31828803               -7.07090371                0.30553126
              27.33415866              -13.16771143               72.07709850                0.73196146                3.94436685                3.54758768              -12.69594076               -0.31997122               -7.55738859                1.14748572
              28.37620314              -15.69950373               71.36613006                0.91796157                4.20444826                4.17036104              -14.78124914               -0.63131436               -6.97670382               -4.78472769
              20.77262199               10.64530579               78.13127366                0.65292445               -1.27463399               -1.91357566                5.46099962               -0.29737267                4.51496593                9.57099775
              21.75987565                8.15740281               77.42666697                0.12076675               -0.70458559               -0.75670123                3.44249438               -0.67045928               10.15702336               -9.11807190
              22.75853028                5.65675789               76.83498740                0.03725313                0.22675139               -1.17123474                1.81718643               -1.89669285               15.53229278              -11.04594825
              23.76441068                3.13814010               76.23751145                0.02795185                0.78134611               -0.99553728                0.06347712               -2.94012015               15.86455428              -15.86760981
              24.77415720                0.60149212               75.65237953                0.03124440                1.09490840               -0.58088301               -1.73451594               -3.67841403               16.84601972              -21.57080245
              25.78630885               -1.94779248               75.07464938                0.03918717                1.31440179               -0.02756133               -3.58625543               -3.94440957               17.30649018              -28.11082531
              26.80044524               -4.50208819               74.49882208                0.05284275                1.55776849                0.55590326               -5.46308012               -3.70868789               17.19723721              -35.51755758
              27.81746422               -7.05388156               73.91886981                0.07512649                1.93025879                1.08865788               -7.33211053               -3.02873437               16.41569810              -43.83703785
              28.83905041               -9.59790749               73.32723301                0.11366341                2.47031678                1.54715399               -9.16683211               -2.00075474               15.18725470              -53.11315900
              29.86687055              -12.13223555               72.72236724                0.21868447                3.13159472                2.17153926              -10.97861475               -0.46176647               11.75547215              -63.06275429
              30.90168231              -14.65780012               72.06152663                0.66546048                3.48117552                2.46691173              -12.85262040                1.61766455                8.99795568              -78.10163616
              23.25164293               11.62543797               77.91586016                0.58248771               -1.12237882               -1.86492751                4.94971145               -0.11455053               -0.05705959               11.89613401
              24.24041914                9.15293894               77.05775241                0.03701139               -1.09831528               -0.33631034                2.41732302               -1.98228212               14.43758149              -11.82304812
              25.22967662                6.63914432               76.48965072                0.00010000               -0.43962864               -1.03887399                0.54673487               -4.77810760               28.22002936              -21.27889434
              26.23162657                4.11811587               75.90562953                0.00010000                0.58405670               -1.23862927               -1.44400556               -6.04242630               27.08478068              -31.09139917
              27.24135776                1.58386120               75.31336044                0.00010000                1.24388102               -1.01834048               -3.50896680               -7.16281252               26.27543009              -42.47262462
              28.25650419               -0.96039771               74.71163687                0.00010000                1.75664789               -0.55663970               -5.66051637               -7.56330912               25.12682995              -55.43252766
              29.27649071               -3.50906112               74.09461394                0.00010000                2.28111961               -0.00977167               -7.93026468               -7.10492128               23.35467042              -70.10524021
              30.30212658               -6.05610330               73.45512927                0.00010000                2.95819933                0.50379571              -10.40153531               -5.82453011               20.92048193              -86.68818302
              31.33565470               -8.59673745               72.78617918                0.00010000                4.13446907                0.97798610              -13.33038437               -3.62595286               17.96083473             -105.38005818
              32.38481596              -11.12428064               72.08296998                0.00028507                6.20154401                1.48302691              -18.20149678               -1.13564459               11.73062581             -127.37285147
              33.45968558              -13.65016550               71.29005234                0.50740715                7.48696199                1.97185691              -22.42018887                1.10988511                6.57053881             -151.36318254
              25.71532904               12.60800724               77.68240641                0.56760354               -0.88053855               -1.62696710                4.34007654               -0.10462416                0.13044754               11.22034181
              26.70652366               10.15067660               76.71864350                0.02191689               -0.87689238               -0.13011722                1.53300630               -2.74165028               20.07043529              -10.17925540
              27.69779120                7.63598041               76.15378047                0.00010000               -0.38391917                0.08969359               -0.66726008               -5.60973203               39.48677953              -20.15398267
              28.69884527                5.11336752               75.57613449                0.00010000                0.58116652                0.12571430               -2.89089468               -6.31975803               38.06393558              -30.17489117
              29.70941453                2.58112531               74.98008382                0.00010000                1.45598561                0.35704128               -5.20435712               -6.95772453               36.09452678              -41.10969203
              30.72796499                0.04107472               74.35998199                0.00010000                2.23189370                0.76808580               -7.64020740               -7.09264334               33.45501864              -53.42751749
              31.75405240               -2.50228362               73.70783927                0.00010000                3.03424753                1.28568836              -10.25086640               -6.52543813               29.95402013              -67.43711455
              32.78864994               -5.04380565               73.01411730                0.00010000                4.03281504                1.83809265              -13.13301305               -5.21505513               25.44077388              -83.47362750
              33.83470870               -7.57834777               72.26792981                0.00010000                5.44678872                2.39433302              -16.50422636               -3.26040980               19.40815880             -102.03000710
              34.89758571              -10.10257501               71.45096568                0.00010000                7.04705119                2.76554480              -20.16051493               -1.31639592               10.88457479             -123.83283096
              35.97564972              -12.61836299               70.53739085                0.50478876                7.80640132                3.63107205              -23.29383227               -0.51922890                5.54913194             -146.45373207
              28.16421171               13.59289863               77.45377100                0.56202709               -0.65987516               -1.40353993                3.76322534               -0.10377678                0.12045332               11.57150213
              29.15761296               11.15033659               76.38251506                0.01721007               -0.47103228                0.07377570                0.64136031               -3.22449991               26.05392908               -9.89514799
              30.15479107                8.64093819               75.83002087                0.00010000                0.12367731                0.77245473               -1.80019121               -6.38623652               51.33398397              -18.88956175
              31.16008651                6.12063016               75.26142686                0.00010000                0.98524948                1.13875718               -4.25181181               -6.80968278               49.41938249              -28.26931555
              32.17449606                3.59100202               74.66691519                0.00010000                1.89868700                1.46464360               -6.78591642               -7.05440153               46.50535956              -38.44557455
              33.19806025                1.05496401               74.03584260                0.00010000                2.81831319                1.88462571               -9.45868995               -6.88560680               42.47772804              -49.87675430
              34.23086232               -1.48334736               73.35646706                0.00010000                3.79146896                2.39963196              -12.31862720               -6.17881416               37.19358994              -62.96924887
              35.27388963               -4.01934144               72.61568155                0.00010000                4.91767745                2.96026562              -15.41471154               -4.94287826               30.45551475              -78.12895182
              36.32921587               -6.54885079               71.79848012                0.00010000                6.23068144                3.48622689              -18.72490312               -3.35257323               21.99742297              -95.74518376
              37.39850326               -9.06896975               70.88784954                0.00010000                7.58305396                3.95609110              -22.06953213               -1.73374678               11.67788215             -115.70921444
              38.48087695              -11.57754406               69.86768953                0.50616308                8.23736933                4.63823068              -25.15928931               -0.74604847                5.83595790             -137.15227448
              30.59837758               14.57993644               77.22752999                0.55695499               -0.43834806               -1.19449982                3.19136493               -0.10340196                0.13550348               11.74408196
              31.59399410               12.15215212               76.04910895                0.01437344                0.06976641                0.29675631               -0.24747529               -3.52910179               32.55161023               -9.69818893
              32.59977290                9.65142951               75.51909421                0.00010000                0.92968456                1.25430336               -2.88023417               -6.91604875               64.17526629              -17.45972499
              33.61258779                7.13614266               74.96956276                0.00010000                1.71098686                1.81733140               -5.50870773               -7.26275591               61.75227891              -25.62722617
              34.63399264                4.61041818               74.38646217                0.00010000                2.60072225                2.25122786               -8.21810161               -7.23282190               57.91469630              -34.60703282
              35.66460223                2.07876724               73.75502781                0.00010000                3.53944639                2.73023812              -11.07092072               -6.79059673               52.54625329              -44.79890007
              36.70478157               -0.45429098               73.05949149                0.00010000                4.53467852                3.30000553              -14.10574117               -5.94831311               45.50272676              -56.60815786
              37.75529580               -2.98460033               72.28291399                0.00010000                5.62519850                3.92309452              -17.32541030               -4.77605243               36.63903722              -70.44217573
              38.81728554               -5.50862323               71.40750815                0.00010000                6.81541225                4.53990736              -20.67407492               -3.39273358               25.89328281              -86.62746679
              39.89160405               -8.02345319               70.41611586                0.00010000                8.02959210                5.13672344              -24.02966583               -1.84232358               13.46351766             -105.24948428
              40.97787738              -10.52559837               69.29550856                0.50724868                8.62733340                5.77219515              -27.25933218               -0.83248858                6.71098241             -126.10000130
              33.01771232               15.56900863               77.00250812                0.55264625               -0.21744574               -0.99389342                2.61796249               -0.10162418                0.15229899               11.79703151
              34.01553786               13.15627172               75.71697987                0.01340516                0.73836156                0.53265363               -1.13780147               -3.75578109               39.77470159               -9.64092461
              35.03247955               10.66602426               75.22397267                0.00010000                2.01524268                1.58942198               -3.90088388               -7.29343915               78.45231536              -15.72988361
              36.05584272                8.15697678               74.70780098                0.00010000                2.73677458                2.19259225               -6.64364649               -7.58349791               75.50371787              -22.27076680
              37.08721504                5.63602658               74.15032674                0.00010000                3.55573799                2.68771003               -9.46752202               -7.29148054               70.74873428              -29.65456302
              38.12695748                3.10956877               73.53296681                0.00010000                4.40242949                3.26809626              -12.44153041               -6.57065974               64.07453738              -38.23354159
              39.17526363                0.58265275               72.83615428                0.00010000                5.28716782                3.96587129              -15.59922627               -5.58507480               55.32221281              -48.36327073
              40.23270083               -1.94087955               72.03903029                0.00010000                6.24752121                4.73228500              -18.93240972               -4.43040170               44.34778996              -60.45438121
              41.30021406               -4.45805264               71.12009084                0.00010000                7.29655461                5.51007761              -22.38534045               -3.15744393               31.16151535              -74.95925716
              42.37863192               -6.96623528               70.05946802                0.00010000                8.41517432                6.25209216              -25.86501064               -1.72563322               16.11344043              -92.28269758
              43.46851754               -9.46210016               68.84279541                0.50864702                8.98856186                6.89386438              -29.28379971               -0.79102211                8.05316576             -112.67218223
              35.42181892               16.56005857               76.77748295                0.54906620                0.00439304               -0.79748110                2.04605226               -0.10346334                0.16179672               11.70922075
              36.42186285               14.16280519               75.38479458                0.01417886                1.56900712                0.77817962               -2.03849374               -3.99651416               47.95407056               -9.70013495
              37.45319906               11.68321795               74.94801013                0.00010000                3.45263303                1.72230207               -4.85007072               -7.58103782               94.61502798              -13.63497385
              38.49091551                9.17999451               74.48369966                0.00010000                4.11859920                2.18425939               -7.63006051               -7.68601899               91.08114242              -18.13023141
              39.53557104                6.66417238               73.96981371                0.00010000                4.78236791                2.72407437              -10.49677534               -6.97199276               85.39044984              -23.60769970
              40.58656286                4.14412916               73.38458181                0.00010000                5.39786776                3.48766316              -13.52857392               -5.95693187               77.46105120              -30.25614764
              41.64352840                1.62502644               72.70531416                0.00010000                6.04151486                4.38187991              -16.76087737               -4.86298447               67.07968062              -38.31604256
              42.70739316               -0.88995463               71.90701370                0.00010000                6.79819939                5.34125613              -20.18640234               -3.75038757               53.98077721              -48.19684073
              43.77949238               -3.39842168               70.96266467                0.00010000                7.68728680                6.30877481              -23.75490658               -2.61159010               38.07577262              -60.53373993
              44.86113890               -5.89841135               69.84622896                0.00010000                8.71471556                7.21415384              -27.38375463               -1.39517825               19.74212799              -76.20292008
              45.95378670               -8.38772109               68.53825231                0.50984015                9.26477983                7.91744330              -30.99591210               -0.65435292                9.91956436              -96.00989883
              37.81014982               17.55305901               76.55083477                0.54621986                0.22983910               -0.59750061                1.46100366               -0.10868322                0.22999638               11.62615485
              38.81244821               15.17183531               75.05157161                0.01713487                2.67598319                1.02849664               -2.94762839               -4.38882743               57.38646821              -10.02384608
              39.86366948               12.70047030               74.69547950                0.00010000                5.43598468                1.38922551               -5.71072369               -7.84600209              113.15204928              -10.83134751
              40.92116790               10.20066197               74.30591472                0.00010000                5.99855250                1.55888688               -8.43208752               -7.11582217              108.84029226              -13.02961931
              41.98364053                7.69050807               73.85613261                0.00010000                6.28984372                2.39321972              -11.26042408               -5.86778354              102.11700005              -16.51222665
              43.04696478                5.17932203               73.32384485                0.00010000                6.42236057                3.43755141              -14.27805039               -4.67368037               93.04904066              -21.01458185
              44.11208774                2.67029035               72.68484265                0.00010000                6.70882161                4.56750214              -17.52330857               -3.64872947               81.24858979              -26.63980982
              45.18114121                0.16594557               71.91015599                0.00010000                7.21756138                5.72241302              -20.99299655               -2.70480830               66.15423699              -33.73763104
              46.25643897               -2.33187714               70.96539920                0.00010000                7.94432780                6.86351275              -24.64307000               -1.79541038               47.28033647              -43.00868610
              47.34002776               -4.82195220               69.81268767                0.00010000                8.88054960                7.93298724              -28.39830994               -0.90300795               24.78362635              -55.89593072
              48.43404996               -7.30375129               68.42082600                0.51125244                9.40221973                8.77923391              -32.18517301               -0.44850351               12.58175797              -74.68054239
              40.18209265               18.54810856               76.32419723                0.54092260                0.45823605               -0.38076783                0.87733100               -0.11859745               -0.22432511               10.11687523
              41.18667501               16.18337512               74.71304646                0.01915832                4.26798560                1.27099941               -3.89310757               -5.25812364               68.51375000               -9.18941166
              42.26745236               13.71100246               74.47667074                0.00010000                8.59431444               -0.46845816               -6.44245338               -6.44253211              134.83936051               -6.22977397
              43.35856130               11.21117224               74.18557187                0.00010000                8.60514747                0.60515103               -9.00308224               -4.88950367              128.80297001               -6.89326753
              44.43955531                8.71203678               73.81967969                0.00010000                7.73728397                1.90525053              -11.70695956               -3.45211444              120.97774693               -8.52349932
              45.51330697                6.21288019               73.36273525                0.00010000                7.21874826                3.25917580              -14.62835388               -2.60560909              111.09624979              -10.78257867
              46.58393027                3.71637649               72.79025374                0.00010000                7.10787587                4.59017365              -17.80739524               -1.95221745               98.31985671              -13.67784665
              47.65546449                1.22449363               72.07030096                0.00010000                7.37758376                5.88659503              -21.24519510               -1.38762319               81.75464073              -17.41465518
              48.73148195               -1.26115143               71.16168098                0.00010000                7.97441964                7.13763149              -24.90291429               -0.85571194               60.18658348              -22.47809443
              49.81495288               -3.73975160               70.00913631                0.00010000                8.84664288                8.31455002              -28.71681479               -0.38156805               32.39157951              -30.05069215
              50.90841481               -6.21213641               68.54717382                0.51225860                9.34619207                9.36338802              -32.64210474               -0.26021260               16.67260393              -44.66620897
              42.53724474               19.54544365               76.06727530                0.77014904                0.71470993               -0.26649071                0.18216763                0.69637416                4.58747141                8.61185325
              43.54439184               17.19725530               74.39672041                0.49378032                8.48884889                1.38801768               -4.77644716               -6.94544248               84.17206782               -8.09105953
              44.70702172               14.69110114               74.31782465                0.44753314               13.89758340               -1.99013176               -6.96897268               -5.26757946              158.87946088               -3.37311128
              45.82234351               12.21276499               74.13291784                0.44013304               10.29342873                0.15927477               -9.29572560               -1.74618170              150.06488614               -3.64056861
              46.91289029                9.72861308               73.86842632                0.43741150                8.40846869                1.65763039              -11.78672743               -1.07947352              141.87575224               -4.40703322
              47.99051288                7.24450555               73.50962593                0.43923037                7.42698326                3.16253582              -14.51816292               -0.60537208              131.74324463               -5.54469886
              49.06142996                4.76209382               73.03244128                0.44550801                7.02018882                4.57173370              -17.53400226               -0.29143549              118.68661040               -7.02859449
              50.13091666                2.28367747               72.40383136                0.45669691                7.10700006                5.91838438              -20.83903896               -0.01570039              101.62523130               -8.96861591
              51.20356996               -0.18912451               71.57949611                0.47311220                7.62323626                7.20269119              -24.39609766                0.24186760               79.05451247              -11.66080611
              52.28338138               -2.65566120               70.49749278                0.49524791                8.50226793                8.40904023              -28.13892425                0.47489905               47.06137416              -15.74674141
              53.37361532               -5.11648353               69.03564440                0.75655657                9.02339350                9.56528772              -32.08103032                0.43781827               27.80984091              -26.86362208
              18.93307754               10.01207276               79.47432168                0.85590884               -1.65381147               -1.84230549                6.26984915               -0.48030557               -5.98096653                6.47407431
              19.91653942                7.40697294               78.75370889                0.59265233               -1.68859854               -1.06982315                4.22747069               -0.61337994               -8.31019629               -5.04549759
              20.89930557                4.79168761               77.98654560                0.49119332               -1.52855046               -0.58379088                2.12399788               -0.48664703               -8.55979054               -0.25116609
              21.88596841                2.15701295               77.26153604                0.46021342               -0.97517603                0.01017860                0.10054848               -0.42411815               -6.02712206               -0.41730763
              22.87980204               -0.49565707               76.54519061                0.45175723               -0.16665037                0.60132265               -1.98255013               -0.37021207               -5.24313205               -0.25022901
              23.88263540               -3.16103346               75.83585347                0.45871868                0.77620903                1.20921381               -4.11259158               -0.33226418               -4.80419837               -0.09598833
              24.89532623               -5.83137174               75.12827629                0.48262238                1.74392000                1.81243175               -6.27278935               -0.31870444               -4.94619499                0.05828230
              25.91751380               -8.49927960               74.41625864                0.52676671                2.62687482                2.40968962               -8.43041147               -0.32218713               -5.70713865                0.22175432
              26.94786372              -11.15949645               73.69376928                0.60050104                3.35733284                2.99029683              -10.56334154               -0.32465581               -7.30497269                0.28163267
              27.98466046              -13.81019874               72.95008765                0.71632645                3.94075424                3.56293754              -12.68590592               -0.32550267               -7.78547912                1.12519321
              29.02667881              -16.45296340               72.21820599                0.90669047                4.20183449                4.18863300              -14.77915669               -0.61440471               -7.20602526               -4.89670552
              21.53337431               10.99364971               79.18599299                0.64252739               -1.27761070               -1.92249541                5.47096569               -0.30563718                4.69028422                9.86285474
              22.52059820                8.39627471               78.46114480                0.10867492               -0.69776070               -0.75284199                3.44910841               -0.69444904               10.53682955               -9.37230129
              23.51941909                5.78584970               77.85320513                0.03830845                0.24006858               -1.14998317                1.82212723               -1.90371018               16.04888257              -11.49980366
              24.52539957                3.15711473               77.23809876                0.02914236                0.78520188               -0.94993146                0.05302492               -2.92340671               16.28929944              -16.60185188
              25.53512313                0.51035616               76.63495554                0.03240401                1.08852655               -0.52130341               -1.74787325               -3.62250546               17.21699157              -22.58481625
              26.54717010               -2.14894132               76.03859099                0.04025842                1.30695596                0.04022672               -3.61683485               -3.84374027               17.63073482              -29.41886914
              27.56126225               -4.81324742               75.44397810                0.05377103                1.55920921                0.62194701               -5.49893733               -3.55903100               17.50678067              -37.15993343
              28.57835429               -7.47518270               74.84516051                0.07566550                1.94072434                1.14728992               -7.39475337               -2.82276299               16.74199416              -45.89932559
              29.60007673              -10.12959348               74.23509567                0.11282641                2.48923146                1.57696951               -9.25129868               -1.72809763               15.53575884              -55.78696294
              30.62813891              -12.77456936               73.61194442                0.19835195                3.16113454                2.02723623              -11.08888699               -0.24113887               12.07425173              -66.98564462
              31.66329943              -15.41107707               72.93226963                0.65079638                3.51605110                2.17849299              -12.97918755                1.52816122                9.27678473              -83.10383214
              24.12171480               11.97362286               78.96545255                0.57355321               -1.12643483               -1.88110274                4.95813981               -0.11626185               -0.08658619               12.28531704
              25.11045045                9.39191610               78.08204147                0.03638675               -1.06617293               -0.32712580                2.43319327               -1.99602595               14.72568885              -12.12741924
              26.10039134                6.76868795               77.49492185                0.00010000               -0.37283129               -0.99745835                0.51641178               -4.77286436               28.75731062              -22.18317833
              27.10299382                4.13801432               76.89097257                0.00010000                0.65083281               -1.16523882               -1.47956631               -6.00164565               27.52549846              -32.54323682
              28.11340799                1.49391687               76.27803766                0.00010000                1.31851815               -0.92605763               -3.54579593               -7.06472249               26.62347932              -44.47273092
              29.12936418               -1.16022893               75.65485528                0.00010000                1.84894942               -0.46217456               -5.68466902               -7.39593697               25.36091364              -58.00042584
              30.15038698               -3.81893280               75.01529252                0.00010000                2.40202068                0.06826782               -7.92177455               -6.87894913               23.42063252              -73.30525695
              31.17740460               -6.47633380               74.35158988                0.00010000                3.11507254                0.53680714              -10.29797341               -5.56848203               20.67486628              -90.62334499
              32.21268843               -9.12795705               73.65490869                0.00010000                4.19583419                0.90675482              -12.94594611               -3.51676033               16.81387968             -110.24177796
              33.26132128              -11.76965401               72.91139988                0.00010000                5.87845107                1.20870245              -16.46562808               -1.25810709               10.11479563             -133.10310008
              34.33025745              -14.40939354               72.08198000                0.49967531                6.89361721                1.57504247              -19.73051843                0.75643698                5.32009973             -157.73806119
              26.69446258               12.95602766               78.72587656                0.55942678               -0.88499942               -1.64046776                4.34747008               -0.10111133                0.13080109               11.57994564
              27.68561259               10.38973219               77.73407557                0.02163619               -0.82994977               -0.12556563                1.55374930               -2.74626417               20.36187430              -10.41754526
              28.67786359                7.76590054               77.14695091                0.00010000               -0.27374236                0.11481932               -0.69128489               -5.60988338               40.03561430              -20.99154984
              29.68013774                5.13380996               76.54692418                0.00010000                0.71041695                0.16286531               -2.93805287               -6.30050987               38.53826266              -31.55476855
              30.69207192                2.49183501               75.92775389                0.00010000                1.59816443                0.39972430               -5.24760496               -6.90485296               36.44188098              -43.01552324
              31.71210103               -0.15818482               75.28344852                0.00010000                2.38581052                0.80056235               -7.65343883               -7.01551490               33.63265808              -55.86977457
              32.73978814               -2.81188207               74.60556214                0.00010000                3.19539346                1.28953379              -10.19444834               -6.46525817               29.89433029              -70.43283905
              33.77600890               -5.46444656               73.88379571                0.00010000                4.16368042                1.78775373              -12.93027932               -5.26486700               25.01960053              -87.01985164
              34.82306174               -8.11145838               73.10579927                0.00010000                5.42021822                2.26246303              -15.96235590               -3.57067432               18.61927402             -105.98706411
              35.88441326              -10.75039531               72.25465499                0.00010000                6.74227414                2.67373700              -19.18532831               -1.72838006               10.18322759             -127.47387670
              36.95790723              -13.37957622               71.31086626                0.49910145                7.34939645                3.63167703              -22.11062140               -0.73829819                5.15330839             -149.93503768
              29.25228349               13.94081350               78.49142521                0.55421453               -0.66312120               -1.41155945                3.76434275               -0.09712760                0.11960782               11.95102320
              30.24565228               11.38940479               77.38905276                0.01712363               -0.40837949                0.07287953                0.66609724               -3.22615300               26.37472097              -10.13144115
              31.24411590                8.77098434               76.81184354                0.00010000                0.26984351                0.77644703               -1.82586420               -6.38766460               51.93895030              -19.67031317
              32.25104915                6.14127162               76.21858030                0.00010000                1.15949009                1.14514390               -4.30258014               -6.80780906               49.94810075              -29.55778745
              33.26730571                3.50191135               75.59875990                0.00010000                2.08609047                1.46810673               -6.82979384               -7.04362881               46.89058070              -40.22112559
              34.29277096                0.85578232               74.94119444                0.00010000                3.00189269                1.87688447               -9.45925388               -6.88316905               42.66832798              -52.13340866
              35.32734356               -1.79314213               74.23369201                0.00010000                3.94563042                2.37236242              -12.23189125               -6.23205599               37.14823381              -65.69465117
              36.37168357               -4.44057872               73.46274619                0.00010000                4.99400714                2.91330235              -15.18043357               -5.12337869               30.16750475              -81.26551326
              37.42722370               -7.08270779               72.61350798                0.00010000                6.15939772                3.45543032              -18.29201894               -3.68424411               21.56738473              -99.12207725
              38.49487152               -9.71617927               71.67041008                0.00010000                7.33148045                4.04415745              -21.44956430               -2.03791386               11.34662622             -119.18817732
              39.57385331              -12.33676000               70.61982289                0.50029390                7.89817869                4.82579746              -24.44858160               -0.88877306                5.66905767             -140.92653749
              31.79533746               14.92779647               78.25943951                0.54975848               -0.44187639               -1.19893329                3.18941097               -0.09724538                0.13357240               12.13124420
              32.79091869               12.39118978               77.04678219                0.01438353                0.14529999                0.29201727               -0.21856855               -3.53389700               32.92907596               -9.93474721
              33.79824346                9.78142948               76.49010083                0.00010000                1.10679245                1.24264518               -2.90740013               -6.92690403               64.89094331              -18.18809619
              34.81305454                7.15671284               75.91412447                0.00010000                1.92225985                1.79868565               -5.56290239               -7.27669382               62.38551683              -26.80495053
              35.83668865                4.52119714               75.30398762                0.00010000                2.82182914                2.22474754               -8.26167365               -7.24787177               58.38863506              -36.21429077
              36.86949113                1.87935287               74.64432086                0.00010000                3.74097020                2.69461079              -11.06190251               -6.82340719               52.81281824              -46.82511668
              37.91150806               -0.76443482               73.91897783                0.00010000                4.68079338                3.25741572              -14.00015381               -6.03272088               45.54853712              -59.03610547
              38.96310699               -3.40618051               73.11095903                0.00010000                5.67346771                3.88777956              -17.08448093               -4.94355801               36.50047618              -73.22823160
              40.02497741               -6.04234977               72.20291104                0.00010000                6.73001009                4.54808746              -20.28089637               -3.62468620               25.67128733              -89.71265620
              41.09770719               -8.66951216               71.17866687                0.00010000                7.81579070                5.22069813              -23.50842183               -2.02867797               13.30046910             -108.62416458
              42.18129323              -11.28306028               70.02611151                0.50143833                8.35860315                5.88996051              -26.67435791               -0.91768926                6.64396521             -129.87378887
              34.32355195               15.91683484               78.02867014                0.54546170               -0.22106217               -0.99765361                2.61343768               -0.09851871                0.15302749               12.19027257
              35.32134133               13.39524513               76.70576664                0.01343824                0.82514092                0.52621111               -1.10508856               -3.76790567               40.24395348               -9.88743936
              36.34005477               10.79583724               76.18475554                0.00010000                2.22031397                1.56379526               -3.93056100               -7.31739201               79.34410606              -16.39354867
              37.36574761                8.17724534               75.64098406                0.00010000                2.98267301                2.15151067               -6.70307204               -7.60982425               76.30432266              -23.30985212
              38.39970823                5.54640630               75.05534815                0.00010000                3.80935846                2.63504091               -9.51391867               -7.31712397               71.36954828              -31.05152401
              39.44193478                2.90967454               74.40859636                0.00010000                4.62571473                3.20704859              -12.42776007               -6.60741170               64.46837618              -39.98260177
              40.49222253                0.27200619               73.68081827                0.00010000                5.43962923                3.90235369              -15.47952133               -5.65270325               55.48740271              -50.45777450
              41.55072736               -2.36282313               72.85118117                0.00010000                6.29195535                4.67929372              -18.67133719               -4.54056641               44.33265190              -62.88243423
              42.61806163               -4.99174605               71.89860249                0.00010000                7.21405511                5.48528784              -21.97173267               -3.29212038               31.05919474              -77.71392530
              43.69500847               -7.61176531               70.80391862                0.00010000                8.22670574                6.25829489              -25.32607250               -1.82703645               16.03030186              -95.38600046
              44.78259575              -10.21896079               69.55338978                0.50263298                8.75872813                6.89412340              -28.68728270               -0.83758480                8.03550689             -116.19230913
              36.83654649               16.90784339               77.79789288                0.54196610                0.00116883               -0.79936292                2.03602362               -0.10088563                0.16201257               12.10152692
              37.83655818               14.40171401               76.36458395                0.01416957                1.66744618                0.77025758               -2.00230649               -4.02073159               48.55815314               -9.96135826
              38.86989541               11.81270538               75.89927116                0.00010000                3.68654085                1.68202316               -4.88496644               -7.62274633               95.76550712              -14.21527722
              39.91028899                9.19974305               75.40696834                0.00010000                4.40107825                2.12094112               -7.69911190               -7.72158852               92.12312584              -18.99136232
              40.95791698                6.57389796               74.86450123                0.00010000                5.07270056                2.64625309              -10.55232259               -6.99783800               86.22221034              -24.74339612
              42.01174300                3.94349385               74.24934423                0.00010000                5.65173415                3.40029165              -13.51759846               -5.98283762               78.03231237              -31.66977426
              43.07095166                1.31361225               73.53844781                0.00010000                6.21524467                4.28887517              -16.63194577               -4.90106437               67.39203519              -40.01278059
              44.13604790               -1.31259464               72.70682886                0.00010000                6.85627618                5.24903501              -19.89957949               -3.80575750               54.08509373              -50.18337277
              45.20807718               -3.93264402               71.72782567                0.00010000                7.61666578                6.22336200              -23.29688987               -2.67513280               38.06238345              -62.82502220
              46.28838121               -6.54434627               70.57595550                0.00010000                8.54276560                7.13099898              -26.78591582               -1.44241145               19.70870173              -78.83290799
              47.37893250               -9.14517781               69.23219805                0.50386279                9.05512814                7.81059958              -30.34139305               -0.67704054                9.93537312              -99.03759957
              39.33379302               17.90084758               77.56537803                0.53914786                0.22716934               -0.59374273                1.45063083               -0.10712107                0.23759987               12.01753927
              40.33606471               15.41065028               76.02225501                0.01704870                2.78888916                1.01693682               -2.91467239               -4.42825000               58.18138038              -10.31412065
              41.38957080               12.82947770               75.63808155                0.00010000                5.70292752                1.33033092               -5.75464419               -7.90919289              114.65986653              -11.29178649
              42.45012326               10.21966416               75.22107675                0.00010000                6.32149366                1.47217923               -8.51794348               -7.15446813              110.20933705              -13.66029499
              43.51600067                7.59933136               74.74308998                0.00010000                6.62202359                2.29371898              -11.33514111               -5.88734181              103.23000426              -17.32646849
              44.58256373                4.97768037               74.18105057                0.00010000                6.71445230                3.32651759              -14.28200469               -4.68616404               93.85687480              -22.02406524
              45.65028972                2.35778369               73.51036855                0.00010000                6.91523762                4.44433106              -17.39749774               -3.66287437               81.75372603              -27.85462138
              46.72086849               -0.25784243               72.70205080                0.00010000                7.30104442                5.58779102              -20.68982954               -2.72280624               66.40739970              -35.17022889
              47.79631061               -2.86727881               71.72198877                0.00010000                7.89127710                6.71880639              -24.14457184               -1.81424939               47.36963417              -44.67949868
              48.87869403               -5.46914533               70.53271795                0.00010000                8.72037048                7.77638121              -27.74090659               -0.91713167               24.80361215              -57.84606487
              49.97071802               -8.06274880               69.10332793                0.50476061                9.20239903                8.59746258              -31.47301108               -0.45621203               12.63373829              -76.98858168
              41.81479865               18.89596854               77.33288451                0.53437752                0.45643996               -0.37171348                0.85981086               -0.11782332               -0.24184381               10.45137263
              42.81936305               16.42205274               75.67423748                0.01889535                4.39495133                1.25612948               -3.85843805               -5.31564722               69.56873560               -9.46943535
              43.90269768               13.83931200               75.41187568                0.00010000                8.89914585               -0.55924324               -6.50158546               -6.50944618              136.83640510               -6.49960406
              44.99734597               11.22918663               75.09488122                0.00010000                8.97281269                0.50313759               -9.11643987               -4.91886518              130.58258944               -7.23083792
              46.08215393                8.61977234               74.70200228                0.00010000                8.11107137                1.79367271              -11.81523652               -3.46111379              122.44762772               -8.95477676
              47.15956740                6.01002420               74.21627896                0.00010000                7.55315199                3.13405031              -14.66540840               -2.60921467              112.21352980              -11.31681818
              48.23321697                3.40249888               73.61283880                0.00010000                7.35434374                4.44681633              -17.70602398               -1.95427764               99.08689395              -14.32226451
              49.30665427                0.79916118               72.85968994                0.00010000                7.49390614                5.72216179              -20.94858296               -1.38793697               82.22148062              -18.17774213
              50.38309510               -1.79826789               71.91585541                0.00010000                7.94271532                6.95189644              -24.38565642               -0.85277569               60.43746509              -23.37347174
              51.46550858               -4.38881864               70.72631796                0.00010000                8.69600504                8.11047013              -28.01877454               -0.37839273               32.50149366              -31.10802284
              52.55701520               -6.97322856               69.22541087                0.50602919                9.15066187                9.14453942              -31.89528264               -0.25991042               16.77946318              -45.98794897
              44.27926815               19.89341331               77.06894276                0.76689283                0.71401587               -0.25552320                0.15508165                0.68290616                4.73025547                8.88563189
              45.28640831               17.43577287               75.34907747                0.48972789                8.64899193                1.37201324               -4.73626871               -7.05149809               85.64730223               -8.34256787
              46.45224799               14.81829284               75.24762075                0.44675872               14.24386563               -2.10191633               -7.05483996               -5.34726741              161.43728611               -3.48242335
              47.57128562               12.22972691               75.03907932                0.43998037               10.68464242                0.05402783               -9.45120020               -1.76043595              152.32188402               -3.78707583
              48.66594083                9.63520482               74.74967663                0.43733587                8.81836432                1.54324783              -11.94841338               -1.08958670              143.78775478               -4.59962449
              49.74765291                7.04036137               74.36397771                0.43919389                7.80631731                3.03371767              -14.61394956               -0.61568912              133.26213652               -5.78771632
              50.82206718                4.44672002               73.85749429                0.44480793                7.31118034                4.42211431              -17.48850665               -0.30300772              119.81121249               -7.32374273
              51.89387651                1.85660080               73.19710782                0.45495472                7.25838712                5.74396192              -20.58474114               -0.02582069              102.40610295               -9.31883003
              52.96723492               -0.72824088               72.33873179                0.46991622                7.61051642                7.00270130              -23.89581544                0.23714612               79.58280459              -12.07271349
              54.04608684               -3.30693593               71.22067047                0.49044013                8.35523566                8.18827141              -27.42502471                0.47696940               47.38619360              -16.23629967
              55.13433964               -5.87985801               69.71976102                0.75345930                8.82527961                9.33705423              -31.31106981                0.44023551               28.09535018              -27.54791640
              19.60339067               10.36984835               80.53703805                0.84943054               -1.65380898               -1.84163324                6.26260058               -0.48237534               -6.11957839                6.60925607
              20.58685258                7.65229120               79.79599868                0.58539318               -1.70329265               -1.06669987                4.21917051               -0.62633276               -8.46872730               -5.17865534
              21.56932482                4.92422664               79.00788737                0.48833889               -1.54384163               -0.58410733                2.13467368               -0.46389398               -8.70165206               -0.20552055
              22.55597575                2.17655502               78.26263070                0.45939389               -0.97557172                0.01115106                0.12018173               -0.41706025               -6.15558078               -0.40475009
              23.54981338               -0.58905558               77.52550938                0.45173607               -0.16666625                0.60043167               -1.95083268               -0.37067387               -5.42098837               -0.23936648
              24.55264242               -3.36724129               76.79489553                0.45855238                0.77164670                1.20696161               -4.07495067               -0.34222309               -5.02459399               -0.10356855
              25.56524632               -6.15041715               76.06573448                0.48171245                1.73018875                1.81140732               -6.22398951               -0.32368863               -5.18427310                0.04997674
              26.58724620               -8.93124510               75.33214758                0.52362323                2.60705127                2.40457867               -8.36968078               -0.32014239               -5.93888050                0.19845433
              27.61738734              -11.70470065               74.58828688                0.59272048                3.33830889                2.99144963              -10.50502158               -0.32436587               -7.52928356                0.25675757
              28.65401238              -14.46892109               73.82338038                0.70034004                3.92293141                3.56604172              -12.62598460               -0.32629876               -8.00276974                1.10154094
              29.69584597              -17.22556514               73.07054692                0.89509281                4.18335947                4.19143553              -14.71597292               -0.59224462               -7.42751194               -5.00147523
              22.31612406               11.35143202               80.24069298                0.63165026               -1.27239568               -1.92938019                5.46202565               -0.31364703                4.86724833               10.14837064
              23.30340011                8.64162420               79.49564913                0.10192467               -0.67850467               -0.74157118                3.44415444               -0.72177050               10.91469969               -9.61775382
              24.30255397                5.91838557               78.87142994                0.03934045                0.25230749               -1.12458366                1.81239837               -1.91953769               16.55183866              -11.95323491
              25.30844626                3.17666653               78.23857195                0.03031648                0.77254156               -0.90646552                0.04298646               -2.91959278               16.70290391              -17.32863786
              26.31800480                0.41694874               77.61742206                0.03353982                1.07273625               -0.46680960               -1.76108738               -3.58534771               17.57494575              -23.58567509
              27.32990098               -2.35517168               77.00231268                0.04123544                1.30032656                0.09887704               -3.62932780               -3.77133196               17.94878001              -30.69857129
              28.34401133               -5.13230308               76.38884334                0.05452794                1.56427717                0.68334266               -5.52983113               -3.45525924               17.80226740              -38.74230384
              29.36118652               -7.90719931               75.77097474                0.07579079                1.94851744                1.20198485               -7.42374233               -2.68607697               17.03422213              -47.83937051
              30.38298168              -10.67478616               75.14220704                0.11134117                2.49975524                1.62120267               -9.30476112               -1.56632062               15.85525212              -58.19284065
              31.41118163              -13.43326067               74.50058950                0.17933893                3.17929449                1.99339377              -11.15929136               -0.14182165               12.37306705              -70.11117495
              32.44656757              -16.18365078               73.80194288                0.63660939                3.53859414                2.10208888              -13.05630516                1.41505779                9.53676070              -86.90391350
              25.01673335               12.33126074               80.01502296                0.56511486               -1.12697364               -1.88992614                4.94876278               -0.10894788               -0.11788475               12.67131277
              26.00546362                9.63745978               79.10641627                0.03565649               -1.04208078               -0.31548957                2.43896345               -2.01195456               14.99220314              -12.41493721
              26.99589174                6.90173497               78.49997895                0.00010000               -0.32214472               -0.95789236                0.50028631               -4.79665841               29.26611472              -23.08782247
              27.99902072                4.15842571               77.87603821                0.00010000                0.70264489               -1.10010535               -1.50096109               -5.98827215               27.95166851              -33.98029528
              29.00994464                1.40160823               77.24244452                0.00010000                1.37234408               -0.84280676               -3.56390584               -6.99832266               26.96415748              -46.44346673
              30.02646760               -1.36526375               76.59794349                0.00010000                1.91120641               -0.37441245               -5.68987954               -7.27248073               25.59761801              -60.50482443
              31.04816876               -4.13675030               75.93617845                0.00010000                2.47700657                0.14815948               -7.89191725               -6.71805820               23.52355683              -76.38660771
              32.07600774               -6.90720540               75.24916980                0.00010000                3.19767647                0.59201611              -10.18981056               -5.39540037               20.57636925              -94.34504898
              33.11212229               -9.67227660               74.52726026                0.00010000                4.20164147                0.90489096              -12.62768841               -3.42972953               16.29719827             -114.71454435
              34.16004056              -12.42905321               73.75365742                0.00010000                5.64025243                1.10989655              -15.37908052               -1.31225597                9.40761071             -138.27945696
              35.22492734              -15.18352336               72.89544197                0.49336873                6.48867770                1.43720755              -18.06156232                0.53927383                4.84270155             -163.48521303
              27.70154704               13.31363349               79.76935581                0.55135615               -0.88602463               -1.64523021                4.33965168               -0.10113753                0.12969608               11.93690187
              28.69268679               10.63531441               78.74971849                0.02128250               -0.79460824               -0.12293108                1.56995832               -2.75901695               20.62351712              -10.64034893
              29.68565487                7.89922772               78.13995477                0.00010000               -0.19396193                0.13235180               -0.70276984               -5.62495933               40.53461067              -21.81411191
              30.68880755                5.15466442               77.51737343                0.00010000                0.80364686                0.19242061               -2.96244512               -6.30118390               38.98165280              -32.91288751
              31.70172781                2.40009260               76.87513172                0.00010000                1.70011732                0.43687721               -5.26640774               -6.87877277               36.77869757              -44.88123941
              32.72280990               -0.36265993               76.20691322                0.00010000                2.49320026                0.83436250               -7.64487149               -6.97026991               33.82609311              -58.24224526
              33.75159181               -3.12933989               75.50395030                0.00010000                3.29974594                1.30471152              -10.12498420               -6.42962876               29.89945670              -73.31729761
              34.78880482               -5.89535899               74.75551171                0.00010000                4.23215456                1.76951830              -12.73769489               -5.29662122               24.77762524              -90.41404157
              35.83623490               -8.65668834               73.94868269                0.00010000                5.36892248                2.19362490              -15.51854826               -3.74631850               18.14311410             -109.81533833
              36.89618327              -11.41106274               73.06725911                0.00010000                6.50292146                2.61540206              -18.41318984               -1.95689933                9.74870610             -131.42548727
              37.96629333              -14.15490663               72.09517842                0.49367777                7.01100682                3.61016541              -21.17248938               -0.85913182                4.93079310             -154.06323875
              30.37134876               14.29835614               79.52905786                0.54666849               -0.66597149               -1.41585504                3.75860475               -0.09466651                0.11785196               12.33252855
              31.36468905               11.63500116               78.39583701                0.01698724               -0.36531115                0.07144441                0.68945738               -3.23733177               26.66070583              -10.36081064
              32.36404254                8.90438201               77.79350359                0.00010000                0.37215569                0.77639323               -1.83557986               -6.40662097               52.48357814              -20.43520497
              33.37213216                6.16227412               77.17537526                0.00010000                1.28254942                1.14877299               -4.32780512               -6.82162245               50.43835906              -30.81994310
              34.38969353                3.41034577               76.53031931                0.00010000                2.21812693                1.47257553               -6.84776380               -7.05047400               47.26490685              -41.95197859
              35.41649470                0.65142350               75.84665752                0.00010000                3.12908599                1.87614550               -9.44184759               -6.89716750               42.88150422              -54.31849197
              36.45227525               -2.11065607               75.11182923                0.00010000                4.04645284                2.36002685              -12.14315587               -6.28581053               37.17014211              -68.31900468
              37.49742376               -4.87181503               74.31207288                0.00010000                5.03122143                2.88795224              -14.97226217               -5.25903674               29.99771325              -84.28919602
              38.55289968               -7.62840410               73.43263974                0.00010000                6.08485551                3.43587332              -17.92011055               -3.90807958               21.27932202             -102.45045986
              39.61912087              -10.37674517               72.45885825                0.00010000                7.12664018                4.08088602              -20.91644538               -2.23431256               11.11383822             -122.74270841
              40.69543248              -13.11132005               71.37871790                0.49459987                7.63116126                4.91327964              -23.83504695               -0.97878407                5.56428809             -144.83526722
              33.02636367               15.28531639               79.29131821                0.54268482               -0.44493824               -1.19977123                3.18073550               -0.09575329                0.12942153               12.51956471
              34.02191429               12.63674330               78.04473758                0.01435784                0.19429083                0.28600062               -0.18921035               -3.54591590               33.26643278              -10.16346385
              35.03024949                9.91475559               77.46094621                0.00010000                1.22485218                1.23004787               -2.91639795               -6.95008579               65.53666863              -18.89972756
              36.04641133                7.17763988               76.85830471                0.00010000                2.06597318                1.78308720               -5.59020212               -7.30035411               62.97541235              -27.95476189
              37.07156895                4.42954411               76.22122870                0.00010000                2.97285302                2.20683582               -8.28098216               -7.27383583               58.85325875              -37.77541201
              38.10586839                1.67486298               75.53378976                0.00010000                3.87725907                2.67349327              -11.04203389               -6.86616461               53.10792909              -48.78072914
              39.14911413               -1.08213935               74.77948842                0.00010000                4.77518603                3.23416743              -13.90726032               -6.11556461               45.66065666              -61.36814607
              40.20137211               -3.83759994               73.94122437                0.00010000                5.69446601                3.87084843              -16.88750766               -5.08428109               36.45573393              -75.90563142
              41.26300345               -6.58797087               73.00189022                0.00010000                6.65204237                4.55791626              -19.96426619               -3.80421278               25.54392087              -92.69843206
              42.33441296               -9.32944502               71.94594742                0.00010000                7.64319764                5.27506271              -23.08792321               -2.16701779               13.19685077             -111.92167858
              43.41586741              -12.05664104               70.76202140                0.49584358                8.14544449                5.96435820              -26.20029808               -0.97695747                6.61267566             -133.58587869
              35.66657988               16.27436072               79.05477688                0.53876805               -0.22483444               -0.99675834                2.60757436               -0.09828699                0.15188487               12.57979802
              36.66433154               13.64072117               77.69487810                0.01345008                0.87821812                0.51731776               -1.07276537               -3.78222072               40.66721345              -10.12355918
              37.68414424               10.92898296               77.14536145                0.00010000                2.35025080                1.54154003               -3.94041911               -7.34549937               80.15635452              -17.04138062
              38.71133655                8.19793587               76.57373953                0.00010000                3.14247341                2.12173483               -6.73551722               -7.63819291               77.05707719              -24.32169148
              39.74699371                5.45448249               75.96004837                0.00010000                3.97591629                2.60092591               -9.53903590               -7.34860468               71.98325794              -32.40427915
              40.79085488                2.70489336               75.28441161                0.00010000                4.77165855                3.17082413              -12.41168066               -6.65305369               64.89889686              -41.66487990
              41.84242688               -0.04597272               74.52656386                0.00010000                5.53573881                3.86799562              -15.38904887               -5.72605455               55.72936256              -52.46062020
              42.90156965               -2.79439806               73.66560355                0.00010000                6.31168091                4.65541092              -18.48105097               -4.64639953               44.41987103              -65.19670763
              43.96866050               -5.53724578               72.68065619                0.00010000                7.14405110                5.48312338              -21.67389062               -3.41179459               31.05709253              -80.33985939
              45.04445068               -8.27124392               71.55294657                0.00010000                8.08124310                6.27880918              -24.93913284               -1.91297599               16.01015402              -98.35502349
              46.13028536              -10.99203289               70.26904975                0.49657165                8.58346863                6.91149037              -28.25555380               -0.87181449                8.05177000             -119.58587257
              38.29167702               17.26538123               78.81820343                0.53509388               -0.00293958               -0.79712753                2.02698425               -0.10075822                0.16452501               12.49303419
              39.29164763               14.64708966               77.34474845                0.01414272                1.72238910                0.75891009               -1.96360711               -4.03770419               49.11081058              -10.21696186
              40.32612481               11.94558639               76.85031080                0.00010000                3.82501592                1.65235425               -4.89905629               -7.65571249               96.82458804              -14.78097590
              41.36814795                9.22007458               76.32971742                0.00010000                4.57572774                2.08036666               -7.74150119               -7.75070475               93.11136317              -19.82845734
              42.41763936                6.48156263               75.75876726                0.00010000                5.25572933                2.59975791              -10.58981812               -7.02610196               87.04812038              -25.84007570
              43.47326253                3.73827947               75.11422984                0.00010000                5.81225544                3.35063174              -13.51271340               -6.01866266               78.64989117              -33.02446736
              44.53388447                0.99522056               74.37267525                0.00010000                6.32273230                4.23898313              -16.54899102               -4.95180184               67.79893728              -41.62731448
              45.59971718               -1.74449172               73.50902211                0.00010000                6.88644735                5.20389900              -19.71237733               -3.87148182               54.31570814              -52.06401044
              46.67161342               -4.47830841               72.49672687                0.00010000                7.56116851                6.18744592              -22.99863769               -2.74365546               38.17416486              -64.99093749
              47.75094055               -7.20386884               71.31051064                0.00010000                8.41978169                7.10039797              -26.39768537               -1.48963266               19.75496071              -81.32902829
              48.84000905               -9.91841123               69.93142445                0.49773630                8.90685008                7.76485708              -29.91208065               -0.69326917                9.99077608             -101.94193195
              40.90114786               18.25841817               78.57984739                0.53282274                0.22244354               -0.59049717                1.44334410               -0.10823900                0.23763822               12.40018608
              41.90337229               15.65589937               76.99327816                0.01693091                2.84486074                1.00371506               -2.87441029               -4.44886006               58.91612059              -10.59310229
              42.95804507               12.96203005               76.58038662                0.00010000                5.84869606                1.29423946               -5.77636784               -7.94721296              116.06394397              -11.74090719
              44.02034621               10.23954320               76.13555585                0.00010000                6.51108575                1.42391682               -8.57728277               -7.18069321              111.51449310              -14.27249947
              45.08826679                7.50647765               75.62942978                0.00010000                6.82387440                2.23959800              -11.39431174               -5.90832235              104.33511024              -18.11032969
              46.15682370                4.77190600               75.03820476                0.00010000                6.89476249                3.26686154              -14.29905608               -4.70960927               94.71880257              -22.98750500
              47.22616204                2.03880694               74.33689270                0.00010000                7.04226403                4.37924478              -17.33228747               -3.69266878               82.37229854              -29.00491796
              48.29766898               -0.69032008               73.49635940                0.00010000                7.35012350                5.51867449              -20.51239124               -2.75717451               66.81536169              -36.51917463
              49.37316451               -3.41349686               72.48250776                0.00010000                7.85459333                6.64722601              -23.84662320               -1.84630326               47.61525422              -46.25134338
              50.45476085               -6.12923596               71.25786954                0.00010000                8.61701289                7.70021283              -27.34697651               -0.93760688               24.92416192              -59.69360174
              51.54550476               -8.83673574               69.79136577                0.49887208                9.07439157                8.50413774              -31.04120174               -0.45951880               12.73378911              -79.21223598
              43.49454983               19.25357128               78.34139345                0.52801290                0.45087134               -0.36891874                0.84527620               -0.11910360               -0.25716875               10.76679433
              44.49905854               16.66716396               76.63587770                0.01857456                4.44934447                1.24122970               -3.80638270               -5.34062517               70.55034372               -9.72675120
              45.58353672               13.97147118               76.34663903                0.00010000                9.05139682               -0.60337553               -6.53779681               -6.54452610              138.70357366               -6.76358678
              46.68008648               11.24855292               76.00324307                0.00010000                9.17866970                0.45420392               -9.20220573               -4.93687439              132.28198574               -7.55799696
              47.76711011                8.52635459               75.58337496                0.00010000                8.33272882                1.73971272              -11.90883603               -3.47280039              123.90108079               -9.36827559
              48.84674106                5.80361670               75.06942708                0.00010000                7.75735308                3.07238700              -14.72023063               -2.62174477              113.38710127              -11.82413160
              49.92225718                3.08280545               74.43613326                0.00010000                7.50682159                4.37505184              -17.67650683               -1.96864356               99.98278189              -14.92901297
              50.99687749                0.36588177               73.65132930                0.00010000                7.56730254                5.63925971              -20.79922904               -1.40185513               82.87156208              -18.89218320
              52.07360323               -2.34536389               72.67396785                0.00010000                7.92749036                6.85826565              -24.10462109               -0.86237260               60.87931833              -24.21218672
              53.15542730               -5.04986458               71.44876082                0.00010000                8.61075083                8.00718756              -27.63330438               -0.38247029               32.73669267              -32.10905552
              54.24581824               -7.74832847               69.90926817                0.49986178                9.03909472                9.02968005              -31.47595666               -0.25456627               16.94638037              -47.27530314
              46.07158043               20.25103979               78.07037694                0.76364685                0.70794598               -0.25314917                0.14196429                0.67147780                4.86761171                9.13919687
              47.07865989               17.68072397               76.30199504                0.48594162                8.70925783                1.35600086               -4.68095120               -7.09372775               87.01685497               -8.56652170
              48.24576559               14.94996254               76.17672785                0.44576351               14.40327074               -2.15086393               -7.11359163               -5.38194747              163.82688364               -3.58733180
              49.36672531               12.24862728               75.94389384                0.43973018               10.89907031                0.00743611               -9.57543601               -1.77064891              154.47209999               -3.92521499
              50.46374700                9.54127190               75.62945805                0.43733194                9.06063180                1.49173111              -12.09348718               -1.09998873              145.66407770               -4.78027895
              51.54793794                6.83335374               75.21734694                0.43902202                8.03885492                2.97370409              -14.72898702               -0.62850763              134.82947901               -6.01476122
              52.62452410                4.12630798               74.68267114                0.44422714                7.49316361                4.35025235              -17.52216202               -0.31773948              121.07215119               -7.59871126
              53.69780122                1.42246511               73.99213654                0.45334762                7.35696528                5.65833437              -20.49453060               -0.03960342              103.39565055               -9.64547263
              54.77166340               -1.27633155               73.10157980                0.46693985                7.61374075                6.90323379              -23.66322705                0.22815147               80.34284669              -12.46072397
              55.85007603               -3.96909221               71.94899228                0.48563814                8.28389124                8.07723724              -27.07450340                0.47434373               47.87486601              -16.70824358
              56.93734123               -6.65614214               70.40942300                0.75027941                8.72651938                9.21863313              -30.92400331                0.44730473               28.46889286              -28.23774185
              20.29276470               10.73694802               81.59957369                0.84295316               -1.64491497               -1.83158111                6.22943443               -0.48068314               -6.25520279                6.73508244
              21.27631555                7.90409893               80.83809230                0.57753648               -1.70620925               -1.05968853                4.19275474               -0.63883010               -8.61163147               -5.29995576
              22.25864051                5.06049206               80.02923907                0.48560421               -1.55403800               -0.57986346                2.13152768               -0.46392071               -8.81718658               -0.15970949
              23.24523479                2.19703544               79.26393967                0.45840952               -0.97615361                0.00990272                0.14055523               -0.41501586               -6.26440545               -0.38930753
              24.23911744               -0.68426975               78.50617396                0.45157161               -0.16581771                0.59772707               -1.91456123               -0.37234054               -5.58463781               -0.23464385
              25.24191843               -3.57793913               77.75435445                0.45905115                0.76356377                1.19784148               -4.01468159               -0.33540961               -5.22416287               -0.10075395
              26.25438871               -6.47658993               77.00379650                0.48011132                1.71326818                1.80524486               -6.14694563               -0.32560308               -5.39503919                0.03117509
              27.27618380               -9.37296483               76.24886503                0.51977034                2.58282703                2.39725022               -8.28595817               -0.33146137               -6.15326635                0.17651523
              28.30604525              -12.26220162               75.48366885                0.58450546                3.30806115                2.97779409              -10.40292472               -0.32889068               -7.74330718                0.22515779
              29.34234502              -15.14258617               74.69756796                0.68388525                3.88751105                3.55162619              -12.50728215               -0.32722141               -8.20663033                1.07385001
              30.38379548              -18.01578483               73.92388653                0.88329377                4.14504568                4.17344325              -14.58257388               -0.56662601               -7.63277880               -5.09897396
              23.12080696               11.71863221               81.29523350                0.62117928               -1.26517333               -1.92808726                5.43292759               -0.32272798                5.03678031               10.42578609
              24.10815523                8.89350204               80.53002789                0.10100573               -0.66369546               -0.72754623                3.42127174               -0.74579078               11.27938244               -9.84709852
              25.10753305                6.05469343               79.88945309                0.04035910                0.26551534               -1.10426940                1.79632546               -1.94581973               17.04045498              -12.39308638
              26.11346553                3.19713446               79.23895849                0.03149609                0.76741322               -0.87142510                0.03565353               -2.93295326               17.11227178              -18.04293700
              27.12288131                0.32170752               78.59973379                0.03464135                1.06294464               -0.41961924               -1.77249871               -3.57133781               17.93637371              -24.56564284
              28.13472442               -2.56596071               77.96600443                0.04211788                1.28821101                0.15065865               -3.63079906               -3.72904103               18.24313844              -31.93849429
              29.14864553               -5.45853748               77.33338148                0.05507605                1.54753011                0.74090039               -5.53990005               -3.38942568               18.07822859              -40.25699488
              30.16567503               -8.34899232               76.69668566                0.07558812                1.94607415                1.25965386               -7.44454132               -2.61099096               17.31928438              -49.66969966
              31.18756702              -11.23242367               76.04900045                0.10926311                2.50946914                1.67390103               -9.32842086               -1.49890293               16.14157364              -60.38816619
              32.21586441              -14.10706990               75.38875859                0.16035317                3.18804295                2.03367019              -11.18725062               -0.13399770               12.64717378              -72.75202267
              33.25132788              -16.97405039               74.67114353                0.62281280                3.54634661                2.17257408              -13.07839063                1.28929608                9.78079860              -90.00626901
              25.93657047               12.69838628               81.06442780                0.55645075               -1.12319583               -1.89507097                4.92166655               -0.10761753               -0.15080889               13.05271571
              26.92533851                9.88954800               80.13082074                0.03481959               -1.02393889               -0.29987808                2.43685072               -2.03254280               15.24079839              -12.68905074
              27.91609170                7.03840667               79.50492758                0.00010000               -0.28884450               -0.92998801                0.49015153               -4.82866295               29.74944170              -23.97391250
              28.91956162                4.17960693               78.86095335                0.00010000                0.73470806               -1.04596539               -1.51105500               -5.99702472               28.36002408              -35.39278247
              29.93078586                1.30733787               78.20675955                0.00010000                1.40104934               -0.76860472               -3.56691924               -6.96540556               27.29220627              -48.36702771
              30.94758261               -1.57492595               77.54105769                0.00010000                1.94229793               -0.28915187               -5.68091400               -7.20149468               25.83885044              -62.93604985
              31.96963181               -4.46177192               76.85745417                0.00010000                2.51337816                0.23293385               -7.85309588               -6.61562801               23.65997501              -79.33919858
              32.99785017               -7.34777175               76.14779367                0.00010000                3.22564800                0.66809261              -10.08974821               -5.28988467               20.58706629              -97.87550740
              34.03414477              -10.22872359               75.40235492                0.00010000                4.17208046                0.96395230              -12.39497951               -3.37656997               16.14489877             -118.87161657
              35.08129178              -13.10191276               74.60381827                0.00010000                5.46988011                1.14820070              -14.78750014               -1.32912537                9.18924918             -143.05455186
              36.14354238              -15.97233334               73.72074875                0.48777892                6.22505936                1.49667357              -17.19910574                0.42577111                4.74075109             -168.81961566
              28.73633116               13.68073079               80.81266959                0.54377400               -0.88471827               -1.64422999                4.31974905               -0.09704257                0.12818340               12.29308894
              29.72748397               10.88750448               79.76547474                0.02086807               -0.77151482               -0.11892594                1.57784701               -2.77774829               20.86236391              -10.85241626
              30.72090086                8.03609367               79.13289551                0.00010000               -0.14450647                0.14410626               -0.70598768               -5.65659033               40.99168561              -22.61802064
              31.72459384                5.17621516               78.48767528                0.00010000                0.86026151                0.21672727               -2.97044819               -6.31596270               39.39552414              -34.24081881
              32.73810609                2.30633543               77.82242573                0.00010000                1.76052366                0.47184693               -5.26754570               -6.87115892               37.10298757              -46.69968198
              33.75980432               -0.57174375               77.13055109                0.00010000                2.55363412                0.87309426               -7.62323997               -6.94528575               34.03137151              -60.54072121
              34.78917877               -3.45387880               76.40306245                0.00010000                3.35123474                1.33557894              -10.05580953               -6.40937487               29.96155809              -76.09748987
              35.82682901               -6.33563047               75.62904181                0.00010000                4.24989290                1.78482240              -12.57754652               -5.31443391               24.67846450              -93.67300325
              36.87417663               -9.21314463               74.79542830                0.00010000                5.30313206                2.18995356              -15.19330584               -3.82977089               17.90688154             -113.52766686
              37.93289165              -12.08410589               73.88639119                0.00010000                6.32539173                2.60955042              -17.87490078               -2.05969704                9.52619687             -135.49493753
              39.00068446              -14.94411692               72.88741648                0.48827497                6.77928119                3.60125095              -20.51762614               -0.90723299                4.83356077             -158.50167758
              31.52108224               14.66550168               80.56659730                0.53951069               -0.66615691               -1.41310235                3.73840160               -0.09541951                0.11153199               12.71033087
              32.51442067               11.88716948               79.40284191                0.01681129               -0.34165146                0.06874640                0.70957294               -3.25387503               26.91543888              -10.57763801
              33.51424921                9.04128880               78.77513194                0.00010000                0.42899674                0.77416986               -1.83436517               -6.43595830               52.97498840              -21.18188997
              34.52300061                6.18394148               78.13202419                0.00010000                1.35361839                1.15190834               -4.33491525               -6.84137673               50.89176644              -32.05110108
              35.54132158                3.31677481               77.46180463                0.00010000                2.29452584                1.48122097               -6.84872928               -7.06214290               47.62424888              -43.63451586
              36.56889112                0.44253593               76.75235749                0.00010000                3.20047306                1.88639753               -9.41713952               -6.91247372               43.10863219              -56.43389444
              37.60533104               -2.43506034               75.99082889                0.00010000                4.09681003                2.36732171              -12.06643446               -6.32517121               37.24575773              -70.85371843
              38.65082733               -5.31207530               75.16330095                0.00010000                5.03468660                2.89033325              -14.80876083               -5.34366647               29.92881697              -87.22176818
              39.70602477               -8.18492452               74.25510576                0.00010000                6.01214055                3.44048833              -17.63643285               -4.03451504               21.12028245             -105.73953753
              40.77107014              -11.04972175               73.25208117                0.00010000                6.96975041                4.10359150              -20.51000992               -2.33812105               10.97756073             -126.35863288
              41.84541978              -13.90030833               72.14312195                0.48922128                7.43496461                4.95036067              -23.36314173               -1.02294129                5.51476846             -148.85732806
              34.29108715               15.65246874               80.32305422                0.53560374               -0.44678001               -1.19780481                3.16597312               -0.09368584                0.12933354               12.90822226
              35.28661935               12.88887941               79.04299798                0.01430532                0.21612735                0.27967972               -0.16145996               -3.56056624               33.56977346              -10.38567146
              36.29540970               10.05157706               78.43177288                0.00010000                1.28304752                1.21781177               -2.91291939               -6.97774342               66.11949315              -19.59366618
              37.31228030                7.19925332               77.80232042                0.00010000                2.14295403                1.77286574               -5.59964969               -7.32077930               63.52269244              -29.07465222
              38.33826878                4.33595985               77.13836798                0.00010000                3.05548431                2.20036750               -8.28660301               -7.29446926               59.30057819              -39.29010898
              39.37338999                1.46598420               76.42348018                0.00010000                3.95089021                2.67004629              -11.02293011               -6.89930566               53.41581660              -50.67096175
              40.41728658               -1.40653237               75.64083262                0.00010000                4.82149400                3.23336470              -13.83947902               -6.17606076               45.81754374              -63.61897823
              41.46981987               -4.27782381               74.77320888                0.00010000                5.69230991                3.87601415              -16.74747816               -5.17986843               36.48201755              -78.49980030
              42.53113278               -7.14433486               73.80362572                0.00010000                6.58465831                4.57723218              -19.73742582               -3.91872826               25.49392143              -95.62115377
              43.60151303              -10.00203406               72.71690840                0.00010000                7.51330014                5.31463774              -22.78108679               -2.25135004               13.14491797             -115.18891097
              44.68139878              -12.84510971               71.50210554                0.49005933                7.98857499                6.01135174              -25.84727217               -1.00731475                6.60991476             -137.28389519
              37.04638720               16.64154558               80.08082163                0.53238601               -0.22861678               -0.99175878                2.59866136               -0.09526067                0.14638069               12.97105347
              38.04410103               13.89276308               78.68431133                0.01344686                0.89666170                0.50476496               -1.03867268               -3.79264421               41.05024984              -10.35404935
              39.06432043               11.06564503               78.10594715                0.00010000                2.40506041                1.52418143               -3.93774456               -7.36778917               80.89814788              -17.67335312
              40.09220224                8.21939879               77.50627372                0.00010000                3.21904422                2.10521314               -6.75164219               -7.65416901               77.76106542              -25.30656003
              41.12870132                5.36078216               76.86456744                0.00010000                4.05974940                2.58775898               -9.55529836               -7.36818722               72.57755361              -33.71457697
              42.17339723                2.49593686               76.16036275                0.00010000                4.84582611                3.16135737              -12.40605374               -6.68661727               65.34212825              -43.28689807
              43.22561784               -0.37039304               75.37303730                0.00010000                5.58176140                3.86347440              -15.33909279               -5.78201596               56.01403041              -54.38672405
              44.28503245               -3.23455502               74.48156015                0.00010000                6.31213119                4.65965561              -18.36835836               -4.72481315               44.56985685              -67.42390316
              45.35186046               -6.09337988               73.46512468                0.00010000                7.08927644                5.50102611              -21.49038378               -3.49674058               31.11862243              -82.87731618
              46.42681798               -8.94342900               72.30513596                0.00010000                7.97821622                6.30921309              -24.69269371               -1.97157956               16.03050537             -101.24080948
              47.51142479              -11.78008129               70.98827870                0.49112410                8.46068033                6.93886209              -27.97014171               -0.88914816                8.08922610             -122.90231884
              39.78674694               17.63263357               79.83843256                0.52871982               -0.00799282               -0.79421517                2.02244585               -0.10103456                0.16761349               12.87863696
              40.78666701               14.89897471               78.32531181                0.01411123                1.73356284                0.74479567               -1.92362958               -4.04130080               49.61691626              -10.46213860
              41.82141820               12.08206069               77.80129003                0.00010000                3.86963926                1.63431462               -4.90031947               -7.66827800               97.80100662              -15.33430369
              42.86405980                9.24135759               77.25213832                0.00010000                4.64743856                2.06448658               -7.76977306               -7.75889709               94.04340850              -20.64327846
              43.91436697                6.38771503               76.65270487                0.00010000                5.33865222                2.58674560              -10.62387696               -7.03967886               87.85158467              -26.90063931
              44.97083284                3.52921135               75.97908996                0.00010000                5.88855858                3.33980830              -13.52859546               -6.04491301               79.28137064              -34.32658307
              46.03213814                0.67073712               75.20746799                0.00010000                6.37387984                4.23101839              -16.52355830               -4.99394172               68.25268603              -43.17250637
              47.09831044               -2.18463070               74.31258132                0.00010000                6.89669038                5.20109523              -19.62795651               -3.92616290               54.61427129              -53.86086000
              48.17007195               -5.03431434               73.26785292                0.00010000                7.52362068                6.19166118              -22.84844459               -2.79870037               38.35403344              -67.06342420
              49.24878285               -7.87584980               72.04800179                0.00010000                8.34242282                7.10807241              -26.18972758               -1.52584274               19.84425349              -83.72885925
              50.33692040              -10.70633247               70.63395644                0.49218750                8.81375519                7.76220220              -29.66802256               -0.69943976               10.06722809             -104.75499319
              42.51168423               18.62566128               79.59424491                0.52631983                0.21636621               -0.59293466                1.43915242               -0.10323661                0.23692441               12.77862388
              43.51384789               15.90765899               77.96476680                0.01680284                2.84438830                0.99130691               -2.82603051               -4.44363115               59.59308231              -10.86220486
              44.56857199               13.09833133               77.52255419                0.00010000                5.87610352                1.28191734               -5.78567930               -7.94924418              117.36947456              -12.18242745
              45.63136996               10.26068853               77.04953109                0.00010000                6.57409897                1.41655598               -8.62446040               -7.18121509              112.75244012              -14.86902737
              46.70005397                7.41251707               76.51520374                0.00010000                6.90534552                2.23317662              -11.45502556               -5.91654680              105.41157531              -18.86693394
              47.76947687                4.56273302               75.89506945                0.00010000                6.97635380                3.25940174              -14.34659911               -4.72857295               95.59427079              -23.91016652
              48.83958105                1.71422732               75.16372280                0.00010000                7.10418937                4.37015252              -17.34120818               -3.72169404               83.04331862              -30.10010881
              49.91156066               -1.13053311               74.29180298                0.00010000                7.37622538                5.50855409              -20.46329702               -2.79167509               67.30149319              -37.79967987
              50.98710556               -3.96954666               73.24505631                0.00010000                7.83792984                6.63653395              -23.73191118               -1.87782245               47.94025520              -47.74488807
              52.06831925               -6.80126755               71.98577842                0.00010000                8.56478859                7.68636509              -27.17497709               -0.95656647               25.09513750              -61.45983456
              53.15840133               -9.62483725               70.48250389                0.49295977                9.00820737                8.47703093              -30.83457107               -0.45658445               12.85737547              -81.36148357
              45.22068678               19.62077488               79.34979003                0.52128355                0.44375614               -0.37155054                0.84406935               -0.11240505               -0.26137696               11.08666248
              46.22512434               16.91880085               77.59810982                0.01826295                4.43585003                1.22743855               -3.75393150               -5.32646146               71.46488730               -9.98415531
              47.30940378               14.10769904               77.28111974                0.00010000                9.05627068               -0.59813751               -6.56023334               -6.53986403              140.44873840               -7.02604489
              48.40624975               11.26968870               76.91083710                0.00010000                9.22938771                0.46162713               -9.27645659               -4.93465130              133.89694090               -7.87679043
              49.49399153                8.43237856               76.46382556                0.00010000                8.41506872                1.74579965              -12.00726262               -3.47870007              125.31306071               -9.76635443
              50.57455113                5.59439939               75.92187435                0.00010000                7.84894323                3.07467078              -14.81325784               -2.63429311              114.56822481              -12.30787590
              51.65097040                2.75814017               75.25930866                0.00010000                7.58498942                4.37213492              -17.73547109               -1.98597197              100.93325666              -15.50348130
              52.72625092               -0.07445961               74.44370536                0.00010000                7.61397683                5.63049932              -20.80155484               -1.42018123               83.60943674              -19.56613631
              53.80324994               -2.90158366               73.43376299                0.00010000                7.93455984                6.84337039              -24.04045374               -0.87661637               61.41361889              -25.00445340
              54.88494211               -5.72212250               72.17365187                0.00010000                8.58390868                7.98519165              -27.51082835               -0.38932431               33.03164856              -33.06246059
              55.97492811               -8.53679185               70.59589174                0.49401048                8.99859950                8.99573640              -31.31980169               -0.24419926               17.14078766              -48.52241073
              47.91338418               20.61823027               79.07178204                0.76006495                0.70103116               -0.25446090                0.14570111                0.66749022                5.01127369                9.40692330
              48.92039450               17.93220776               77.25545844                0.48240489                8.67513344                1.34069169               -4.63082343               -7.06606892               88.31357059               -8.80083303
              50.08688685               15.08636858               77.10534892                0.44505370               14.38014580               -2.13304629               -7.15518699               -5.36602733              166.06491075               -3.68906050
              51.20799741               12.26992107               76.84757060                0.43953312               10.94412186                0.02323639               -9.68562533               -1.77200990              156.50863705               -4.05730889
              52.30576929                9.44743306               76.50780688                0.43744745                9.15159914                1.50545010              -12.24329420               -1.10695572              147.47469416               -4.95140133
              53.39102940                6.62422644               76.06939797                0.43893546                8.14756585                2.98270552              -14.88611613               -0.64032531              136.38772813               -6.22865290
              54.46872061                3.80167002               75.50705105                0.44369880                7.59257358                4.35298485              -17.65429649               -0.33245748              122.38107456               -7.85693291
              55.54288087                0.98207687               74.78721721                0.45176342                7.42577517                5.65364859              -20.57473537               -0.05446853              104.47729800               -9.95252508
              56.61723611               -1.83267925               73.86546725                0.46429064                7.64300444                6.89044122              -23.67760114                0.21658813               81.20798328              -12.82812606
              57.69574096               -4.64156372               72.67918040                0.48102579                8.28099679                8.05587788              -27.02909777                0.46772066               48.43606267              -17.16147246
              58.78285605               -7.44492252               71.10128095                0.74730519                8.71150916                9.18693294              -30.84456177                0.45691367               28.87805208              -28.91603416
              21.00124939               11.11323037               82.66162673                0.83637810               -1.62948241               -1.81367478                6.16745270               -0.47879391               -6.37805226                6.85393021
              21.98495457                8.16242092               81.87985378                0.56941091               -1.70578373               -1.04671285                4.15005698               -0.64993830               -8.73806752               -5.41971747
              22.96713372                5.20060441               81.05051793                0.48270877               -1.56009054               -0.57690736                2.12335479               -0.45460926               -8.91554916               -0.10992208
              23.95375276                2.21873124               80.26544180                0.45793883               -0.97139363                0.00628742                0.16017362               -0.40780309               -6.35351277               -0.37512016
              24.94770585               -0.78086812               79.48721816                0.45173020               -0.16080698                0.59184142               -1.86552024               -0.36633022               -5.71943332               -0.22583428
              25.95053662               -3.79255633               78.71460190                0.45816194                0.75645564                1.19115348               -3.93710180               -0.34682934               -5.39525048               -0.10546452
              26.96283496               -6.80896360               77.94279557                0.47896822                1.68859522                1.78629482               -6.04430837               -0.33401438               -5.59757527                0.01814847
              27.98430852               -9.82335606               77.16642842                0.51574930                2.54916536                2.38341136               -8.16534485               -0.33038353               -6.35413733                0.15563128
              29.01381827              -12.83086070               76.38022838                0.57575059                3.26767859                2.96251459              -10.26201787               -0.33126837               -7.93392583                0.19587137
              30.04966209              -15.82982535               75.57323474                0.66695783                3.83674976                3.52739082              -12.33595370               -0.32790253               -8.39592084                1.04237572
              31.09055326              -18.82205862               74.77889545                0.87161453                4.08911663                4.14202298              -14.38481096               -0.53728674               -7.83010179               -5.19309307
              23.94727090               12.09509363               82.34935153                0.61043093               -1.25027402               -1.91757007                5.37809455               -0.32988798                5.19843463               10.69454830
              24.93476816                9.15195379               81.56407457                0.09970417               -0.64192185               -0.70945048                3.38295885               -0.77165195               11.64334147              -10.06271167
              25.93443247                6.19483534               80.90735645                0.04133298                0.28214152               -1.08950578                1.77932272               -1.97727176               17.53356343              -12.82612315
              26.94041099                3.21879411               80.23928502                0.03265748                0.76269301               -0.84389847                0.02883686               -2.95742868               17.50341925              -18.74332449
              27.94968633                0.22505029               79.58197209                0.03571197                1.03525338               -0.37780718               -1.77038534               -3.57301663               18.27547743              -25.51716857
              28.96111606               -2.78064480               78.92969670                0.04291770                1.26041739                0.20124645               -3.63565588               -3.70687878               18.53071674              -33.14133448
              29.97489468               -5.79110065               78.27804534                0.05536252                1.54185871                0.78741744               -5.52494957               -3.35399099               18.32726466              -41.71108001
              30.99195324               -8.79952194               77.62208392                0.07502425                1.94227746                1.31421795               -7.44648356               -2.57975548               17.57686574              -51.38813294
              32.01374023              -11.80123555               76.95563862                0.10673105                2.50143957                1.73619567               -9.33479162               -1.49260460               16.42096812              -62.41447790
              33.04198203              -14.79455144               76.27684449                0.15338147                3.18367190                2.10242466              -11.18559637               -0.18166056               12.90781086              -75.11642863
              34.07741366              -17.78063839               75.54037507                0.60976946                3.54316353                2.29349974              -13.06006595                1.15771218               10.01553903              -92.75454789
              26.88093130               13.07487897               82.11345629                0.54839407               -1.11514835               -1.88839261                4.87748682               -0.10323072               -0.18227240               13.43173370
              27.86977981               10.14823191               81.15515329                0.03387573               -1.00916660               -0.28544356                2.42080679               -2.05623464               15.47484361              -12.94396868
              28.86074797                7.17881430               80.50978198                0.00010000               -0.26952905               -0.90862002                0.48100171               -4.87615353               30.20626677              -24.84009002
              29.86438923                4.20185327               79.84581711                0.00010000                0.74682286               -1.00084536               -1.51290296               -6.02308717               28.74826919              -36.77037125
              30.87568442                1.21157573               79.17110614                0.00010000                1.40803757               -0.69982039               -3.56039385               -6.95796250               27.60425862              -50.23541184
              31.89254998               -1.78853141               78.48432521                0.00010000                1.94739303               -0.20646751               -5.66003315               -7.15532197               26.07164761              -65.28658145
              32.91463228               -4.79321525               77.77911654                0.00010000                2.51491650                0.32181215               -7.81379587               -6.55513591               23.81531158              -82.17582531
              33.94284831               -7.79707170               77.04737483                0.00010000                3.21816915                0.75978082              -10.00764005               -5.24332572               20.66414157             -101.21840427
              34.97899567              -10.79613678               76.27936067                0.00010000                4.12917016                1.06215162              -12.23763999               -3.37111099               16.15490969             -122.77140422
              36.02543172              -13.78777685               75.45790742                0.00010000                5.34428677                1.26635236              -14.49485511               -1.36574184                9.16752656             -147.53644928
              37.08588140              -16.77618862               74.55145986                0.48269548                6.04496841                1.66625040              -16.80455102                0.33383860                4.75737828             -173.87237457
              29.79850041               14.05732577               81.85575080                0.53664317               -0.87922650               -1.63504212                4.27980418               -0.10014042                0.11766673               12.64326225
              30.78970815               11.14624492               80.78127543                0.02039871               -0.76061837               -0.11533775                1.57962056               -2.79897305               21.07686175              -11.05124184
              31.78328804                8.17666294               80.12583502                0.00010000               -0.12601644                0.15262730               -0.70454317               -5.69278297               41.41118477              -23.39857309
              32.78718782                5.19877720               79.45796446                0.00010000                0.88118540                0.23768435               -2.96656511               -6.33517402               39.77942626              -35.53243501
              33.80091175                2.21105388               78.76978081                0.00010000                1.78063954                0.50687371               -5.25646869               -6.86952813               37.40878344              -48.46451632
              34.82280061               -0.78477415               78.05444842                0.00010000                2.57102506                0.91739615               -7.59693246               -6.93125983               34.23650680              -62.76264453
              35.85233225               -3.78466441               77.30283411                0.00010000                3.36038249                1.38573210               -9.99867034               -6.39687580               30.05624406              -78.77499615
              36.89000826               -6.78432633               76.50396078                0.00010000                4.23454536                1.83271166              -12.46402698               -5.32266001               24.66781396              -96.81123714
              37.93702316               -9.77999252               75.64481657                0.00010000                5.23553860                2.23722589              -14.98526226               -3.86843129               17.82055872             -117.12489106
              38.99471903              -12.76922439               74.70976109                0.00010000                6.19454069                2.66709042              -17.54687275               -2.10483393                9.43967760             -139.54167844
              40.06091397              -15.74731338               73.68482590                0.48307154                6.61949441                3.65164715              -20.11494339               -0.92065438                4.81058720             -162.99554767
              32.70109019               15.04217813               81.60382589                0.53253836               -0.66270062               -1.40346303                3.70407228               -0.09717650                0.11154082               13.08141682
              33.69446319               12.14592516               80.41002846                0.01660399               -0.33650836                0.06577656                0.72328734               -3.27141635               27.14443857              -10.78305416
              34.69436002                9.18186684               79.75681628                0.00010000                0.44158117                0.77020563               -1.82547873               -6.46446702               53.41759148              -21.90833381
              35.70329481                6.20660695               79.08867695                0.00010000                1.37425940                1.15600542               -4.32893427               -6.85356883               51.30757097              -33.24810267
              36.72184521                3.22171321               78.39334473                0.00010000                2.31741350                1.49626212               -6.83916662               -7.06407127               47.96026904              -45.26624133
              37.74964308                0.22981652               77.65831473                0.00010000                3.22008665                1.91063188               -9.39383735               -6.91471687               43.33317088              -58.48070162
              38.78624695               -2.76550061               76.87050054                0.00010000                4.10400736                2.39685418              -12.01362925               -6.34149647               37.34875635              -73.30540698
              39.83172323               -5.76041747               76.01589766                0.00010000                5.01390783                2.92355895              -14.70426702               -5.38402722               29.92390944              -90.07074729
              40.88652510               -8.75139227               75.07991109                0.00010000                5.94663358                3.47898287              -17.45744962               -4.09291880               21.05010825             -108.97770932
              41.95065590              -11.73443504               74.04865805                0.00010000                6.85605938                4.14731798              -20.25011373               -2.38254747               10.91126028             -129.98741875
              43.02364629              -14.70315568               72.91145506                0.48397629                7.29903922                4.99188440              -23.05195550               -1.03419118                5.50254777             -152.92682061
              35.58906282               16.02925651               81.35463767                0.52920572               -0.44717223               -1.18873433                3.14540598               -0.09771080                0.12395345               13.29670803
              36.58459110               13.14756045               80.04150838                0.01423631                0.21270402                0.27005990               -0.13738249               -3.57208188               33.83914229              -10.59981089
              37.59331691               10.19206705               79.40268782                0.00010000                1.28394867                1.20659496               -2.90091747               -6.99391785               66.64655398              -20.27125504
              38.61027008                7.22189731               78.74631172                0.00010000                2.15519279                1.76899080               -5.59674295               -7.32225779               64.02532643              -30.16453456
              39.63642076                4.24097913               78.05549664                0.00010000                3.07250048                2.20704263               -8.28545183               -7.29241403               59.71931588              -40.75916132
              40.67172009                1.25343849               77.31333116                0.00010000                3.96577724                2.68645502              -11.01312405               -6.90609737               53.71504889              -52.50003578
              41.71573631               -1.73672732               76.50269884                0.00010000                4.82496427                3.25790161              -13.80712096               -6.20152451               45.98919719              -65.79784774
              42.76821937               -4.72585515               75.60627481                0.00010000                5.67230277                3.90844522              -16.67655633               -5.22646769               36.54521342              -81.02339714
              43.82918236               -7.71041286               74.60714171                0.00010000                6.53060601                4.61864814              -19.61466508               -3.97454239               25.49106785              -98.49207780
              44.89883149              -10.68627803               73.49032569                0.00010000                7.42445280                5.36407731              -22.60416081               -2.29059820               13.12722140             -118.43232663
              45.97767142              -13.64747569               72.24507596                0.48479855                7.88399260                6.06127599              -25.63006967               -1.01286022                6.62520690             -140.96887935
              38.46252810               17.01840344               81.10675010                0.52594363               -0.23170878               -0.98629142                2.58724587               -0.09730977                0.14293639               13.36312864
              39.46021101               14.15132636               79.67410465                0.01343616                0.88083570                0.49154798               -1.00437502               -3.79336590               41.39668070              -10.57957918
              40.48014481               11.20599874               79.06660656                0.00010000                2.38632862                1.51131106               -3.92692578               -7.36690324               81.57444073              -18.29276488
              41.50793758                8.24198677               78.43870669                0.00010000                3.21554733                2.10271642               -6.75762575               -7.64067413               78.41352965              -26.26665908
              42.54445576                5.26585406               77.76894240                0.00010000                4.06450008                2.59672054               -9.57015151               -7.35712512               73.13732703              -34.98579348
              43.58922758                2.28354562               77.03629054                0.00010000                4.85271684                3.18013060              -12.41914838               -6.68949485               65.77043811              -44.85521111
              44.64151009               -0.70034258               76.21978200                0.00010000                5.58259146                3.89061252              -15.33806306               -5.80418241               56.30364882              -56.24770413
              45.70087941               -3.68224856               75.29823638                0.00010000                6.29735218                4.69516979              -18.34067540               -4.76392088               44.74057146              -69.58152381
              46.76745714               -6.65901930               74.25084851                0.00010000                7.05136759                5.54521723              -21.42644477               -3.54068445               31.20662723              -85.34908569
              47.84190676               -9.62715350               73.05909270                0.00010000                7.91636345                6.35947754              -24.58917875               -2.00101256               16.06928241             -104.06864826
              48.92578441              -12.58193016               71.70964692                0.48588995                8.38776425                6.98697014              -27.83069634               -0.88902117                8.13610819             -126.16280230
              41.32127081               18.00953068               80.85865234                0.52276922               -0.01423217               -0.78851346                2.02437376               -0.09820385                0.16667970               13.26566804
              42.32112848               15.15739141               79.30627586                0.01408536                1.70238102                0.72654518               -1.88401704               -4.02618823               50.08015928              -10.70322123
              43.35531843               12.22229327               78.75230441                0.00010000                3.82363965                1.62765211               -4.89388283               -7.64571551               98.70175869              -15.87859955
              44.39760128                9.26395164               78.17432196                0.00010000                4.62004925                2.07385494               -7.79102307               -7.72859269               94.91457133              -21.43971836
              45.44771941                6.29291354               77.54628972                0.00010000                5.32627743                2.60821090              -10.66277423               -7.02031835               88.61325731              -27.92994934
              46.50412683                3.31704110               76.84365793                0.00010000                5.88637133                3.36863306              -13.57371724               -6.04330659               79.89176787              -35.58366270
              47.56544684                0.34108493               76.04220408                0.00010000                6.37454282                4.26533358              -16.56267161               -5.01040305               68.70509309              -44.66036524
              48.63161768               -2.63195175               75.11646298                0.00010000                6.89133858                5.24054186              -19.64937888               -3.95537578               54.92617054              -55.59168094
              49.70327361               -5.59950852               74.03975798                0.00010000                7.50522070                6.23573041              -22.84290563               -2.82998470               38.55252753              -69.06560073
              50.78172210               -8.55908848               72.78671609                0.00010000                8.30853531                7.15353827              -26.15172518               -1.54592615               19.94651464              -86.05720771
              51.86944432              -11.50773629               71.33806399                0.48678948                8.77222195                7.80147212              -29.59508332               -0.69393509               10.14976377             -107.49529271
              44.16484256               19.00263317               80.60863043                0.52031704                0.20820908               -0.58816436                1.44454117               -0.10699630                0.23936449               13.15796165
              45.16692465               16.16585726               78.93675755                0.01668987                2.79138548                0.96988984               -2.77584521               -4.40916469               60.21943348              -11.12976677
              46.22067027               13.23855179               78.46467303                0.00010000                5.79104053                1.29311411               -5.78836975               -7.89638029              118.58251397              -12.61940993
              47.28274546               10.28346387               77.96306664                0.00010000                6.51448286                1.45129810               -8.66749508               -7.14076518              113.91635527              -15.45408631
              48.35095993                7.31801828               77.40032927                0.00010000                6.87222984                2.27554140              -11.52672769               -5.89654604              106.43536303              -19.60141398
              49.42019006                4.35091828               76.75127278                0.00010000                6.96674779                3.30447828              -14.43391464               -4.72792760               96.44016581              -24.79907699
              50.49029488                1.38496410               75.99006854                0.00010000                7.10876396                4.41613238              -17.43095562               -3.73557696               83.70683120              -31.15048447
              51.56236534               -1.57743772               75.08709346                0.00010000                7.38496419                5.55482812              -20.54293424               -2.81372895               67.79670573              -39.02623098
              52.63799417               -4.53430470               74.00786954                0.00010000                7.84253354                6.68223088              -23.79087148               -1.89947643               48.28100627              -49.17811834
              53.71921601               -7.48408273               72.71437000                0.00010000                8.56035752                7.72863515              -27.20517320               -0.96932997               25.27745077              -63.16212867
              54.80920132              -10.42590072               71.17467435                0.48749847                8.99853089                8.50912707              -30.82898130               -0.44630100               12.98552028              -83.44415745
              46.99268271               19.99776740               80.35827483                0.51523870                0.43438677               -0.37194706                0.85938978               -0.11729132               -0.27497822               11.41198896
              47.99702658               17.17678921               78.56079907                0.01796500                4.35507502                1.20764044               -3.70253661               -5.25860300               72.31894616              -10.24721235
              49.07978421               14.24815556               78.21543437                0.00010000                8.91464515               -0.54144000               -6.57460312               -6.47651135              142.08453043               -7.28870950
              50.17531948               11.29297760               77.81771394                0.00010000                9.12749347                0.52751214               -9.34826447               -4.90182868              135.41708681               -8.19025746
              51.26233408                8.33842437               77.34322971                0.00010000                8.36514880                1.81314791              -12.12123754               -3.46966784              126.65436631              -10.15271472
              52.34262246                5.38313067               76.77316193                0.00010000                7.83786112                3.14075848              -14.95500293               -2.63792571              115.70495788              -12.77271060
              53.41909130                2.42940757               76.08142384                0.00010000                7.59947189                4.43602185              -17.89021719               -1.99771979              101.86557462              -16.05214791
              54.49461189               -0.52085519               75.23529820                0.00010000                7.64188935                5.69143175              -20.95488179               -1.43529180               84.34991758              -20.20835524
              55.57192909               -3.46586390               74.19315878                0.00010000                7.96598116                6.90010513              -24.17962725               -0.88974413               61.96028026              -25.76067213
              56.65393152               -6.40451578               72.89854426                0.00010000                8.61125866                8.03520102              -27.62478564               -0.39611348               33.33641460              -33.97733257
              57.74415426               -9.33755375               71.28287214                0.48826689                9.02227449                9.03297351              -31.39610586               -0.22880451               17.33832781              -49.72819307
              49.80445311               20.99519423               80.07329096                0.75693557                0.69113219               -0.25731647                0.16219919                0.65862371                5.15003181                9.67779550
              50.81136443               18.19001007               78.20937857                0.47905304                8.52492702                1.32208581               -4.57188065               -6.93977667               89.54377569               -9.04337243
              51.97495165               15.22772299               78.03362411                0.44427318               14.15378239               -2.04325705               -7.18609274               -5.28305357              168.16271169               -3.78977870
              53.09444008               12.29401411               77.75018133                0.43931251               10.82309283                0.10365096               -9.79187004               -1.76002731              158.41874589               -4.18586889
              54.19141351                9.35428124               77.38459217                0.43755881                9.10041278                1.58568721              -12.40962610               -1.10609019              149.18444255               -5.11578665
              55.27644834                6.41373345               76.91962462                0.43869547                8.14564185                3.06027834              -15.09716423               -0.64724713              137.87560082               -6.43245803
              56.35432635                3.47368453               76.32958521                0.44312196                7.62413203                4.42769586              -17.89328444               -0.34362254              123.65182801               -8.10197121
              57.42893098                0.53639091               75.58064183                0.45071372                7.47667632                5.72461015              -20.82451996               -0.06744793              105.54826781              -10.24392901
              58.50385987               -2.39630259               74.62802778                0.46155475                7.70263048                6.95613071              -23.92248096                0.20459717               82.07778740              -13.17836869
              59.58298359               -5.32337871               73.40841033                0.47649952                8.34206477                8.11370645              -27.25535063                0.45827432               49.00289492              -17.59691313
              60.67070117               -8.24524125               71.79253177                0.74439507                8.77175804                9.23125001              -31.03414292                0.46843718               29.28658472              -29.57375794
              21.72874957               11.49857703               83.72292275                0.82939951               -1.60865642               -1.78834127                6.08247821               -0.47340367               -6.49599518                6.97102650
              22.71266300                8.42726299               82.92109344                0.56133341               -1.70040306               -1.03146930                4.09039122               -0.66261044               -8.84894582               -5.53552511
              23.69474150                5.34461657               82.07170617                0.47983263               -1.55993515               -0.57096602                2.11037951               -0.44558380               -8.98766322               -0.06373097
              24.68146430                2.24184659               81.26714314                0.45715952               -0.95864174                0.00460740                0.18275719               -0.40014413               -6.41505051               -0.36110737
              25.67556867               -0.87829429               80.46886355                0.45201390               -0.15141406                0.57704620               -1.80137754               -0.36317854               -5.83162897               -0.21509618
              26.67843602               -4.01023801               79.67561242                0.45807019                0.75210107                1.17272965               -3.83950157               -0.33866130               -5.54837018               -0.11455435
              27.69061069               -7.14672650               78.88291034                0.47746272                1.66161071                1.76464499               -5.90662934               -0.32696725               -5.77077054                0.01170719
              28.71166823              -10.28116319               78.08555813                0.51199159                2.49748652                2.34617955               -7.97495720               -0.32382579               -6.53552139                0.13339154
              29.74056042              -13.40910466               77.27842849                0.56684234                3.20456527                2.92591426              -10.05020682               -0.32320988               -8.11450376                0.16810390
              30.77575954              -16.52895816               76.45084889                0.64986542                3.76557976                3.48870001              -12.09446612               -0.32259953               -8.57001310                1.01342461
              31.81587202              -19.64260593               75.63619031                0.85967854                4.01124795                4.09001710              -14.10634312               -0.49422995               -8.01504333               -5.27603294
              24.79532957               12.48069362               83.40279540                0.59970999               -1.23124413               -1.89776748                5.30171676               -0.33545906                5.36059334               10.96524869
              25.78301713                9.41694830               82.59768706                0.09812107               -0.61678523               -0.68976107                3.33419655               -0.79700119               12.00603467              -10.26947190
              26.78299387                6.33890691               81.92503955                0.04224068                0.29505770               -1.07451296                1.75245276               -2.01219649               18.01731634              -13.24777323
              27.78891828                3.24189267               81.23953522                0.03376037                0.74926586               -0.81632630                0.01519753               -2.98460870               17.87520795              -19.42346478
              28.79797918                0.12747618               80.56432608                0.03669402                1.01736129               -0.34424034               -1.76041457               -3.58045625               18.57054068              -26.43998244
              29.80926551               -2.99851071               79.89329132                0.04355583                1.24122132                0.24143549               -3.62156843               -3.69935390               18.78936490              -34.29382234
              30.82280361               -6.12908005               79.22288249                0.05542065                1.51767735                0.83246507               -5.50358597               -3.34564742               18.55912947              -43.10099197
              31.83961906               -9.25770140               78.54775599                0.07393108                1.92110973                1.35732446               -7.39945863               -2.57724177               17.77666312              -53.02258455
              32.86122581              -12.37984552               77.86230462                0.10348245                2.48325599                1.78875158               -9.29275461               -1.51098989               16.64824087              -64.30879870
              33.88928418              -15.49407116               77.16504666                0.14579769                3.16758441                2.16999026              -11.15001789               -0.25383258               13.14412245              -77.30455564
              34.92457749              -18.60170576               76.40994221                0.59679130                3.52933166                2.41871347              -12.99393696                1.02219159               10.22825382              -95.28978169
              27.84953103               13.46062168               83.16197754                0.54073123               -1.10213385               -1.87335943                4.81226189               -0.10010884               -0.22251603               13.80236474
              28.83850969               10.41346777               82.17923688                0.03284351               -0.99889108               -0.26719166                2.39077179               -2.07877607               15.69483972              -13.18012462
              29.82955321                7.32312631               81.51454761                0.00010000               -0.26534177               -0.89095008                0.47133142               -4.92530275               30.64158464              -25.67798202
              30.83320286                4.22552007               80.83069529                0.00010000                0.74048568               -0.95930281               -1.50792312               -6.04935552               29.11239713              -38.10310761
              31.84436292                1.11482091               80.13555167                0.00010000                1.39011534               -0.63348320               -3.54611220               -6.95553711               27.89551888              -52.04281464
              32.86100516               -2.00540930               79.42785703                0.00010000                1.92627527               -0.12377213               -5.63492186               -7.13412298               26.28360339              -67.54018359
              33.88288843               -5.13007720               78.70117826                0.00010000                2.49418535                0.41586585               -7.77526748               -6.53098647               23.95804364              -84.89138350
              34.91088887               -8.25401670               77.94764087                0.00010000                3.19109784                0.86616752               -9.95111081               -5.23343345               20.75998512             -104.40424942
              35.94671038              -11.37332963               77.15760212                0.00010000                4.08271285                1.18263285              -12.14422621               -3.39899809               16.21697204             -126.45858078
              36.99254313              -14.48555835               76.31392117                0.00010000                5.24373375                1.41905323              -14.35116011               -1.42551655                9.19895073             -151.76894825
              38.05158506              -17.59423166               75.38465773                0.47750683                5.90419322                1.88413427              -16.61764773                0.24212399                4.79308093             -178.66600199
              30.88763522               14.44322643               82.89826567                0.52909484               -0.86982388               -1.61892746                4.22216917               -0.09335254                0.11744936               12.99016344
              31.87893699               11.41160447               81.79706715                0.01988448               -0.75998530               -0.10961606                1.57295229               -2.81645819               21.27431461              -11.23787192
              32.87243552                8.32108791               81.11880465                0.00010000               -0.13502046                0.15715048               -0.69979803               -5.72492565               41.79588459              -24.15281303
              33.87623658                5.22270661               80.42834398                0.00010000                0.86811442                0.25560541               -2.95232114               -6.34303335               40.13131428              -36.78099859
              34.88979781                2.11480651               79.71729636                0.00010000                1.76222892                0.54566224               -5.23578486               -6.85832505               37.68499226              -50.16685205
              35.91148115               -1.00098615               78.97861244                0.00010000                2.54967398                0.97242277               -7.57014812               -6.90878408               34.42073639              -64.90388631
              36.94079129               -4.12076273               78.20308905                0.00010000                3.33608353                1.45219942               -9.96077156               -6.37785420               30.14917827              -81.34961931
              37.97820282               -7.24037805               77.37976127                0.00010000                4.19981036                1.91062152              -12.40212604               -5.32120162               24.68597814              -99.82917896
              39.02478749              -10.35619286               76.49572306                0.00010000                5.17365268                2.32628949              -14.88157671               -3.88779394               17.79483080             -120.59997750
              40.08167588              -13.46569009               75.53545373                0.00010000                6.09895525                2.77618166              -17.38696718               -2.13109871                9.41043325             -143.48704543
              41.14676660              -16.56402308               74.48511761                0.47825779                6.50907196                3.75684353              -19.90762936               -0.91871550                4.81626996             -167.40904821
              33.91090791               15.42824314               82.64067875                0.52549257               -0.65888595               -1.38738702                3.66855307               -0.08728957                0.11118247               13.46518731
              34.90431905               12.41127545               81.41730766                0.01636957               -0.34776808                0.06012696                0.73033833               -3.27793774               27.34950264              -10.98690762
              35.90395255                9.32626932               80.73862237                0.00010000                0.41522645                0.76368907               -1.81098355               -6.47706776               53.81895203              -22.61361954
              36.91262358                6.23063217               80.04544551                0.00010000                1.34683162                1.16131428               -4.31102527               -6.83968649               51.68361038              -34.40719237
              37.93088919                3.12573415               79.32502129                0.00010000                2.28875705                1.51862186               -6.82111076               -7.03775854               48.26086183              -46.84289821
              38.95839872                0.01403916               78.56448074                0.00010000                3.19170253                1.94969191               -9.37603516               -6.88798746               43.53114663              -60.45564465
              39.99472324               -3.10103321               77.75055631                0.00010000                4.07481236                2.44959760              -11.99126916               -6.32539188               37.44203085              -75.67282249
              41.03989497               -6.21580427               76.86921561                0.00010000                4.97716582                2.98737890              -14.66631258               -5.38460967               29.93289435              -92.83276795
              42.09426655               -9.32680384               75.90595677                0.00010000                5.89281973                3.55395091              -17.38863734               -4.10573394               21.01376137             -112.14295475
              43.15775137              -12.43003472               74.84707889                0.00010000                6.78050834                4.22874267              -20.13898191               -2.39218094               10.87639812             -133.57249267
              44.22987672              -15.51909479               73.68208284                0.47908607                7.21253524                5.06719613              -22.90067865               -1.02421837                5.50682659             -156.96716364
              36.91982481               16.41547869               82.38596234                0.52234265               -0.44727578               -1.17248265                3.12286803               -0.08572287                0.12327929               13.69704246
              37.91535205               13.41280700               81.04025033                0.01415949                0.18563168                0.25642834               -0.11704374               -3.56289348               34.08405532              -10.81332370
              38.92353744               10.33636169               80.37375453                0.00010000                1.23129827                1.19519130               -2.88201555               -6.98097293               67.12408020              -20.93414830
              39.93997801                7.24593289               79.69038557                0.00010000                2.10491068                1.77115967               -5.58225756               -7.28346666               64.48143608              -31.22371664
              40.96563565                4.14517895               78.97265894                0.00010000                3.02553761                2.22695250               -8.27896253               -7.24751924               60.09524229              -42.18181457
              42.00048876                1.03800768               78.20321770                0.00010000                3.92456126                2.72333544              -11.01572672               -6.86910343               53.97874996              -54.26841944
              43.04412688               -2.07177078               77.36469020                0.00010000                4.78962508                3.30904181              -13.81565584               -6.18082110               46.13752206              -67.90661381
              44.09628127               -5.18063047               76.43967776                0.00010000                5.63881914                3.97153055              -16.68268071               -5.22303347               36.60072489              -83.47672152
              45.15690326               -8.28511385               75.41133241                0.00010000                6.49209724                4.69129886              -19.60632819               -3.98073166               25.49359411             -101.30418237
              46.22612321              -11.38111524               74.26482519                0.00010000                7.37495599                5.44211770              -22.56952034               -2.29557260               13.11768770             -121.63376976
              47.30440238              -14.46267916               72.98950415                0.47984331                7.82791689                6.13847097              -25.56087067               -0.99830220                6.64497818             -144.61625116
              39.91453683               17.40479348               82.13256655                0.51984452               -0.23586425               -0.97060472                2.58005381               -0.08851170                0.14236349               13.76965145
              40.91217819               14.41640402               80.66422383                0.01343325                0.83351860                0.47251871               -0.97524847               -3.76771283               41.71495905              -10.80783584
              41.93120720               11.35017314               80.02740864                0.00010000                2.29793995                1.50302679               -3.90833613               -7.32394112               82.19357834              -18.90247346
              42.95813699                8.26605537               79.37112121                0.00010000                3.13284036                2.11351852               -6.75410712               -7.57560200               79.01157048              -27.20445632
              43.99386401                5.17027320               78.67316441                0.00010000                3.99146975                2.62751082               -9.58451323               -7.29445032               73.64591458              -36.22030341
              45.03796638                2.06850587               77.91197978                0.00010000                4.79404771                3.22740860              -12.45302384               -6.64302491               66.15304276              -46.37341292
              46.08974497               -1.03485237               77.06627604                0.00010000                5.54054931                3.95070308              -15.38967203               -5.77857234               56.55619213              -58.04900911
              47.14877737               -4.13637366               76.11474664                0.00010000                6.26958620                4.76545385              -18.40354939               -4.75634034               44.88531995              -71.67626836
              48.21513669               -7.23297787               75.03659578                0.00010000                7.03139267                5.62332336              -21.48943783               -3.54262881               31.27969656              -87.76121647
              49.28940522              -10.32119237               73.81335238                0.00010000                7.89509082                6.44219951              -24.63755267               -2.00317958               16.10168667             -106.84179240
              50.37303851              -13.39632537               72.43166477                0.48061959                8.36332825                7.07067008              -27.84682824               -0.87242663                8.18007945             -129.36617972
              42.89483350               18.39606660               81.87892004                0.51689951               -0.02153755               -0.77977324                2.02942906               -0.09689960                0.16275857               13.66231336
              43.89461813               15.42225738               80.28763147                0.01407447                1.62868809                0.70682157               -1.84372061               -3.98143027               50.50856968              -10.94499681
              44.92740727               12.36642222               79.70341238                0.00010000                3.68738932                1.63200140               -4.88124906               -7.56740679               99.53559817              -16.41876167
              45.96836591                9.28820327               79.09631786                0.00010000                4.49444406                2.10797297               -7.80585288               -7.63946104               95.72085876              -22.22208520
              47.01729615                6.19772917               78.43944939                0.00010000                5.21939627                2.66377985              -10.70724357               -6.94781602               89.31326749              -28.93269259
              48.07275384                3.10255586               77.70761562                0.00010000                5.80694055                3.43708121              -13.64933757               -5.99556715               80.44495357              -36.80147392
              49.13343496                0.00724328               76.87621456                0.00010000                6.32630567                4.34251255              -16.66823554               -4.98626125               69.10725704              -46.09872574
              50.19927995               -3.08532139               75.91959374                0.00010000                6.87172146                5.32403525              -19.77886041               -3.94871313               55.19748954              -57.26666849
              51.27086939               -6.17264738               74.81099480                0.00010000                7.50635876                6.32340209              -22.98418900               -2.83187007               38.72215872              -71.00909186
              52.34940713               -9.25227125               73.52496729                0.00010000                8.31752396                7.24270367              -26.28601407               -1.54800718               20.03342599              -88.32445708
              53.43721987              -12.32126575               72.04205477                0.48147501                8.78127375                7.88984182              -29.69667642               -0.67622473               10.22466322             -110.16761954
              45.86021728               19.38919802               81.62313573                0.51454756                0.19766803               -0.58562344                1.46790356               -0.10049471                0.24681626               13.54272319
              46.86219396               16.43054045               79.90924990                0.01660097                2.68479519                0.94891031               -2.73054255               -4.33296212               60.80605065              -11.39726779
              47.91391318               13.38281317               79.40678680                0.00010000                5.59234335                1.32757763               -5.78483933               -7.77766849              119.71122698              -13.05573891
              48.97404083               10.30821483               78.87618119                0.00010000                6.33209592                1.52827998               -8.70773402               -7.04170711              115.00074495              -16.03274696
              50.04055510                7.22354880               78.28466919                0.00010000                6.72500487                2.36661022              -11.61024696               -5.83163065              107.38246917              -20.31922086
              51.10854092                4.13724749               77.60639116                0.00010000                6.86709436                3.40187389              -14.56190312               -4.69242989               97.21361496              -25.66045430
              52.17789699                1.05199788               76.81510369                0.00010000                7.05764232                4.51686272              -17.60213151               -3.72148927               84.30475415              -32.16401656
              53.24969377               -2.02989296               75.88094429                0.00010000                7.37760789                5.65731531              -20.75069652               -2.81366658               68.23668779              -40.20898041
              54.32544915               -5.10650982               74.76923888                0.00010000                7.86848425                6.78460188              -24.02097847               -1.90526191               48.58058794              -50.56255928
              55.40706345               -8.17633829               73.44167495                0.00010000                8.60269370                7.82808864              -27.43386545               -0.97343982               25.43706590              -64.81026763
              56.49750302              -11.23852854               71.86592427                0.48214424                9.04395650                8.60263142              -31.02223150               -0.42807279               13.10192274              -85.46230550
              48.81013875               20.38435413               81.36697783                0.50985087                0.42049806               -0.37220454                0.88803671               -0.11223807               -0.28873765               11.72902696
              49.81434373               17.44123559               79.52405909                0.01766438                4.20203835                1.18204331               -3.64065682               -5.13187246               73.12002619              -10.50072427
              50.89417952               14.39297378               79.14962768                0.00010000                8.62262074               -0.43098250               -6.58478158               -6.35207916              143.61276744               -7.55267283
              51.98679615               11.31876886               78.72387181                0.00010000                8.87256763                0.65270356               -9.41930321               -4.82744819              136.83488104               -8.50283313
              53.07163087                8.24506137               78.22140081                0.00010000                8.18300079                1.94218068              -12.25195427               -3.43578861              127.89598926              -10.53122900
              54.15045616                5.17059333               77.62277429                0.00010000                7.72573745                3.27022063              -15.14646099               -2.62366945              116.74625970              -13.22303090
              55.22614562                2.09758054               76.90150432                0.00010000                7.55290818                4.56549807              -18.14081159               -1.99627252              102.71058606              -16.58042639
              56.30151433               -0.97217509               76.02460772                0.00010000                7.65319324                5.82019956              -21.25685159               -1.44129944               85.01580459              -20.82559630
              57.37920948               -4.03695534               74.95017045                0.00010000                8.02213609                7.02626022              -24.51620263               -0.89800875               62.45008563              -26.48838608
              58.46195705               -7.09570948               73.62115616                0.00010000                8.69147097                8.15520860              -27.96679004               -0.40131887               33.60919583              -34.85973916
              59.55303890              -10.14921313               71.96796962                0.48292444                9.10818561                9.14057978              -31.69850332               -0.20827311               17.51890712              -50.89097760
              51.74420961               21.38175393               81.07502603                0.75427979                0.67272574               -0.26002025                0.20229017                0.64982416                5.27966840                9.92362864
              52.75093686               18.45418131               79.16402083                0.47568711                8.25643573                1.29457284               -4.49584511               -6.71870705               90.69087557               -9.26232082
              53.90933832               15.37419352               78.96162706                0.44363874               13.72337026               -1.87802535               -7.21083480               -5.12974060              170.11824162               -3.89257908
              55.02540427               12.32126890               78.65173319                0.43902269               10.53382700                0.25000326               -9.89590075               -1.72924329              160.19192694               -4.31385687
              56.12001486                9.26239241               78.25961436                0.43723275                8.90720495                1.73310427              -12.59418155               -1.09245079              150.75827350               -5.27615870
              57.20354837                6.20265190               77.76745468                0.43858778                8.03625481                3.20585689              -15.36376315               -0.64500808              139.23258383               -6.62896444
              58.28073996                3.14330784               77.14918536                0.44222620                7.59276463                4.57273036              -18.23972111               -0.34760970              124.80288796               -8.33670455
              59.35540366                0.08651103               76.37072681                0.44904255                7.51417028                5.86861198              -21.24133546               -0.07568961              106.51661912              -10.52256292
              60.43102336               -2.96598462               75.38701763                0.45889715                7.79456008                7.09707219              -24.39031986                0.19413008               82.86743499              -13.51375558
              61.51129486               -6.01323412               74.13407339                0.47232061                8.46607466                8.24753567              -27.74157641                0.44716524               49.52122063              -18.01494220
              62.60034485               -9.05571694               72.48059809                0.74165879                8.90499935                9.34961825              -31.48277955                0.48231286               29.66596955              -30.20404833
              22.47498810               11.89290561               84.78327630                0.82262590               -1.57958681               -1.75618008                5.96949562               -0.46710862               -6.60896901                7.07621711
              23.45919223                8.69852318               83.96166160                0.55362163               -1.68286713               -1.01022604                4.01028596               -0.66688055               -8.94124002               -5.64320077
              24.44133075                5.49266304               83.09272552                0.47711462               -1.54489306               -0.56246024                2.08546264               -0.42992452               -9.02906945               -0.01619802
              25.42829437                2.26672493               82.26909694                0.45569579               -0.93633802                0.00477403                0.20811213               -0.40448217               -6.44874349               -0.35187797
              26.42260399               -0.97609511               81.45119061                0.45164777               -0.13859686                0.56576344               -1.72898256               -0.37280155               -5.91093147               -0.20705506
              27.42552243               -4.23020522               80.63781187                0.45793853                0.74349204                1.14393641               -3.70764282               -0.34647921               -5.66646490               -0.12050580
              28.43747383               -7.48867375               79.82466298                0.47574436                1.62787534                1.72853415               -5.71878982               -0.33006043               -5.90898000               -0.00521189
              29.45807994              -10.74508395               79.00692928                0.50707791                2.43818003                2.30275718               -7.74002417               -0.33041290               -6.68920355                0.10651956
              30.48623743              -13.99525087               78.17922425                0.55793302                3.12100415                2.86657154               -9.76214027               -0.32572916               -8.27541618                0.14041181
              31.52050002              -17.23795240               77.33134541                0.63220383                3.66660582                3.42375691              -11.76112018               -0.31892354               -8.72177037                0.96941994
              32.55956955              -20.47508308               76.49676858                0.84724207                3.90695314                4.01816318              -13.74959606               -0.45125798               -8.17152470               -5.34605380
              25.66469944               12.87534380               84.45538587                0.58892186               -1.20547309               -1.87248091                5.20226023               -0.34357841                5.51588951               11.22416552
              26.65264470                9.68842092               83.63075850                0.09623905               -0.58844010               -0.66369227                3.26897444               -0.81955277               12.35720594              -10.46392313
              27.65293063                6.48703844               82.94240551                0.04311619                0.29919571               -1.05867419                1.71604494               -2.04288787               18.47817401              -13.65141055
              28.65862862                3.26677267               82.23958897                0.03482505                0.72052084               -0.78712825               -0.00195243               -3.00685814               18.24602968              -20.07624315
              29.66734105                0.02956252               81.54676380                0.03761161                0.98591697               -0.30778622               -1.75846988               -3.58547251               18.87633565              -27.32676703
              30.67834696               -3.21876586               80.85726533                0.04403086                1.21357707                0.27745094               -3.58894734               -3.69389504               19.00324583              -35.40100939
              31.69161259               -6.47138841               80.16797362                0.05522020                1.48587033                0.87121356               -5.46181289               -3.33775189               18.74212262              -44.42681506
              32.70806437               -9.72205637               79.47409474                0.07245224                1.89008896                1.39609871               -7.34043454               -2.58262629               17.95923891              -54.58562350
              33.72941437              -12.96658515               78.76978353                0.09959159                2.45812612                1.82620151               -9.20497915               -1.54205443               16.82411068              -66.11373494
              34.75722689              -16.20371483               78.05384413                0.13752695                3.13866365                2.21947559              -11.06213678               -0.32305944               13.33714084              -79.37324654
              35.79218764              -19.43490144               77.28049633                0.58335955                3.49607566                2.51995070              -12.88555845                0.91635612               10.43279935              -97.67636702
              28.84196230               13.85545599               84.20970153                0.53298946               -1.08557598               -1.84579852                4.72645382               -0.09331476               -0.26324052               14.17290198
              29.83110654               10.68524933               83.20296872                0.03175224               -0.99205262               -0.25021057                2.35301239               -2.09778377               15.90378192              -13.40473876
              30.82212125                7.47148956               82.51920861                0.00010000               -0.27367119               -0.87532586                0.46041808               -4.96343493               31.05787920              -26.48135238
              31.82563312                4.25098236               81.81565865                0.00010000                0.71559092               -0.91828265               -1.49676672               -6.05233073               29.44674837              -39.37773145
              32.83643307                1.01774917               81.10018389                0.00010000                1.34811742               -0.56576534               -3.52109351               -6.93182401               28.14624691              -53.77088404
              33.85259546               -2.22465620               80.37162678                0.00010000                1.87881240               -0.03548675               -5.60523264               -7.09614795               26.45889560              -69.69700535
              34.87400931               -5.47124948               79.62361119                0.00010000                2.45143441                0.51767836               -7.74180007               -6.49756891               24.06547887              -87.47921917
              35.90162415               -8.71716197               78.84835262                0.00010000                3.15227461                0.97858645               -9.91317735               -5.22239569               20.82406983             -107.44866781
              36.93705481              -11.95872684               78.03647615                0.00010000                4.03654847                1.31192168              -12.09946775               -3.42939887               16.26735921             -129.97753044
              37.98235512              -15.19356289               77.17088422                0.00010000                5.16075445                1.57959046              -14.28667656               -1.48254852                9.22622660             -155.79178067
              39.04026989              -18.42468406               76.21910690                0.47313488                5.79147727                2.09909972              -16.52087474                0.17408172                4.81936031             -183.24072985
              32.00324645               14.83842783               83.94019418                0.52226075               -0.85909869               -1.58353878                4.15539179               -0.09642632                0.11533611               13.34893236
              32.99465546               11.68341671               82.81273447                0.01934095               -0.76587706               -0.11227540                1.55483466               -2.82464179               21.45639312              -11.41896998
              33.98792891                8.46953192               82.11183906                0.00010000               -0.16665333                0.15775116               -0.69013024               -5.72648631               42.15245331              -24.87692677
              34.99132239                5.24840701               81.39891804                0.00010000                0.82071132                0.27195781               -2.92525919               -6.31748628               40.44833889              -37.97761132
              36.00434313                2.01824722               80.66506511                0.00010000                1.70501262                0.58717460               -5.20321608               -6.81442269               37.91874827              -51.79560718
              37.02542265               -1.21947559               79.90304545                0.00010000                2.49119253                1.03772836               -7.54163161               -6.85732640               34.55815893              -66.95064134
              38.05416698               -4.46103484               79.10361868                0.00010000                3.28355809                1.53456341               -9.94148671               -6.33328344               30.19958246              -83.81459527
              39.09109381               -7.70248464               78.25591826                0.00010000                4.15301649                2.00863321              -12.39043472               -5.29776895               24.67577715             -102.72163451
              40.13722731              -10.94034672               77.34718504                0.00010000                5.12196665                2.44330605              -14.86743751               -3.88780728               17.75828997             -123.94037245
              41.19353314              -14.17212302               76.36202175                0.00010000                6.03421537                2.91532706              -17.35548572               -2.14350299                9.38218807             -147.29687789
              42.25791162              -17.39291945               75.28667331                0.47354094                6.43784796                3.88992847              -19.84151721               -0.90439067                4.82259004             -171.68546756
              35.15005603               15.82378521               83.67719695                0.51900911               -0.65464092               -1.35591343                3.62726282               -0.09283940                0.10229464               13.86335616
              36.14350962               12.68300383               82.42463523                0.01612949               -0.37274068                0.04805503                0.72818943               -3.26580357               27.53574354              -11.19247946
              37.14260121                9.47464458               81.72059661                0.00010000                0.35292370                0.75329492               -1.78828924               -6.44239710               54.18721973              -23.29530855
              38.15056809                6.25642152               81.00245645                0.00010000                1.27130016                1.16701338               -4.27700966               -6.77399680               52.01908950              -35.52222286
              39.16802722                3.02949266               80.25692251                0.00010000                2.20814531                1.54762530               -6.79040374               -6.95864055               48.51145701              -48.35622940
              40.19473100               -0.20390163               79.47079403                0.00010000                3.11627408                2.00233251               -9.36109575               -6.81048451               43.67383799              -62.35078673
              41.23035270               -3.44055821               78.63067516                0.00010000                4.01248255                2.52277581              -11.99900350               -6.26139832               37.48244652              -77.94792253
              42.27498065               -6.67698931               77.72257141                0.00010000                4.92921708                3.07820159              -14.69525984               -5.34023277               29.90052271              -95.49717876
              43.32893704               -9.90986072               76.73213834                0.00010000                5.85385718                3.66055999              -17.42821465               -4.07937722               20.95325153             -115.21357154
              44.39205779              -13.13525635               75.64587841                0.00010000                6.74189462                4.34480545              -20.17089072               -2.37722049               10.83242768             -137.07162450
              45.46377493              -16.34688549               74.45344149                0.47431282                7.17171396                5.17684017              -22.90184327               -0.99784280                5.50726812             -160.92549043
              38.28295243               16.81130957               83.41709503                0.51646335               -0.44724097               -1.14732188                3.09718733               -0.09293710                0.11630978               14.11103850
              39.27848002               13.68437781               82.03916750                0.01409367                0.13554203                0.23923379               -0.10240998               -3.52766348               34.30883508              -11.03269626
              40.28566327               10.48459782               81.34504751                0.00010000                1.12571786                1.18234234               -2.85297993               -6.90563703               67.56348504              -21.58046890
              41.30099438                7.27174728               80.63466657                0.00010000                1.99151009                1.77719168               -5.55076054               -7.17764814               64.89048845              -32.24973603
              42.32549347                4.04919972               79.88991739                0.00010000                2.91347242                2.25824459               -8.26130540               -7.13439837               60.41321953              -43.55378317
              43.35926383                0.82057106               79.09301663                0.00010000                3.82666081                2.77905371              -11.02647149               -6.76666221               54.17649426              -55.97120155
              44.40202669               -2.41057933               78.22638572                0.00010000                4.71639149                3.38555482              -13.86376667               -6.09886465               46.21888784              -69.93990308
              45.45359166               -5.64092061               77.27262119                0.00010000                5.59400608                4.06496977              -16.76809634               -5.16353891               36.59731456              -85.85165131
              46.51390681               -8.86713552               76.21501514                0.00010000                6.47109250                4.79773469              -19.71810839               -3.93990109               25.45308107             -104.04223538
              47.58301351              -12.08522692               75.03893528                0.00010000                7.36531194                5.55624509              -22.68602192               -2.27167069               13.08561866             -124.76847375
              48.66121305              -15.28938265               73.73385854                0.47497137                7.81995436                6.25405585              -25.65083370               -0.96625884                6.65433019             -148.19713532
              41.40206080               17.80083877               83.15835118                0.51417060               -0.23927055               -0.95509001                2.57079267               -0.09749283                0.13388233               14.18121497
              42.39966810               14.68778850               81.65459968                0.01344764                0.75290988                0.45438005               -0.94799754               -3.71099155               42.01058105              -11.03658035
              43.41711900               11.49829143               80.98843983                0.00010000                2.13725638                1.49710317               -3.87901114               -7.20712126               82.76861328              -19.50535624
              44.44241322                8.29196535               80.30362455                0.00010000                2.96982366                2.13513355               -6.73465411               -7.43234077               79.55460458              -28.12078262
              45.47651547                5.07465755               79.57725213                0.00010000                3.83817914                2.67775879               -9.59120633               -7.15461925               74.08717758              -37.41780565
              46.51917681                1.85167944               78.78723006                0.00010000                4.66758027                3.30145916              -12.50185457               -6.52538856               66.45748919              -47.84056415
              47.56986708               -1.37284712               77.91198856                0.00010000                5.45446285                4.04310438              -15.49125429               -5.68910922               56.72628842              -59.78942347
              48.62826606               -4.59568991               76.93016540                0.00010000                6.22891218                4.87189185              -18.55875546               -4.69316676               44.95304878              -73.70587576
              49.69444532               -7.81390602               75.82105976                0.00010000                7.03027214                5.74010358              -21.68637011               -3.50025579               31.29197928              -90.10872567
              50.76887151              -11.02413145               74.56634165                0.00010000                7.91579484                6.56633629              -24.85020289               -1.97906074               16.09984440             -109.55143418
              51.85276122              -14.22180438               73.15271036                0.47574124                8.38897119                7.20172366              -28.03527361               -0.83981495                8.20777975             -132.50105944
              44.50710312               18.79220777               82.89924092                0.51145167               -0.02955811               -0.77044628                2.04133099               -0.09974772                0.16470849               14.06790071
              45.50680754               15.69346541               81.26940145                0.01408866                1.51204384                0.68478885               -1.80559999               -3.89706898               50.91210981              -11.19159027
              46.53734400               12.51453988               80.65467943                0.00010000                3.45869503                1.64651378               -4.85819741               -7.40854680              100.31327946              -16.95921555
              47.57598144                9.31444995               80.01820491                0.00010000                4.26715017                2.16448119               -7.80735251               -7.46601174               96.46221375              -22.99481506
              48.62268700                6.10275490               79.33214485                0.00010000                5.01396417                2.75124435              -10.74912028               -6.79829208               89.93367647              -29.91171104
              49.67626072                2.88660024               78.57067118                0.00010000                5.64634288                3.54355394              -13.74832033               -5.88105420               80.90509509              -37.98236115
              50.73561386               -0.32971724               77.70883937                0.00010000                6.22632531                4.46205627              -16.83599238               -4.90566294               69.40956604              -47.49003430
              51.80078723               -3.54348278               76.72088577                0.00010000                6.83646874                5.45292975              -20.01642576               -3.89591822               55.37326354              -58.88840488
              52.87234323               -6.75233345               75.58007420                0.00010000                7.52717080                6.45872505              -23.27760025               -2.79937348               38.81441636              -72.89580358
              53.95133065               -9.95390019               74.26099581                0.00010000                8.37096874                7.38272451              -26.60374989               -1.53071471               20.07594777              -90.53030637
              55.03976261              -13.14534817               72.74413047                0.47660285                8.84319625                8.03713501              -29.98954228               -0.64580206               10.27810617             -112.76770349
              47.59755056               19.78542985               82.63798851                0.50993195                0.18440394               -0.58750620                1.50151407               -0.11244152                0.23698813               13.92686288
              48.59939460               16.70148428               80.88214670                0.01654324                2.52064791                0.92691912               -2.68010081               -4.21192203               61.35669438              -11.66097388
              49.64796352               13.53122170               80.34897625                0.00010000                5.27416852                1.38609782               -5.77323231               -7.56732315              120.77422758              -13.49987996
              50.70487797               10.33525498               79.78891196                0.00010000                6.02179111                1.64594904               -8.73771160               -6.86383666              116.00422870              -16.61101534
              51.76839934                7.12968244               79.16812433                0.00010000                6.45749460                2.50498574              -11.69684325               -5.70200361              108.23245098              -21.02473086
              52.83402786                3.92255052               78.46003471                0.00010000                6.67187480                3.55031419              -14.72247056               -4.60525027               97.87355348              -26.49825025
              53.90183684                0.71639401               77.63802591                0.00010000                6.94680224                4.67173051              -17.84910545               -3.66630506               84.78060654              -33.14487360
              54.97296391               -2.48663132               76.67207953                0.00010000                7.35192144                5.81665712              -21.08469788               -2.78254517               68.55907372              -41.35260934
              56.04887527               -5.68473152               75.52744997                0.00010000                7.91540150                6.94615350              -24.42513380               -1.89032558               48.78415020              -51.90279717
              57.13127194               -8.87647696               74.16569269                0.00010000                8.69329392                7.98955971              -27.86974402               -0.96722713               25.54126693              -66.40665566
              58.22274114              -12.06106168               72.55422972                0.47722960                9.14692071                8.76505253              -31.42944640               -0.40132821               13.19100292              -87.41220470
              50.67274543               20.78045764               82.37603557                0.50399573                0.40318161               -0.39297215                0.93997342               -0.12006921               -0.29245139               12.04544940
              51.67677725               17.71200379               80.48798593                0.01740640                3.97407038                1.16779483               -3.57767872               -4.95047456               73.87869993              -10.74670100
              52.75222684               14.54226184               80.08373874                0.00010000                8.17333626               -0.26745263               -6.58741179               -6.14971286              145.04948790               -7.82820343
              53.84024397               11.34736893               79.62932787                0.00010000                8.45622737                0.83796174               -9.48213595               -4.69969371              138.14935278               -8.81834121
              54.92135138                8.15285461               79.09819063                0.00010000                7.86000875                2.13242644              -12.39027731               -3.36521285              129.01303181              -10.90553570
              55.99744415                4.95760653               78.47023271                0.00010000                7.50591042                3.46214312              -15.37903242               -2.58180483              117.64378174              -13.66198048
              57.07146959                1.76371737               77.71860760                0.00010000                7.44088557                4.75971690              -18.48084618               -1.97405089              103.40229039              -17.09162944
              58.14626186               -1.42714963               76.81016117                0.00010000                7.64563849                6.01663991              -21.70432737               -1.43302820               85.53414775              -21.42155204
              59.22438236               -4.61341038               75.70283473                0.00010000                8.10271993                7.22297213              -25.05127447               -0.89863185               62.81844595              -27.19129793
              60.30831626               -7.79410900               74.33920845                0.00010000                8.82615581                8.34824733              -28.54347387               -0.40405704               33.81125163              -35.71180128
              61.40090548              -10.97004712               72.64890207                0.47796252                9.25892230                9.32412628              -32.24058503               -0.18231239               17.66391966              -52.00643264
              53.73205688               21.77757041               82.07733676                0.75138720                0.65240348               -0.28872364                0.27502828                0.65812174                5.42194486               10.18889614
              54.73858091               18.72484017               80.11946166                0.47236710                7.87736210                1.28363839               -4.43009165               -6.40452119               91.78990416               -9.48619120
              55.88960412               15.52587265               79.88940741                0.44274405               13.08552037               -1.63891895               -7.22338777               -4.90357005              171.94889997               -4.00048219
              57.00029132               12.35201421               79.55226332                0.43891826               10.06266862                0.46452766               -9.99000324               -1.67234930              161.82491462               -4.44379454
              58.09085749                9.17233097               79.13270854                0.43761886                8.56188456                1.94763510              -12.78755286               -1.06043075              152.16431497               -5.43525389
              59.17152901                5.99179338               78.61234935                0.43835251                7.81272437                3.41868553              -15.67746942               -0.62864449              140.40067547               -6.82039989
              60.24711198                2.81158835               77.96479079                0.44199134                7.49510404                4.78709767              -18.68757984               -0.34035642              125.75618440               -8.56303471
              61.32143109               -0.36629852               77.15581512                0.44764769                7.53750062                6.08511148              -21.82241011               -0.07609792              107.29591312              -10.78986953
              62.39786199               -3.54027208               76.14022138                0.45613975                7.91982248                7.31382984              -25.08228036                0.18728817               83.49872291              -13.83488952
              63.47982754               -6.70951201               74.85357880                0.46838189                8.65545798                8.45969842              -28.49412918                0.43577498               49.94174036              -18.41438247
              64.57097115               -9.87457915               73.16287618                0.73911397                9.11436097                9.54679726              -32.20382704                0.49985330               29.99019817              -30.79941640
              23.23979958               12.29588224               85.84231266                0.81553525               -1.54105994               -1.71305397                5.82455622               -0.45745557               -6.71150152                7.17317659
              24.22438898                8.97620518               85.00129916                0.54532587               -1.65374036               -0.98424622                3.91060467               -0.67221844               -9.01352270               -5.74262702
              25.20672477                5.64493263               84.11341542                0.47488815               -1.51823216               -0.55370236                2.05071352               -0.41879974               -9.04003723                0.03082528
              26.19402434                2.29382498               83.27130539                0.45567796               -0.90448302               -0.00188761                0.23420647               -0.38009386               -6.45239005               -0.34353467
              27.18863511               -1.07358176               82.43428390                0.45184334               -0.11949938                0.55293117               -1.63628960               -0.34955847               -5.95156138               -0.19722265
              28.19163435               -4.45155504               81.60145956                0.45718663                0.73392865                1.12092370               -3.54853033               -0.34488717               -5.73783344               -0.12448740
              29.20331369               -7.83345201               80.76853454                0.47353409                1.58442713                1.68874550               -5.49594241               -0.34013816               -6.01309328               -0.02267242
              30.22332289              -11.21336374               79.93075765                0.50227383                2.36611370                2.25265271               -7.46375896               -0.33104603               -6.80917699                0.07820581
              31.25063596              -14.58741499               79.08318569                0.54813073                3.02284490                2.80428714               -9.41482811               -0.32790596               -8.39156306                0.11348883
              32.28377979              -17.95456719               78.21562648                0.61422284                3.54796099                3.34923047              -11.36567512               -0.32493556               -8.85531738                0.91719117
              33.32159518              -21.31698250               77.36119839                0.83549679                3.78153887                3.94110802              -13.32435573               -0.40814079               -8.34156516               -5.40626134
              26.55490209               13.27875170               85.50684060                0.57814160               -1.17604857               -1.83054162                5.07891013               -0.34228640                5.66255206               11.47774007
              27.54314161                9.96636272               84.66306655                0.09401952               -0.55876070               -0.64040778                3.18562420               -0.83334185               12.69853555              -10.64220459
              28.54372688                6.63939560               83.95936045                0.04390148                0.31694935               -1.04334566                1.66828121               -2.06302598               18.91446201              -14.03440833
              29.54948059                3.29380610               83.23949618                0.03580448                0.70513308               -0.75943054               -0.01761722               -3.01549217               18.56250899              -20.69433451
              30.55782954               -0.06805245               82.52915669                0.03842956                0.93200067               -0.26581664               -1.75628160               -3.57336455               19.13201008              -28.16017246
              31.56812061               -3.44034581               81.82151237                0.04438493                1.14935561                0.32127569               -3.55752006               -3.66953399               19.20261494              -36.44702393
              32.58081665               -6.81656456               81.11364623                0.05477953                1.44366590                0.90726859               -5.41029147               -3.31664613               18.89867164              -45.68776488
              33.59699392              -10.19083721               80.40094730                0.07068305                1.85709898                1.42750780               -7.27164311               -2.58125760               18.11364201              -56.06679919
              34.61795863              -13.55937212               79.67820504                0.09543225                2.41601337                1.85666203               -9.11467409               -1.56738356               16.98704420              -67.83525423
              35.64531419              -16.92107489               78.94380393                0.12898593                3.09852251                2.24978046              -10.94583803               -0.37710954               13.50703721              -81.35382198
              36.67992908              -20.27757142               78.15223104                0.57040982                3.46148895                2.58796303              -12.76502881                0.84693208               10.61330972              -99.95269431
              29.85773183               14.25927141               85.25650662                0.52563774               -1.06535846               -1.80210249                4.62108611               -0.08947568               -0.30697940               14.54737185
              30.84707824               10.96339702               84.22629713                0.03061565               -0.98554801               -0.24020789                2.30790627               -2.09636668               16.09973573              -13.62025750
              31.83802087                7.62406571               83.52375597                0.00010000               -0.29578501               -0.86171154                0.45061863               -4.95932587               31.45157886              -27.23730289
              32.84116254                4.27863637               82.80075996                0.00010000                0.66494297               -0.87247604               -1.47700406               -6.02335495               29.75113938              -40.57721961
              33.85131973                0.92110191               82.06512980                0.00010000                1.27966182               -0.48959019               -3.48369513               -6.87750372               28.35193518              -55.39632475
              34.86675578               -2.44512953               81.31575237                0.00010000                1.80762183                0.05897873               -5.56435234               -7.02191928               26.57103785              -71.73550105
              35.88747217               -5.81530664               80.54634226                0.00010000                2.38747626                0.62229732               -7.70833953               -6.42952871               24.10751284              -89.93648754
              36.91450531               -9.18481358               79.74937732                0.00010000                3.10269025                1.09038378               -9.89180231               -5.19085154               20.82494361             -110.33942995
              37.94952597              -12.55028175               78.91561277                0.00010000                3.99657980                1.43548080              -12.08835316               -3.44334161               16.26032973             -133.33989504
              38.99443690              -15.90957159               78.02818764                0.00010000                5.10004584                1.72265204              -14.27417778               -1.52121573                9.22129092             -159.64610302
              40.05152689              -19.26522324               77.05424024                0.46888033                5.70899852                2.27522051              -16.47303688                0.13414405                4.83306814             -187.62385109
              33.14486136               15.24270965               84.98137351                0.51566285               -0.84413862               -1.53310032                4.07204203               -0.09783854                0.11200717               13.71167622
              34.13641997               11.96155856               83.82816384                0.01878419               -0.77801696               -0.12020963                1.52631770               -2.79961294               21.63143408              -11.59857829
              35.12930102                8.62216137               83.10500205                0.00010000               -0.22213357                0.15444906               -0.67058216               -5.66735592               42.48849372              -25.56181392
              36.13197730                5.27635658               82.36983879                0.00010000                0.73721716                0.29014132               -2.87820332               -6.22443466               40.72907542              -39.10653362
              37.14404536                1.92215575               81.61323204                0.00010000                1.60567354                0.63276906               -5.15049901               -6.70308969               38.09623359              -53.33435381
              38.16409077               -1.43916623               80.82777981                0.00010000                2.39323834                1.10908899               -7.50442788               -6.74536531               34.62254698              -68.88845820
              39.19191013               -4.80411861               80.00425931                0.00010000                3.20306183                1.62739690               -9.93534736               -6.23703427               30.16676001              -86.15549720
              40.22815201               -8.16902953               79.13195258                0.00010000                4.09698389                2.11813998              -12.42220065               -5.23034771               24.58385926             -105.48290875
              41.27384980              -11.53066251               78.19837431                0.00010000                5.08396808                2.56881880              -14.93166240               -3.85468525               17.65580140             -127.14154205
              42.32983137              -14.88662185               77.18834402                0.00010000                6.00327358                3.05954242              -17.43125034               -2.13723193                9.31551355             -150.96281491
              43.39391528              -18.23206701               76.08828727                0.46914811                6.40839089                4.02167049              -19.89099744               -0.87606411                4.81083874             -175.81763303
              36.41807725               16.22860940               84.71322401                0.51382012               -0.64429841               -1.30822089                3.56123233               -0.10442242                0.08536619               14.25487743
              37.41163427               12.96099283               83.43187144                0.01589842               -0.41007612                0.03150364                0.71758756               -3.21492035               27.71338760              -11.38903725
              38.40987573                9.62715469               82.70285658                0.00010000                0.25226032                0.73738571               -1.75031417               -6.32732881               54.53673625              -23.94934447
              39.41667947                6.28443919               81.95990531                0.00010000                1.14525086                1.17067477               -4.21641971               -6.62283989               52.31440679              -36.58255871
              40.43278075                2.93375729               81.18921322                0.00010000                2.07216803                1.58089567               -6.73534533               -6.79411590               48.69814045              -49.79219204
              41.45812283               -0.42294775               80.37725883                0.00010000                2.99070172                2.06569270               -9.33850351               -6.65282221               43.73096383              -64.15102341
              42.49259478               -3.78275870               79.51057624                0.00010000                3.91597064                2.61181846              -12.02904755               -6.12565452               37.42479845              -80.11684346
              43.53644225               -7.14245078               78.57531041                0.00010000                4.87149006                3.18860279              -14.78623817               -5.23502720               29.77145990              -98.04951985
              44.59002458              -10.49890538               77.55739248                0.00010000                5.83272618                3.78912668              -17.57252134               -4.00644817               20.81337159             -118.17226915
              45.65309677              -13.84838074               76.44366108                0.00010000                6.74356751                4.48369514              -20.34227042               -2.33618198               10.74244673             -140.46242160
              46.72489593              -17.18478983               75.22404597                0.46969259                7.17991612                5.30881418              -23.05383087               -0.95455055                5.48629674             -164.77831019
              39.67800606               17.21654524               84.44790609                0.51094892               -0.44297853               -1.11687567                3.06160475               -0.10364926                0.10882864               14.51633093
              40.67357627               13.96218863               83.03820213                0.01406158                0.06510104                0.22228192               -0.09846865               -3.44846304               34.52278310              -11.24468290
              41.67930808               10.63690909               82.31669493                0.00010000                0.96708165                1.16397021               -2.80546435               -6.73698415               67.98107405              -22.21041769
              42.69291790                7.29977007               81.57937036                0.00010000                1.81209526                1.78310914               -5.48940560               -6.96990581               65.25600098              -33.23646610
              43.71554998                3.95377366               80.80743284                0.00010000                2.73162058                2.29661678               -8.21789121               -6.92005731               60.65968933              -44.86567909
              44.74755032                0.60214762               79.98268827                0.00010000                3.66750413                2.84938890              -11.03226382               -6.56994992               54.27712367              -57.59729995
              45.78890007               -2.75188224               79.08741487                0.00010000                4.60239098                3.48321056              -13.94241574               -5.93322412               46.18720513              -71.88573989
              46.83959814               -6.10525748               78.10431583                0.00010000                5.53753660                4.18475150              -16.92941195               -5.03364145               36.48065863              -88.13496918
              47.89965080               -9.45487997               77.01697025                0.00010000                6.46970241                4.93469712              -19.95300733               -3.84575132               25.31837122             -106.68996823
              48.96899218              -12.79694795               75.81110475                0.00010000                7.39958293                5.70495807              -22.96329424               -2.21780076               12.99849084             -127.81654340
              50.04764246              -16.12589073               74.47648748                0.47049595                7.86502722                6.40856733              -25.91609774               -0.91624086                6.63789113             -151.69262730
              42.92471748               18.20627189               84.18398240                0.50854398               -0.24163219               -0.93789747                2.56068338               -0.09331369                0.13358894               14.60762502
              43.92230116               14.96543847               82.64526388                0.01350620                0.64185618                0.43449606               -0.92448353               -3.59961232               42.29485261              -11.27497519
              44.93755460               11.65043410               81.94982842                0.00010000                1.90578124                1.48962064               -3.83093206               -6.98878883               83.31628664              -20.10223139
              45.96041678                8.32010137               81.23642812                0.00010000                2.72237256                2.16247372               -6.68461560               -7.17588039               80.04870101              -29.01440473
              46.99200205                4.97968963               80.48134028                0.00010000                3.59814794                2.74245407               -9.57344181               -6.90539636               74.44805706              -38.57384013
              48.03237974                1.63404003               79.66194269                0.00010000                4.46666721                3.39781776              -12.55046245               -6.30866051               66.65187598              -49.25034156
              49.08133540               -1.71309449               78.75645095                0.00010000                5.31937047                4.16437466              -15.63249755               -5.51420761               56.76696273              -61.46153672
              50.13876715               -5.05875575               77.74357153                0.00010000                6.17323137                5.01269265              -18.80342299               -4.56023410               44.88969255              -75.66183016
              51.20480002               -8.40021143               76.60286838                0.00010000                7.04921818                5.89631548              -22.02356995               -3.40644736               31.19412108              -92.38144228
              52.27975151              -11.73428158               75.31634833                0.00010000                7.98283278                6.73597640              -25.24339495               -1.92647101               16.03330051             -112.18580439
              53.36445668              -15.05661849               73.87095930                0.47111984                8.47051673                7.38757693              -28.42137240               -0.79018035                8.20482223             -135.55618525
              46.15780663               19.19778729               83.91974666                0.50611394               -0.03848121               -0.76656304                2.06573186               -0.09471506                0.16174210               14.49208948
              47.15742182               15.97087855               82.25151947                0.01414851                1.35313825                0.66490087               -1.77364699               -3.75234195               51.29997763              -11.44615953
              48.18486939               12.66670150               81.60624843                0.00010000                3.13614763                1.66610850               -4.81551672               -7.13905653              101.05863079              -17.50682058
              49.22014477                9.34301955               80.94017081                0.00010000                3.93170038                2.23850888               -7.77965909               -7.17591113               97.14533345              -23.76008409
              50.26350340                6.00862274               80.22446698                0.00010000                4.70082259                2.86593906              -10.76998019               -6.54181276               90.46119884              -30.86701422
              51.31416122                2.67010398               79.43264921                0.00010000                5.39541447                3.68404648              -13.85386056               -5.67434056               81.23834545              -39.12446614
              52.37141169               -0.66859475               78.53949471                0.00010000                6.06745876                4.62133327              -17.05438275               -4.74893482               69.56233563              -48.83144907
              53.43551040               -4.00500362               77.51926522                0.00010000                6.78179923                5.62676033              -20.35878256               -3.78374417               55.39695177              -60.45341753
              54.50704768               -7.33695366               76.34544280                0.00010000                7.56797096                6.64425696              -23.73035333               -2.72529133               38.77844941              -74.72144421
              55.58686982              -10.66222842               74.99289229                0.00010000                8.47324971                7.57987609              -27.12373302               -1.49140011               20.04313096              -92.66911066
              56.67651267              -13.97813919               73.44226393                0.47186510                8.96428540                8.25371249              -30.50329864               -0.60146090               10.29542393             -115.28817372
              49.37664065               20.19094063               83.65316601                0.50402182                0.16994570               -0.59362131                1.54906167               -0.09129601                0.24698606               14.33713320
              50.37834010               16.97873649               81.85564788                0.01653742                2.29959130                0.90540258               -2.63259905               -4.01958079               61.89068645              -11.94024494
              51.42263247               13.68375627               81.29132215                0.00010000                4.83186045                1.46385226               -5.74317189               -7.24534977              121.78709185              -13.95915578
              52.47497731               10.36487155               80.70142696                0.00010000                5.57244482                1.80155675               -8.74051942               -6.57806606              116.93641357              -17.19368705
              53.53408137                7.03700841               80.05073233                0.00010000                6.05665536                2.68718540              -11.76689489               -5.48336621              108.96988672              -21.72061634
              54.59611042                3.70772096               79.31194175                0.00010000                6.36914661                3.74675536              -14.89760974               -4.44613173               98.38222428              -27.31351262
              55.66146430                0.37933217               78.45812158                0.00010000                6.76703800                4.87889057              -18.15925924               -3.55451128               85.07926635              -34.09328082
              56.73145118               -2.94622054               77.45925033                0.00010000                7.30273452                6.03309547              -21.54092177               -2.70993542               68.70154392              -42.45695116
              57.80751899               -6.26732629               76.28073620                0.00010000                7.98289292                7.17004764              -25.01038531               -1.84900355               48.83598234              -53.19810309
              58.89110904               -9.58268405               74.88428007                0.00010000                8.83650070                8.21984033              -28.53227519               -0.94865114               25.55634408              -67.94873162
              59.98424901              -12.89154424               73.23733534                0.47253677                9.31399671                9.00754791              -32.08202354               -0.36514846               13.23665287              -89.28662741
              52.58038900               21.18591486               83.38577730                0.49903831                0.38255635               -0.40055842                1.02326850               -0.10492318               -0.29508693               12.39114912
              53.58421456               17.98898660               81.45250552                0.01722669                3.67191665                1.13847679               -3.52703396               -4.68060610               74.61490074              -11.02361657
              54.65382733               14.69597854               81.01787945                0.00010000                7.55583741               -0.04548702               -6.57012683               -5.85268638              146.42452539               -8.11770199
              55.73533131               11.37905068               80.53422909                0.00010000                7.85796699                1.08252811               -9.51896079               -4.49939863              139.36814597               -9.14171000
              56.81098667                8.06236645               79.97359527                0.00010000                7.37917540                2.38215522              -12.51564687               -3.24389221              129.98633145              -11.27822441
              57.88291482                4.74503908               79.31519364                0.00010000                7.16381473                3.71448276              -15.63389059               -2.50070929              118.35298447              -14.09121951
              58.95426297                1.42898306               78.53188739                0.00010000                7.25276696                5.01742985              -18.89708186               -1.92236112              103.87685088              -17.58682314
              60.02797016               -1.88434171               77.59052117                0.00010000                7.61340742                6.28131421              -22.29291619               -1.40478102               85.83311161              -21.99703894
              61.10653112               -5.19355271               76.44914496                0.00010000                8.20722884                7.49352889              -25.79183462               -0.88873742               63.00098393              -27.86985110
              62.19211474               -8.49783161               75.05028668                0.00010000                9.01994753                8.62107998              -29.37471036               -0.40348463               33.90351785              -36.53251093
              63.28693007              -11.79798823               73.32315792                0.47318122                9.48153309                9.59453750              -33.05470582               -0.15040950               17.75443337              -53.06774817
              55.76839870               22.18292946               83.08052659                0.74913604                0.62655996               -0.29853984                0.37437474                0.65862580                5.55963495               10.47103580
              56.77466430               19.00150602               81.07541900                0.46945391                7.35579830                1.25194181               -4.36174486               -5.95917317               92.87267433               -9.74222446
              57.91551466               15.68284653               80.81715931                0.44198404               12.19685675               -1.31320160               -7.21349284               -4.58046215              173.69746001               -4.11422527
              59.01860143               12.38652211               80.45193313                0.43861197                9.38502305                0.74714300              -10.05471844               -1.58273869              163.31944887               -4.58002887
              60.10321513                9.08465151               80.00386330                0.43725831                8.04390951                2.22850588              -12.96830912               -1.00272975              153.37639093               -5.59544116
              61.17947962                5.78201061               79.45390529                0.43838231                7.45913764                3.69715287              -16.01904919               -0.59205656              141.32475529               -7.00864514
              62.25239788                2.47968077               78.77543377                0.44121356                7.32058552                5.06977079              -19.22383593               -0.31675246              126.43530831               -8.78201149
              63.32589133               -0.82059426               77.93427861                0.44636895                7.54181313                6.37474555              -22.56412495               -0.06470690              107.80066143              -11.04607687
              64.40323414               -4.11745572               76.88537203                0.45424467                8.07917680                7.60969925              -26.00660347                0.18689281               83.89380198              -14.14090625
              65.48747487               -7.41026245               75.56419081                0.46476164                8.91599581                8.75691576              -29.53458008                0.42612498               50.21495976              -18.79259241
              66.58155406              -10.69965349               73.83652155                0.73691828                9.40791876                9.83347460              -33.23159537                0.52329591               30.23274268              -31.35089920
              24.02278506               12.70731325               86.89976742                0.80831508               -1.49660497               -1.66086077                5.65425729               -0.44638821               -6.80310934                7.26891829
              25.00781901                9.26013586               86.03987369                0.53743937               -1.61306368               -0.95569974                3.79389322               -0.66853188               -9.06579639               -5.83892694
              25.99052378                5.80138950               85.13373979                0.47199100               -1.47204600               -0.53797749                2.01220313               -0.40651368               -9.01824236                0.07189676
              26.97837809                2.32347265               84.27378107                0.45485711               -0.85525970               -0.00412475                0.26576313               -0.38828433               -6.41315807               -0.33366414
              27.97341859               -1.16978513               83.41846482                0.45177228               -0.09314839                0.52983096               -1.52477640               -0.35901513               -5.94690139               -0.19662334
              28.97651512               -4.67280059               82.56684126                0.45708684                0.72476452                1.08014382               -3.35577805               -0.33881261               -5.77064737               -0.12497025
              29.98791388               -8.17935058               81.71474413                0.47134342                1.53650632                1.63991504               -5.22997048               -0.33120595               -6.07365802               -0.04044776
              31.00724525              -11.68389913               80.85765410                0.49738427                2.28117279                2.18871007               -7.12041568               -0.33014559               -6.87913961                0.06185060
              32.03353734              -15.18301979               79.99092768                0.53782388                2.90678636                2.73024702               -9.00832131               -0.32708750               -8.47985879                0.07493539
              33.06538097              -18.67596347               79.10403191                0.59700923                3.40285511                3.26110360              -10.89417332               -0.31662576               -8.97234616                0.88377874
              34.10159444              -22.16527361               78.23028147                0.82336673                3.62134649                3.82764274              -12.76613516               -0.33049734               -8.49020747               -5.44987170
              27.46549857               13.69070465               86.55696407                0.56814071               -1.14030039               -1.77213708                4.93034723               -0.33974695                5.79714277               11.72364137
              28.45409557               10.25057886               85.69447098                0.09154981               -0.53541611               -0.61944830                3.08669157               -0.83310165               13.02537088              -10.80452930
              29.45479025                6.79600972               84.97577113                0.04456997                0.29934960               -1.01437993                1.60605149               -2.04906223               19.33096162              -14.39078788
              30.46008256                3.32343141               84.23923663                0.03666783                0.65874044               -0.71886509               -0.04129076               -2.97962797               18.83787202              -21.26373671
              31.46796506               -0.16448682               83.51163816                0.03910894                0.89135776               -0.22337736               -1.74994050               -3.51848958               19.32591279              -28.93216652
              32.47790972               -3.66199915               82.78611493                0.04451482                1.10930180                0.35834623               -3.51477298               -3.60879788               19.33363936              -37.41849405
              33.49015110               -7.16295142               82.05976779                0.05403182                1.39343403                0.93791292               -5.34383265               -3.26960717               19.00728528              -46.86578742
              34.50577840              -10.66201203               81.32866188                0.06856904                1.80737666                1.44716410               -7.18081979               -2.55793119               18.21719280              -57.46755532
              35.52629863              -14.15571732               80.58749005                0.09089697                2.37816160                1.86628877               -9.01398936               -1.57133257               17.10179301              -69.47663712
              36.55334163              -17.64335243               79.83492737                0.12012951                3.06504908                2.24692094              -10.81354768               -0.42536855               13.63477454              -83.23918280
              37.58759961              -21.12699718               79.02519576                0.55769522                3.42579816                2.60281495              -12.58141216                0.79710568               10.72559282             -102.10084312
              30.89624169               14.67187051               86.30212325                0.51845490               -1.03897911               -1.73803384                4.48760092               -0.09199430               -0.35105268               14.91841076
              31.88585190               11.24774689               85.24912685                0.02945637               -0.97758481               -0.23540187                2.24667495               -2.06042878               16.28340907              -13.82070285
              32.87669000                7.78110190               84.52822098                0.00010000               -0.32849124               -0.84073473                0.44683049               -4.87089803               31.82417180              -27.92956435
              33.87928208                4.30909535               83.78611856                0.00010000                0.58946788               -0.81502114               -1.43996628               -5.88816139               30.02008145              -41.67503702
              34.88847935                0.82574732               83.03050999                0.00010000                1.17608445               -0.40182273               -3.42756886               -6.71836405               28.50216854              -56.88998587
              35.90280376               -2.66563366               82.26033973                0.00010000                1.70276347                0.16239698               -5.50987239               -6.87015207               26.60899236              -73.62707482
              36.92253462               -6.16059232               81.46944440                0.00010000                2.30243748                0.72863276               -7.67074680               -6.30719357               24.05535223              -92.23332610
              37.94885251               -9.65495585               80.65051657                0.00010000                3.04582304                1.19680624               -9.88472133               -5.11120456               20.72661241             -113.07767460
              38.98345108              -13.14569401               79.79470908                0.00010000                3.96504778                1.53800214              -12.10889703               -3.42079620               16.16371855             -136.54313120
              40.02815347              -16.63102505               78.88540066                0.00010000                5.06874878                1.82498319              -14.30772092               -1.54672371                9.15645718             -163.33844004
              41.08482606              -20.11321731               77.88964617                0.46474208                5.66725889                2.39596671              -16.47882692                0.11288829                4.82605548             -191.82777632
              34.31190593               15.65594397               86.02163502                0.50932792               -0.82503203               -1.47601641                3.97049619               -0.09597562                0.10021614               14.08192186
              35.30365561               12.24587082               84.84326083                0.01822879               -0.79410484               -0.12810492                1.48877601               -2.72280260               21.79823154              -11.78149430
              36.29602383                8.77919503               84.09842741                0.00010000               -0.29908476                0.14314545               -0.63365807               -5.50638835               42.81685919              -26.19560537
              37.29767391                5.30713098               83.34135398                0.00010000                0.61514802                0.30717151               -2.79808088               -6.02503942               40.97558865              -40.14506248
              38.30832679                1.82747672               82.56205513                0.00010000                1.45861995                0.68503489               -5.06303177               -6.48625144               38.20629719              -54.75417672
              39.32684631               -1.65875121               81.75295690                0.00010000                2.25013111                1.19015488               -7.44458198               -6.53359997               34.58691807              -70.68956018
              40.35332941               -5.14837877               80.90491173                0.00010000                3.09048438                1.72708392               -9.93152820               -6.05311182               30.01148111              -88.35245037
              41.38865600               -8.63807591               80.00747425                0.00010000                4.03112435                2.23064482              -12.48965120               -5.09187056               24.36190498             -108.09654893
              42.43395190              -12.12495727               79.04855179                0.00010000                5.06372278                2.68959858              -15.06861565               -3.76870711               17.43737725             -130.19868365
              43.48993045              -15.60685277               78.01339674                0.00010000                6.01450019                3.18797679              -17.61119373               -2.10104062                9.17701131             -154.48848540
              44.55424190              -19.07907785               76.88885336                0.46497810                6.43114498                4.12827009              -20.05541704               -0.82725718                4.76536024             -179.81860215
              37.71446847               16.64235019               85.74842160                0.50726979               -0.63236815               -1.25330898                3.48719427               -0.08498955                0.08427244               14.67239425
              38.70814479               13.24518479               84.43898698                0.01569107               -0.45832018                0.01104469                0.70139501               -3.09470710               27.89878120              -11.60209258
              39.70530207                9.78396481               83.68559033                0.00010000                0.11774013                0.71113027               -1.68716534               -6.09266577               54.88584015              -24.56737272
              40.71049959                6.31523878               82.91812805                0.00010000                0.96672232                1.16820842               -4.11154339               -6.34071064               52.57696175              -37.57121640
              41.72463652                2.83944802               82.12221560                0.00010000                1.87438316                1.61411808               -6.63552099               -6.50133945               48.81037965              -51.12849124
              42.74798726               -0.64183056               81.28402396                0.00010000                2.80802850                2.13462021               -9.28911113               -6.37603489               43.67380264              -65.83253297
              43.78079708               -4.12605064               80.39009421                0.00010000                3.78031748                2.71049659              -12.06642614               -5.88492852               37.22432719              -82.15693895
              44.82359361               -7.61034295               79.42684665                0.00010000                4.80283572                3.30973948              -14.93032180               -5.04289730               29.49123236             -100.47169098
              45.87685380              -11.09190204               78.38068791                0.00010000                5.83298131                3.92732436              -17.81948495               -3.86945700               20.54159848             -121.00489523
              46.94025323              -14.56726551               77.23903301                0.00010000                6.79386403                4.63038677              -20.65810666               -2.26071159               10.57226072             -143.73528088
              48.01273108              -18.03065191               75.99236487                0.46583828                7.24778476                5.44646644              -23.37003279               -0.89046428                5.42831669             -168.52365970
              41.10453692               17.63087779               85.47832713                0.50629795               -0.43900759               -1.05997410                3.02209555               -0.09354971                0.09960330               14.95138338
              42.10014684               14.24609172               84.03719813                0.01407648               -0.02101953                0.18934331               -0.10199311               -3.29429087               34.74793305              -11.47057193
              43.10411653               10.79341763               83.28893822                0.00010000                0.76148237                1.13642451               -2.72763466               -6.43090744               68.40805740              -22.82097153
              44.11537649                7.33049515               82.52487845                0.00010000                1.56264099                1.78190111               -5.37682606               -6.61413811               65.58951275              -34.17281793
              45.13536935                3.85975908               81.72555956                0.00010000                2.47238898                2.33492922               -8.12407819               -6.56142117               60.82646584              -46.10117324
              46.16482427                0.38394120               80.87237135                0.00010000                3.43869430                2.92711147              -11.01001738               -6.24057618               54.25183448              -59.12803179
              47.20414323               -3.09416884               79.94753741                0.00010000                4.44125918                3.59464713              -14.03419325               -5.65209534               45.99666710              -73.72543775
              48.25364945               -6.57188112               78.93403296                0.00010000                5.46710417                4.32335222              -17.15809373               -4.80965349               36.19559893              -90.30920824
              49.31348532              -10.04641079               77.81595500                0.00010000                6.49083199                5.09473081              -20.31355679               -3.68333834               25.03713378             -109.23212490
              50.38346609              -13.51424503               76.57966939                0.00010000                7.48600491                5.88152160              -23.41615978               -2.12721847               12.82289946             -130.76632056
              51.46320542              -16.97014852               75.21553659                0.46606175                7.97393224                6.59736883              -26.38375716               -0.84511713                6.57995159             -155.09808310
              44.48216962               18.62115070               85.20956485                0.50366508               -0.24504935               -0.90059250                2.56102285               -0.10513293                0.13442412               15.05295805
              45.47971913               15.24897166               83.63611001                0.01363239                0.50554306                0.40332489               -0.91452822               -3.41494627               42.58905814              -11.52315499
              46.49228049               11.80669330               82.91182119                0.00010000                1.60781251                1.47460503               -3.74921328               -6.61730563               83.87345975              -20.69530488
              47.51187538                8.35087680               82.16993224                0.00010000                2.38407806                2.18771430               -6.57996387               -6.76268159               80.50988422              -29.87983412
              48.53996205                4.88614660               81.38578330                0.00010000                3.26141365                2.81317425               -9.50346153               -6.50509560               74.72226305              -39.67860444
              49.57710365                1.41671167               80.53622081                0.00010000                4.18077226                3.50853318              -12.57302185               -5.95643332               66.70774572              -50.59032499
              50.62357749               -2.05415770               79.59933861                0.00010000                5.12694150                4.30759937              -15.79444870               -5.22431249               56.63196755              -63.05200720
              51.67964248               -5.52387591               78.55409694                0.00010000                6.09867265                5.18255933              -19.12964229               -4.33605003               44.63979725              -77.53115109
              52.74555095               -8.99000742               77.38058836                0.00010000                7.09020560                6.08903165              -22.50734489               -3.24796662               30.93419435              -94.56764614
              53.82144660              -12.44963508               76.06147375                0.00010000                8.10423851                6.95154406              -25.83937376               -1.83955338               15.86935224             -114.73564305
              54.90763572              -15.89870453               74.58428291                0.46681966                8.61891191                7.63304159              -29.04276966               -0.72082561                8.15573758             -138.52699686
              47.84679234               19.61286594               84.94055556                0.50145726               -0.04870229               -0.75044146                2.09654145               -0.10292625                0.15436048               14.93994527
              48.84630532               16.25415822               83.23392851                0.01428216                1.15364633                0.63608346               -1.74461198               -3.53115738               51.69698275              -11.72157200
              49.86986527               12.82290973               82.55836910                0.00010000                2.71821162                1.68571340               -4.73876460               -6.71314922              101.81105771              -18.06298526
              50.90066955                9.37424944               81.86261172                0.00010000                3.47836511                2.32230725               -7.69653192               -6.72832393               97.78907103              -24.51796430
              51.93943257                5.91602257               81.11674525                0.00010000                4.26651733                2.99976118              -10.73985582               -6.14086709               90.89025468              -31.79466331
              52.98599990                2.45411186               80.29359397                0.00010000                5.04059929                3.85120841              -13.93822381               -5.34299892               81.41532593              -40.22139084
              54.04024456               -1.00801685               79.36775172                0.00010000                5.83891392                4.81467041              -17.30340671               -4.49028519               69.51737672              -50.11530917
              55.10277818               -4.46822993               78.31371012                0.00010000                6.70202971                5.84248087              -20.79844291               -3.59378110               55.21102147              -61.95387099
              56.17428515               -7.92463015               77.10546713                0.00010000                7.62969779                6.88058404              -24.35120844               -2.59849948               38.56081494              -76.47870624
              57.25537213              -11.37521415               75.71852115                0.00010000                8.63213284                7.83945474              -27.87300994               -1.42522257               19.90161598              -94.73443595
              58.34692781              -14.81748769               74.13406449                0.46715332                9.15556754                8.55081568              -31.28259262               -0.54095626               10.26069357             -117.72371490
              51.19752655               20.60614187               84.66896974                0.49982594                0.15256404               -0.59729481                1.61955519               -0.11510917                0.24685487               14.77080880
              52.19905219               17.26169333               82.82949472                0.01660935                2.01998646                0.88010641               -2.59399105               -3.75332600               62.43265966              -12.24109627
              53.23792628               13.84040757               82.23411281                0.00010000                4.25719390                1.55804559               -5.67695780               -6.76209418              122.80116781              -14.43789996
              54.28419607               10.39732295               81.61410157                0.00010000                4.96780019                1.98895614               -8.68855252               -6.15221122              117.81538787              -17.78410467
              55.33728228                6.94614183               80.93278644                0.00010000                5.50435132                2.90682899              -11.78880109               -5.14531128              109.58835809              -22.40720338
              56.39428309                3.49373583               80.16208252                0.00010000                5.94156482                3.98533658              -15.05827082               -4.18971529               98.70688365              -28.10433339
              57.45611358                0.04213571               79.27484072                0.00010000                6.50485348                5.13427844              -18.51191555               -3.36638032               85.14777946              -35.00600169
              58.52438016               -3.40702629               78.24126109                0.00010000                7.22257971                6.30556234              -22.11219172               -2.58215533               68.60131842              -43.51829240
              59.60056517               -6.85239574               77.02724226                0.00010000                8.07097577                7.45934633              -25.78710062               -1.77341561               48.67813612              -54.44466578
              60.68579968              -10.29284598               75.59504718                0.00010000                9.03992468                8.52721010              -29.45157557               -0.91454829               25.44633690              -69.43193622
              61.78136367              -13.72768822               73.91258925                0.46807510                9.55639877                9.34496946              -33.02908950               -0.31803066               13.22150705              -91.07789925
              54.53338725               21.60092004               84.39650094                0.49415650                0.35858595               -0.43246738                1.12640312               -0.11905902               -0.31536555               12.74789819
              55.53697311               18.27176034               82.41744525                0.01709242                3.28032592                1.12376986               -3.47270912               -4.32499512               75.35536405              -11.30233348
              56.59899377               14.85407065               81.95233620                0.00010000                6.74589806                0.23104301               -6.51659278               -5.43094382              147.78810488               -8.43029478
              57.67189107               11.41402856               81.43894866                0.00010000                7.05598472                1.38413055               -9.50035809               -4.20656341              140.50926982               -9.47605892
              58.74011346                7.97415915               80.84787769                0.00010000                6.71603188                2.68721206              -12.59510357               -3.05395527              130.80552568              -11.65116647
              59.80621171                4.53381859               80.15755490                0.00010000                6.67828084                4.02306729              -15.88098273               -2.36599359              118.83438153              -14.51092570
              60.87367908                1.09466872               79.34066597                0.00010000                6.97274093                5.33598278              -19.36847461               -1.83030112              104.07259449              -18.06522606
              61.94566653               -2.34211868               78.36430284                0.00010000                7.54787266                6.61456877              -23.01590289               -1.34930234               85.84040537              -22.55078809
              63.02463653               -5.77544323               77.18699803                0.00010000                8.33535597                7.84256984              -26.74968272               -0.86453026               62.93104712              -28.52247271
              64.11237365               -9.20466995               75.75171425                0.00010000                9.28075672                8.98369405              -30.49302820               -0.39837704               33.84462195              -37.31925414
              65.21025167              -12.63058830               73.98780795                0.46845946                9.78780210                9.96819137              -34.19306570               -0.11179295               17.77013341              -54.06691347
              57.85346477               22.59749253               84.08482426                0.74617922                0.59369156               -0.34275183                0.50725220                0.67537217                5.71910843               10.74818594
              58.85940169               19.28416873               82.03222677                0.46662993                6.67872074                1.24083832               -4.28592383               -5.38034727               93.95905504               -9.97907506
              59.98703919               15.84502843               81.74513755                0.44152944               11.02873054               -0.90422192               -7.16098170               -4.15361660              175.39575494               -4.24666352
              61.07997630               12.42500556               81.35116895                0.43849803                8.46869802                1.09769996              -10.05895543               -1.44859529              164.69379238               -4.72504726
              62.15641315                8.99988607               80.87334236                0.43736054                7.32386776                2.57269186              -13.10174173               -0.91045065              154.37522127               -5.75987079
              63.22645365                5.57419718               80.29196837                0.43814013                6.95158432                4.03785884              -16.35744020               -0.52734050              141.95379189               -7.19538628
              64.29544483                2.14885537               79.58031407                0.44074568                7.05262046                5.41866496              -19.82734918               -0.27002953              126.76469837               -8.99430131
              65.36750606               -1.27473492               78.70453262                0.44507289                7.51904993                6.73837672              -23.46067196               -0.03603212              107.94375615              -11.29074396
              66.44582583               -4.69554434               77.62008931                0.45194506                8.27355745                7.98988812              -27.17700020                0.19707054               83.97149668              -14.43012265
              67.53297721               -8.11317210               76.26288720                0.46113327                9.25693399                9.14978440              -30.89832755                0.42135413               50.28823079              -19.14606966
              68.63096451              -11.52832439               74.49824427                0.73445148                9.79873002               10.22639067              -34.62158083                0.55605551               30.36488851              -31.84820774
              24.82352485               13.12686732               87.95539780                0.80111570               -1.44241635               -1.59986152                5.45545547               -0.43290004               -6.88557630                7.34958641
              25.80910069                9.55023206               87.07717703                0.52975531               -1.55361514               -0.92130821                3.65531829               -0.65384536               -9.09072485               -5.92584395
              26.79245255                5.96230787               86.15365949                0.46963655               -1.40322695               -0.52092235                1.96373152               -0.38678175               -8.94786083                0.10699646
              27.78103615                2.35624059               85.27662065                0.45394727               -0.79078270               -0.00467113                0.30380927               -0.37495402               -6.32649068               -0.32456565
              28.77663689               -1.26386092               84.40378837                0.45118280               -0.05470288                0.51199677               -1.40023411               -0.35885840               -5.88261087               -0.19828888
              29.77994209               -4.89260178               83.53434400                0.45601850                0.71953998                1.03876244               -3.13539934               -0.35020043               -5.73851680               -0.13172630
              30.79102769               -8.52430828               82.66393513                0.46941048                1.48072283                1.57277103               -4.90828425               -0.33825458               -6.07702980               -0.05344919
              31.80955655              -12.15414229               81.78834933                0.49195532                2.18166379                2.10915027               -6.70820423               -0.33073923               -6.91063584                0.03679329
              32.83466097              -15.77904101               80.90301926                0.52800800                2.77112671                2.63547468               -8.52004560               -0.32020933               -8.52838031                0.04413214
              33.86497908              -19.39868254               79.99774302                0.57926311                3.23154712                3.14552449              -10.30322090               -0.30588567               -9.02689257                0.84515333
              34.89929191              -23.01580851               79.10587568                0.81131013                3.43128304                3.68555254              -12.08661680               -0.25137119               -8.56338488               -5.47533591
              28.39583111               14.11086870               87.60544754                0.55795517               -1.09891550               -1.69493227                4.75254951               -0.32603644                5.92028711               11.95458659
              29.38484196               10.54101898               86.72480038                0.08884271               -0.51253225               -0.60194683                2.97086583               -0.81110260               13.32952875              -10.94956016
              30.38558047                6.95709865               85.99148148                0.04514460                0.27645228               -0.97448635                1.53063716               -1.98825309               19.70748816              -14.70456993
              31.39037100                3.35619387               85.23867036                0.03740495                0.59445124               -0.66111547               -0.07552510               -2.88002887               19.08941275              -21.76459869
              32.39746949               -0.25874095               84.49415788                0.03965314                0.81463829               -0.16269309               -1.75049749               -3.39514944               19.50417688              -29.61615661
              33.40666377               -3.88221415               83.75121691                0.04447133                1.04729564                0.40443923               -3.47742803               -3.48902454               19.43168659              -38.29982192
              34.41841540               -7.50858057               83.00676957                0.05299472                1.34758756                0.95955882               -5.25766133               -3.17309797               19.04573003              -47.95394764
              35.43361552              -11.13305079               82.25733090                0.06604595                1.76567976                1.44814256               -7.07496080               -2.49446875               18.24932851              -58.78120153
              36.45372900              -14.75268626               81.49792525                0.08584111                2.33442266                1.84174448               -8.87727939               -1.54606111               17.15404843              -71.03120963
              37.48030397              -18.36722729               80.72753297                0.11089353                3.00875839                2.19363898              -10.64337115               -0.43084183               13.72131493              -85.04419234
              38.51390417              -21.97895298               79.90060280                0.54510773                3.36001946                2.51860649              -12.34057608                0.84068482               10.83036343             -104.15546056
              31.95670358               15.09296867               87.34625864                0.51199177               -1.00548887               -1.64094821                4.33031724               -0.08840784               -0.39684205               15.28796937
              32.94664869               11.53819312               86.27123063                0.02828181               -0.95954953               -0.24752197                2.16464308               -1.97001400               16.46372315              -14.00647916
              33.93751259                7.94281815               85.53269258                0.00010000               -0.36867605               -0.81093637                0.45514233               -4.66051304               32.19359905              -28.53477766
              34.93927517                4.34301828               84.77196063                0.00010000                0.48146725               -0.73740174               -1.37527718               -5.62212876               30.25531040              -42.63386008
              35.94714193                0.73288522               83.99657842                0.00010000                1.03630262               -0.29462254               -3.33912183               -6.42161899               28.58372956              -58.20473692
              36.96000122               -2.88451299               83.20555493                0.00010000                1.56302181                0.27862456               -5.42862891               -6.58467810               26.54883857              -75.32670982
              37.97840237               -6.50511710               82.39292732                0.00010000                2.18858221                0.83815695               -7.62333579               -6.07297283               23.88439969              -94.34486124
              39.00377287              -10.12517944               81.55168289                0.00010000                2.97569414                1.28800996               -9.88443975               -4.94772469               20.49455003             -115.63772382
              40.03791625              -13.74220612               80.67343483                0.00010000                3.94280485                1.60356285              -12.16182104               -3.33422323               15.93815276             -139.58411428
              41.08262896              -17.35480976               79.74203322                0.00010000                5.08203650                1.86016958              -14.39351995               -1.52321044                8.99819567             -166.88034802
              42.13955698              -20.96543638               78.72466370                0.46074611                5.69280196                2.38976110              -16.54611626                0.15759192                4.77213136             -195.91251692
              35.50361406               16.07804974               87.06078343                0.50347177               -0.80218552               -1.38017468                3.84846856               -0.10170252                0.08428498               14.47244287
              36.49559221               12.53606854               85.85793936                0.01769083               -0.80345042               -0.15897239                1.43849538               -2.56886724               21.97167469              -11.96665590
              37.48754505                8.94087992               85.09232888                0.00010000               -0.38654267                0.12391424               -0.56819258               -5.18419134               43.16019048              -26.76219156
              38.48786135                5.34144584               84.31387718                0.00010000                0.45116650                0.32360544               -2.66548061               -5.65975292               41.19792384              -41.06190748
              39.49656838                1.73536660               83.51197140                0.00010000                1.25555905                0.73989066               -4.91850036               -6.10684996               38.24137906              -56.01510113
              40.51297253               -1.87664166               82.67888817                0.00010000                2.05270065                1.27500657               -7.34098192               -6.17324859               34.42734545              -72.31103603
              41.53762240               -5.49181743               81.80562875                0.00010000                2.93887550                1.82969738               -9.91251811               -5.73963324               29.69433319              -90.36622696
              42.57175004               -9.10729059               80.88215955                0.00010000                3.95262296                2.33680676              -12.58318860               -4.84486249               23.96168944             -110.53770020
              43.61667485              -12.72061501               79.89700199                0.00010000                5.06599890                2.78998180              -15.27701472               -3.59896848               17.05555859             -133.09942677
              44.67307002              -16.33002390               78.83612015                0.00010000                6.08171935                3.27253777              -17.90320451               -2.01533446                8.93555600             -157.87679625
              45.73830924              -19.93115776               77.68717892                0.46118392                6.52392206                4.17450632              -20.35386959               -0.75130805                4.67425183             -183.70183767
              39.03863194               17.06536518               86.78296789                0.50236777               -0.61907721               -1.18100423                3.41023963               -0.10304796                0.06978501               15.11582563
              40.03244116               13.53501367               85.44589935                0.01552526               -0.50902382               -0.02071864                0.67187532               -2.88685588               28.09991368              -11.83119246
              41.02845146                9.94529643               84.66911328                0.00010000               -0.04238655                0.66894340               -1.58253090               -5.66397191               55.27108701              -25.13877911
              42.03159343                6.34949038               83.87767445                0.00010000                0.73204886                1.15318476               -3.93645271               -5.86939640               52.82525392              -38.46264209
              43.04309244                2.74768304               83.05650280                0.00010000                1.60634246                1.64079522               -6.46081768               -6.02426125               48.84519609              -52.33172584
              44.06372028               -0.85901286               82.19147660                0.00010000                2.55830979                2.20158985               -9.18401976               -5.92847810               43.47797313              -67.35988347
              45.09425863               -4.46852316               81.26924772                0.00010000                3.59764548                2.80910173              -12.08825530               -5.49405184               36.83880229              -84.03592076
              46.13567319               -8.07844331               80.27670397                0.00010000                4.72057816                3.42993312              -15.11433925               -4.72704234               29.00671656             -102.73792623
              47.18867020              -11.68640649               79.20100278                0.00010000                5.85959176                4.05960453              -18.16882768               -3.64167592               20.08588662             -123.69644514
              48.25286503              -15.28935900               78.03049895                0.00010000                6.90641697                4.76544020              -21.13305330               -2.13706028               10.28774761             -146.88841641
              49.32679854              -18.88194625               76.75664532                0.46147008                7.39335083                5.56936657              -23.88031750               -0.79883172                5.31734833             -172.17665489
              42.56225612               18.05442966               86.50834800                0.50048545               -0.43322776               -1.01312810                2.98064037               -0.09336415                0.09480716               15.42466638
              43.55792384               14.53565416               85.03616227                0.01413891               -0.12336060                0.16156599               -0.10964920               -3.03930278               35.00979575              -11.72824711
              44.55978890               10.95425879               84.26214223                0.00010000                0.50814912                1.09003484               -2.60097413               -5.91972595               68.88866060              -23.40408952
              45.56808682                7.36450953               83.47183383                0.00010000                1.23987506                1.76405186               -5.18190187               -6.05086783               65.91761898              -35.04045967
              46.58458640                3.76818251               82.64495127                0.00010000                2.12611713                2.36244089               -7.94401389               -6.00265480               60.91485144              -47.23511472
              47.61060916                0.16739013               81.76248792                0.00010000                3.12926985                3.00118855              -10.92562635               -5.72794210               54.07815565              -60.53552585
              48.64717180               -3.43563540               80.80673100                0.00010000                4.22416809                3.70871064              -14.11252866               -5.21210361               45.60489342              -75.43219186
              49.69509252               -7.03869193               79.76115395                0.00010000                5.37926167                4.46936865              -17.44027271               -4.45736825               35.68800195              -92.35217633
              50.75475703              -10.63942292               78.61069911                0.00010000                6.53880284                5.26649967              -20.80279809               -3.42931331               24.55641180             -111.65404953
              51.82586858              -14.23471510               77.34278155                0.00010000                7.63750327                6.07564082              -24.06731733               -1.98842652               12.52433697             -133.61385063
              52.90750710              -17.81977043               75.94881233                0.46198775                8.16385191                6.81299613              -27.09650957               -0.74780421                6.46424989             -158.42344763
              46.07431564               19.04510262               86.23520286                0.49959496               -0.24896630               -0.86241777                2.57140985               -0.09117082                0.12812563               15.52805140
              47.07182597               15.53824499               84.62697331                0.01382843                0.34429668                0.37041176               -0.91495093               -3.11906957               42.93027189              -11.79326508
              48.08120157               11.96709713               83.87484415                0.00010000                1.24131940                1.44456935               -3.61214666               -6.04275721               84.49874016              -21.28105599
              49.09665236                8.38477142               83.10482885                0.00010000                1.94785855                2.19906952               -6.38595102               -6.13510271               80.96949886              -30.70616842
              50.12015874                4.79493185               82.29127105                0.00010000                2.81634901                2.87719172               -9.34137380               -5.90103336               74.91457569              -40.71551896
              51.15297934                1.20101091               81.41048225                0.00010000                3.79699406                3.62121584              -12.53193946               -5.42143439               66.60416837              -51.84104827
              52.19609862               -2.39434894               80.44056198                0.00010000                4.86670022                4.46161774              -15.94851568               -4.77977820               56.27921189              -64.54128623
              53.25031335               -5.98905593               79.36097868                0.00010000                6.00042392                5.37233623              -19.52392490               -3.99023306               44.14893996              -79.29685696
              54.31610710               -9.58107649               78.15272148                0.00010000                7.15653312                6.31206123              -23.14445342               -3.00471722               30.45888817              -96.65545870
              55.39344401              -13.16784619               76.79956085                0.00010000                8.29230044                7.21122622              -26.66850254               -1.70868220               15.57334272             -117.19666426
              56.48195311              -16.74568633               75.29010391                0.46271248                8.85091009                7.94252976              -29.95367131               -0.62737671                8.04389536             -141.41937361
              49.57414795               20.03718130               85.96167749                0.49682241               -0.06000118               -0.73455952                2.13682888               -0.10128296                0.16092700               15.40747775
              50.57354794               16.54306240               84.21662723                0.01449774                0.91296908                0.60764106               -1.72078488               -3.20034348               52.14374048              -12.00958809
              51.59240733               12.98315018               83.51147314                0.00010000                2.20010517                1.69670198               -4.60388710               -6.08620340              102.62833224              -18.63025393
              52.61755004                9.40849092               82.78624017                0.00010000                2.89594601                2.40405518               -7.52049568               -6.07323775               98.42875429              -25.26417063
              53.65032625                5.82572634               82.00966987                0.00010000                3.69556156                3.14000222              -10.61614078               -5.54838136               91.22717441              -32.68623257
              54.69146127                2.23981445               81.15388474                0.00010000                4.56584138                4.03312274              -13.96163139               -4.84574570               81.41494299              -41.26178430
              55.74164308               -1.34640304               80.19342658                0.00010000                5.52770695                5.03234172              -17.55347993               -4.09584806               69.23120113              -51.32936070
              56.80201541               -4.93124520               79.10329636                0.00010000                6.59049337                6.09384071              -21.32279349               -3.30079941               54.75910859              -63.37859756
              57.87345295               -8.51318169               77.85841863                0.00010000                7.71446815                7.16629897              -25.15027718               -2.40284231               38.10645732              -78.15925141
              58.95630477              -12.09049057               76.43543209                0.00010000                8.85934505                8.16651539              -28.88815815               -1.32466812               19.61578243              -96.72202133
              60.05063985              -15.66091983               74.81661208                0.46326043                9.43350728                8.94203232              -32.39068710               -0.46083085               10.15664871             -120.07484664
              53.06052778               21.03041143               85.68555712                0.49528382                0.13224471               -0.60814974                1.70685341               -0.09910562                0.25009034               15.22358067
              54.06185023               17.55039781               83.80376806                0.01676640                1.67605985                0.85727441               -2.55523605               -3.37208071               63.01885445              -12.55543293
              55.09404898               14.00103117               83.17778300                0.00010000                3.53806089                1.65988637               -5.55027835               -6.09332981              123.87341105              -14.94181376
              56.13261144               10.43285253               82.52765591                0.00010000                4.19093056                2.19856026               -8.54221356               -5.54370463              118.67847141              -18.38324752
              57.17786759                6.85773190               81.81495630                0.00010000                4.77911821                3.15304322              -11.71807053               -4.65072327              110.09310133              -23.08233744
              58.22819381                3.28167336               81.01077633                0.00010000                5.36868637                4.25601344              -15.16331911               -3.80405533               98.82342316              -28.86587306
              59.28524132               -0.29370211               80.08788327                0.00010000                6.14410993                5.43041168              -18.87714315               -3.07643257               84.93799168              -35.87686975
              60.35107601               -3.86717912               79.01700650                0.00010000                7.10271554                6.63081010              -22.78698884               -2.38088073               68.19673337              -44.53050313
              61.42729563               -7.43775051               77.76499419                0.00010000                8.18063902                7.81662407              -26.76828037               -1.65245271               48.25083673              -55.63741008
              62.51468879              -11.00451588               76.29524856                0.00010000                9.31496919                8.92169339              -30.66904956               -0.86013450               25.17282355              -70.85213366
              63.61359501              -14.56684568               74.57675355                0.46356488                9.89062218                9.79691567              -34.34052269               -0.25770638               13.12670727              -92.78065505
              56.53219306               22.02501831               85.40830536                0.48962041                0.32935202               -0.45824426                1.25271339               -0.10863845               -0.31724817               13.12599168
              57.53548658               18.56020789               83.38305133                0.01704815                2.79464801                1.09818361               -3.41370884               -3.84942623               76.13926977              -11.60412571
              58.58808602               15.01634790               82.88754759                0.00010000                5.72443171                0.56396905               -6.39945072               -4.86535768              149.19468184               -8.76789525
              59.64997522               11.45246213               82.34422193                0.00010000                6.02024619                1.73640286               -9.38500609               -3.79498333              141.61014381               -9.82493214
              60.70849095                7.88878720               81.72169320                0.00010000                5.84194770                3.03964319              -12.58241290               -2.77374329              131.47160924              -12.02512251
              61.76681417                4.32493472               80.99757399                0.00010000                6.02379806                4.38012883              -16.07809284               -2.15960383              119.05661929              -14.92011608
              62.82896691                0.76220519               80.14451790                0.00010000                6.58160134                5.71003213              -19.86499537               -1.68387203              103.93200299              -18.52469210
              63.89844620               -2.79862900               79.13020312                0.00010000                7.43868724                7.01552139              -23.86293873               -1.25695949               85.48410350              -23.08028806
              64.97774065               -6.35684921               77.91415130                0.00010000                8.48755274                8.27548945              -27.94043285               -0.82069164               62.53939881              -29.14676929
              66.06819725               -9.91205671               76.44042612                0.00010000                9.62023345                9.44930682              -31.94381809               -0.38682862               33.59022722              -38.06925782
              67.17014532              -13.46498152               74.63929661                0.46413655               10.19480689               10.46777035              -35.73036240               -0.06534785               17.68891611              -54.99615285
              59.98797585               23.02124654               85.09067164                0.74383883                0.55562557               -0.37717622                0.67356916                0.68977268                5.87920566               11.06359211
              60.99353210               19.57236149               82.98970052                0.46401414                5.82558668                1.21535997               -4.21100437               -4.64224790               95.09803996              -10.25822777
              62.10448758               16.01231055               82.67393967                0.44083175                9.53701883               -0.40373566               -7.03462530               -3.59888957              177.12175400               -4.39267545
              63.18427248               12.46758058               82.25075402                0.43825187                7.27162759                1.51184529               -9.95859222               -1.25956327              165.97777195               -4.88519268
              64.24992013                8.91852476               81.74182847                0.43746765                6.36556326                2.97375575              -13.13907131               -0.77231370              155.15325963               -5.93175148
              65.31158374                5.36927594               81.12675649                0.43811260                6.26037316                4.43412202              -16.64881344               -0.42435420              142.24302472               -7.38280157
              66.37512760                1.82049853               80.37888678                0.44008885                6.67037376                5.82933414              -20.46767144               -0.19116288              126.67113593               -9.20068318
              67.44499122               -1.72686869               79.46506517                0.44386627                7.45909515                7.17603106              -24.50264475                0.01753923              107.63652462              -11.52341866
              68.52430950               -5.27224072               78.34183202                0.44987458                8.50466526                8.46084869              -28.61143963                0.22383181               83.64618909              -14.70076314
              69.61508452               -8.81552974               76.94622425                0.45780651                9.69140900                9.65269628              -32.63446486                0.42624952               50.10446518              -19.47116319
              70.71813768              -12.35749027               75.14408994                0.73219576               10.30531536               10.74912447              -36.45276921                0.60318248               30.35498737              -32.28020191
              25.64151509               13.55420550               89.00887653                0.79399495               -1.37722580               -1.52699558                5.22249024               -0.41496889               -6.95962338                7.41713736
              26.62774283                9.84637227               88.11298006                0.52180772               -1.46960709               -0.88382079                3.49431419               -0.62506487               -9.09127324               -6.00380586
              27.61212295                6.12788544               87.17301442                0.46700954               -1.30117208               -0.50002160                1.90534463               -0.37980847               -8.82875445                0.13683504
              28.60171939                2.39288192               86.27985726                0.45323537               -0.70399618               -0.00824664                0.34489531               -0.37126523               -6.18106101               -0.31898937
              29.59804302               -1.35448992               85.39046014                0.45064736               -0.00606810                0.48899114               -1.25448409               -0.35723988               -5.75651226               -0.19976776
              30.60159803               -5.10918093               84.50413328                0.45509557                0.71624640                0.99744199               -2.88295200               -0.34655429               -5.63739346               -0.13803479
              31.61236795               -8.86608845               83.61657845                0.46680612                1.41751855                1.50658795               -4.53852603               -0.33889855               -6.01251194               -0.06497668
              32.62994840              -12.62112641               82.72349001                0.48686110                2.06040485                2.01567817               -6.22522119               -0.32694397               -6.88518516                0.00877859
              33.65357605              -16.37194911               81.82052677                0.51786136                2.60191525                2.51920432               -7.92568050               -0.31554717               -8.51844756                0.01745151
              34.68198670              -20.11864031               80.89796749                0.56172180                3.02426798                3.01138297               -9.60933173               -0.30390427               -9.04640800                0.79336209
              35.71406141              -23.86423455               79.98854913                0.79960810                3.20747046                3.53401447              -11.32026461               -0.15884229               -8.62892998               -5.48061818
              29.34519864               14.53893555               88.65201506                0.54760673               -1.05464258               -1.59557465                4.54731897               -0.29785988                6.03489931               12.17589072
              30.33465221               10.83753406               87.75388830                0.08587191               -0.50643001               -0.59469680                2.83816713               -0.75503656               13.61344355              -11.08331534
              31.33507004                7.12288523               87.00638388                0.04556537                0.22711032               -0.91632533                1.44471913               -1.85127914               20.04072698              -14.96239309
              32.33919442                3.39279945               86.23772612                0.03797155                0.52160058               -0.58352907               -0.11517439               -2.68510902               19.27674212              -22.17114787
              33.34550205               -0.34960001               85.47662821                0.03998955                0.73686657               -0.08355139               -1.75652353               -3.17446676               19.61710731              -30.17876670
              34.35393175               -4.09920651               84.71656637                0.04424275                0.97248270                0.46709078               -3.45106456               -3.27944753               19.48913617              -39.04613527
              35.36495170               -7.85102257               83.95461456                0.05174328                1.28387716                0.98698655               -5.18342515               -3.00182080               19.04211977              -48.91929921
              36.37960929              -11.60096962               83.18716266                0.06314024                1.71129129                1.42937134               -6.94937407               -2.37234467               18.21441372              -59.98924337
              37.39917753              -15.34675707               82.40994446                0.08036970                2.27405438                1.77480367               -8.70622712               -1.46345454               17.13256117              -72.49990429
              38.42509038              -19.08852648               81.62205995                0.10150155                2.94448504                2.07105645              -10.44057847               -0.36177650               13.74713168              -86.78024636
              39.45806723              -22.82889441               80.77838423                0.53322605                3.29768494                2.30953884              -12.09004568                1.01052304               10.89272091             -106.11904195
              33.03836087               15.52229401               88.38872959                0.50556495               -0.96684514               -1.51259873                4.15512990               -0.07751135               -0.44963666               15.66228022
              34.02869242               11.83447833               87.29241971                0.02710297               -0.92644488               -0.28325356                2.07135434               -1.79218164               16.65177646              -14.18982772
              35.01983197                8.10955894               86.53732383                0.00010000               -0.40949877               -0.76773644                0.48361716               -4.25236020               32.57810015              -29.02023568
              36.02050244                4.38121134               85.75861302                0.00010000                0.33638389               -0.63102163               -1.27001009               -5.14622140               30.46509446              -43.39817558
              37.02655965                0.64383906               84.96372755                0.00010000                0.84645977               -0.15748365               -3.20281597               -5.92045598               28.59399295              -59.27650563
              38.03743164               -3.09983912               84.15176715                0.00010000                1.37674985                0.41564528               -5.30436132               -6.11918231               26.37030195              -76.76158223
              39.05409465               -6.84634872               83.31697768                0.00010000                2.04021853                0.94994317               -7.54832762               -5.68534370               23.56018946              -96.21026039
              40.07823601              -10.59253898               82.45282778                0.00010000                2.88845832                1.35593175               -9.88511473               -4.65985381               20.09228033             -117.98310834
              41.11186381              -14.33645304               81.55147266                0.00010000                3.93262509                1.61216547              -12.24638179               -3.13776242               15.54881167             -142.45795944
              42.15688851              -18.07721918               80.59753026                0.00010000                5.15719571                1.78360308              -14.53987985               -1.41082358                8.72829509             -170.29271416
              43.21500773              -21.81804378               79.55872384                0.45688190                5.81192168                2.18990943              -16.68849226                0.29464795                4.67299913             -199.89695837
              36.71927977               16.50868357               88.09860439                0.49814916               -0.77361198               -1.25959376                3.70856088               -0.09943886                0.07004271               14.87545300
              37.71154365               12.83186899               86.87203074                0.01719420               -0.79949715               -0.20701445                1.37353538               -2.29239070               22.18080408              -12.16030705
              38.70328983                9.10753050               86.08706356                0.00010000               -0.47768894                0.09084691               -0.45716289               -4.62866173               43.55938177              -27.23510180
              39.70198987                5.38017902               85.28804436                0.00010000                0.24267762                0.34089734               -2.45451879               -5.05837353               41.41728058              -41.81049103
              40.70814338                1.64725032               84.46368513                0.00010000                0.98730007                0.79972872               -4.68663589               -5.49469963               38.20260363              -57.06058413
              41.72173587               -2.09089361               83.60613726                0.00010000                1.79006553                1.36055652               -7.16384025               -5.59519299               34.12507199              -73.69657363
              42.74394469               -5.83202370               82.70666137                0.00010000                2.73903340                1.92387034               -9.85436376               -5.23531338               29.17954414              -92.14612986
              43.77651654               -9.57385099               81.75581048                0.00010000                3.85788954                2.42215504              -12.68756822               -4.43765972               23.33566628             -112.76902350
              44.82110248              -13.31451376               80.74301150                0.00010000                5.09740512                2.84624920              -15.55593692               -3.30453430               16.46250982             -135.82625961
              45.87846464              -17.05285442               79.65533265                0.00010000                6.22534501                3.27619671              -18.32281559               -1.85526614                8.55798921             -161.13536357
              46.94560938              -20.78509622               78.48177597                0.45744193                6.71447378                4.11126806              -20.81880905               -0.63530138                4.52078377             -187.50599317
              40.39000126               17.49710214               87.81662639                0.49759724               -0.60035870               -1.07737100                3.31536033               -0.10017189                0.05265576               15.57172838
              41.38399768               13.83033804               86.45242449                0.01542689               -0.55262786               -0.07080895                0.62919146               -2.53606951               28.35837421              -12.07134381
              42.37894871               10.11137588               85.65393971                0.00010000               -0.21912635                0.60372354               -1.41493890               -4.96902070               55.75166118              -25.64379866
              43.37961515                6.38802928               84.83939900                0.00010000                0.43947870                1.11762712               -3.65591426               -5.13061440               53.09265873              -39.21946368
              44.38773828                2.65983363               83.99299925                0.00010000                1.25933268                1.65191096               -6.17073153               -5.28941794               48.81189228              -53.35480199
              45.40480180               -1.07262799               83.10034356                0.00010000                2.23037404                2.25593182               -8.98390870               -5.24165801               43.12869005              -68.68355948
              46.43234576               -4.80787131               82.14832910                0.00010000                3.35855344                2.89483839              -12.06241779               -4.89187567               36.23227348              -85.70891812
              47.47197287               -8.54409588               81.12455986                0.00010000                4.62153975                3.53258168              -15.31967517               -4.23659522               28.26789354             -104.81430488
              48.52477656              -12.27952806               80.01731136                0.00010000                5.91963869                4.16516417              -18.62074461               -3.28579479               19.39451122             -126.22981958
              49.59036565              -16.01169525               78.81637194                0.00010000                7.10043741                4.86352358              -21.79019954               -1.94576974                9.85392111             -149.92714306
              50.66678530              -19.73581842               77.51475852                0.45781665                7.64196584                5.65100802              -24.63145646               -0.67134359                5.13717953             -175.76824783
              44.05080452               18.48713615               87.53793994                0.49657211               -0.42560017               -0.93599469                2.93573252               -0.10883651                0.09290922               15.92011348
              45.04654852               14.83045281               86.03500515                0.01428313               -0.22931744                0.11516791               -0.13083217               -2.64227927               35.34428610              -12.00453426
              46.04621817               11.11960497               85.23691874                0.00010000                0.21856555                1.01827007               -2.39767260               -5.12350995               69.49255403              -23.94747351
              47.05091983                7.40253156               84.42124042                0.00010000                0.83970582                1.71589092               -4.86322977               -5.20465596               66.28433507              -35.81161893
              48.06301229                3.68028854               83.56667928                0.00010000                1.68439104                2.36420002               -7.63002121               -5.17223284               60.94127130              -48.23124245
              49.08460765               -0.04577497               82.65385882                0.00010000                2.72813901                3.05609362              -10.73316685               -4.96605937               53.74559209              -61.78078605
              50.11757507               -3.77412694               81.66528683                0.00010000                3.94168668                3.80961564              -14.14070506               -4.55524240               44.97810999              -76.96969085
              51.16344139               -7.50319936               80.58522750                0.00010000                5.27054424                4.60702091              -17.75572351               -3.92973190               34.90840972              -94.23555984
              52.22298595              -11.23121048               79.39989903                0.00010000                6.61991113                5.43459703              -21.42385146               -3.05073039               23.82418239             -113.94077357
              53.29583961              -14.95558395               78.09832305                0.00010000                7.87214478                6.27381717              -24.94837599               -1.78501010               12.06728554             -136.36275204
              54.38042885              -18.67207606               76.67360640                0.45816599                8.45892418                7.04633349              -28.11601139               -0.61710104                6.27355034             -161.69585740
              47.70119122               19.47838224               87.26099304                0.49551096               -0.25079498               -0.82374592                2.57421285               -0.10874011                0.10748460               16.03283443
              48.69868327               15.83264140               85.61781099                0.01410270                0.16042659                0.33594500               -0.91476028               -2.69025008               43.35335205              -12.09232341
              49.70439976               12.13174128               84.83957826                0.00010000                0.80775932                1.38804195               -3.39116902               -5.18467491               85.27062614              -21.85142775
              50.71483846                8.42234710               84.04221322                0.00010000                1.41001990                2.18037024               -6.05635744               -5.22477845               81.47870270              -31.47545195
              51.73260015                4.70711763               83.19895582                0.00010000                2.25288162                2.91620602               -9.03475542               -5.02670036               75.04656355              -41.65980900
              52.75989609                0.98849389               82.28558202                0.00010000                3.30325725                3.71785320              -12.37716942               -4.64311154               66.33387946              -52.97472525
              53.79866530               -2.73167900               81.28036830                0.00010000                4.52828419                4.61007899              -16.05546882               -4.12837314               55.67665720              -65.90262509
              54.85046178               -6.45195546               80.16361844                0.00010000                5.87406207                5.56848288              -19.96619668               -3.48151030               43.36834563              -80.93743312
              55.91614654              -10.17083612               78.91769929                0.00010000                7.25346245                6.55612962              -23.94181199               -2.64854124               29.71625775              -98.63284641
              56.99553103              -13.88621890               77.52810370                0.00010000                8.56404855                7.51208309              -27.77073004               -1.52004500               15.10969871             -119.57049252
              58.08742751              -17.59489175               75.98520948                0.45884563                9.18964853                8.32208989              -31.22922691               -0.50368604                7.85182256             -144.25227330
              51.34011140               20.47066123               86.98329214                0.49314742               -0.07269218               -0.71983130                2.19560371               -0.10319017                0.16932614               15.90238324
              52.33938448               16.83717171               85.19951281                0.01481099                0.63537847                0.57595823               -1.70635415               -2.73876497               52.68395266              -12.32473430
              53.35281897               13.14736581               84.46629135                0.00010000                1.58317137                1.68777789               -4.37757618               -5.19629233              103.59710799              -19.20549501
              54.37104791                9.44613896               83.71220181                0.00010000                2.17562612                2.46645682               -7.20253687               -5.14997103               99.11932826              -25.99006495
              55.39633150                5.73861266               82.90442243                0.00010000                2.97470686                3.26770587              -10.34327840               -4.70665708               91.49573483              -33.52781549
              56.43054205                2.02858209               82.01436134                0.00010000                3.95627284                4.21176163              -13.87164884               -4.13047586               81.23061017              -42.22872205
              57.47545695               -1.68192536               81.01668212                0.00010000                5.12131266                5.25929958              -17.76437473               -3.52169224               68.67109378              -52.45639049
              58.53296830               -5.39182970               79.88725425                0.00010000                6.44108100                6.37061761              -21.91286890               -2.87101977               53.99096864              -64.71312670
              59.60427857               -9.10008789               78.60246159                0.00010000                7.82630188                7.49797508              -26.13839408               -2.11596408               37.36181579              -79.75429047
              60.68949434              -12.80534229               77.14075798                0.00010000                9.17111215                8.56681091              -30.21642203               -1.17903068               19.14902040              -98.63113537
              61.78770082              -16.50563426               75.48625075                0.45942711                9.82064781                9.44529468              -33.91369803               -0.35618155                9.96508597             -122.35039317
              54.96610647               21.46398562               86.70310681                0.49153591                0.10969259               -0.61679382                1.80681033               -0.11055862                0.24933834               15.71456414
              55.96720340               17.84416056               84.77839000                0.01702506                1.27000892                0.82868306               -2.51521038               -2.86784955               63.69703477              -12.90336849
              56.99150665               14.16549684               84.12310724                0.00010000                2.66943944                1.75951281               -5.32874686               -5.17932466              125.09373930              -15.47095418
              58.02059219               10.47167624               83.44325730                0.00010000                3.22586153                2.41464191               -8.25020099               -4.70623276              119.58102573              -18.99027309
              59.05602388                6.77247175               82.69842503                0.00010000                3.86162024                3.40859355              -11.49708780               -3.95425121              110.50712847              -23.74096770
              60.09782459                3.07272912               81.85881614                0.00010000                4.63096815                4.54270096              -15.15901524               -3.24937055               98.72211535              -29.59028412
              61.14864325               -0.62649300               80.89729786                0.00010000                5.66896591                5.75483582              -19.21464132               -2.65195839               84.41245297              -36.69689214
              62.21120391               -4.32454311               79.78552132                0.00010000                6.93483000                7.00232927              -23.54799319               -2.08183573               67.43200544              -45.48546297
              63.28733985               -8.02087662               78.49187666                0.00010000                8.31464385                8.24357202              -27.96852385               -1.47083218               47.49546529              -56.77080895
              64.37749679              -11.71488268               76.98166619                0.00010000                9.67739947                9.41557446              -32.23801503               -0.77853461               24.69612177              -72.20685570
              65.48088784              -15.40598585               75.22577880                0.45970177               10.33910467               10.38932611              -36.11073403               -0.18090710               12.93230245              -94.39354157
              58.57755034               22.45832536               86.42155521                0.48553674                0.29659364               -0.49769027                1.40500774               -0.11376659               -0.32798723               13.53227420
              59.58051627               18.85374537               84.34917107                0.01708878                2.20832362                1.07726186               -3.35480086               -3.24391203               77.01479796              -11.92964778
              60.62171681               15.18255607               83.82434718                0.00010000                4.47160355                0.94469611               -6.18181474               -4.11997273              150.73949078               -9.13578510
              61.66994834               11.49443180               83.25124854                0.00010000                4.72383909                2.12806452               -9.11935961               -3.23603924              142.72443195              -10.19048584
              62.71619359                7.80678453               82.59622943                0.00010000                4.72855226                3.42543703              -12.41809075               -2.37718513              132.00279846              -12.40020614
              63.76451939                4.11943611               81.83599304                0.00010000                5.17482111                4.77235149              -16.17046263               -1.85909666              119.00178822              -15.31674057
              64.81969001                0.43317136               80.94336606                0.00010000                6.05979040                6.12984712              -20.34656820               -1.46517988              103.40715307              -18.96203013
              65.88571520               -3.25178311               79.88704407                0.00010000                7.27557475                7.48078596              -24.81850417               -1.11502006               84.69692089              -23.58226413
              66.96520151               -6.93521645               78.62818938                0.00010000                8.66588437                8.79777836              -29.38226507               -0.74985021               61.75675845              -29.74020787
              68.05903288              -10.61703080               77.11283789                0.00010000               10.05437517               10.03455247              -33.78564718               -0.36597408               33.09397041              -38.78042420
              69.16628901              -14.29784774               75.27320071                0.46019398               10.72561266               11.12353857              -37.76723991               -0.00944143               17.48719454              -55.84880525
              62.17299112               23.45403181               86.09829564                0.74204449                0.51033314               -0.42935478                0.86748880                0.71147758                6.05637540               11.39267393
              63.17809445               19.86570580               83.94800668                0.46151992                4.77148218                1.19604319               -4.12310458               -3.72423463               96.34419415              -10.54842599
              64.26842076               16.18439076               83.60444505                0.44020653                7.67742429                0.18346917               -6.79760604               -2.90301807              178.96361395               -4.56652715
              65.33164294               12.51423753               83.15199711                0.43826170                5.75275532                1.98057242               -9.69582385               -1.00105400              167.22334801               -5.06528961
              66.38347587                8.84098049               82.61056093                0.43757822                5.13064474                3.41959558              -13.01775312               -0.57484081              155.71747035               -6.11595244
              67.43425583                5.16817615               81.95899210                0.43787084                5.35415019                4.87400358              -16.83639373               -0.27018306              142.15928706               -7.57382451
              68.49055887                1.49610394               81.17096064                0.43965744                6.15177422                6.29325778              -21.10421212               -0.06829060              126.08853406               -9.40261153
              69.55729132               -2.17492739               80.21447972                0.44303589                7.35158256                7.68557241              -25.67569307                0.10636279              106.79238597              -11.74419682
              70.63759053               -5.84492105               79.04786052                0.44771111                8.77586424                9.02953981              -30.33105929                0.27568952               82.82967628              -14.95155635
              71.73280860               -9.51419164               77.61019790                0.45462673               10.23711853               10.28391605              -34.80624063                0.44787014               49.60254069              -19.76462067
              72.84233290              -13.18351508               75.76918889                0.73032287               10.95242944               11.43326589              -38.83122595                0.67204398               30.16846986              -32.63522959
              26.47612533               13.98893302               90.05984761                0.78727484               -1.29879921               -1.43995586                4.95109799               -0.39362731               -7.01488973                7.46582556
              27.46313734               10.14833946               89.14706331                0.51415181               -1.35625333               -0.84264386                3.31016416               -0.57090043               -9.05776263               -6.06728009
              28.44900026                6.29830566               88.19176638                0.46460331               -1.15840617               -0.47642841                1.84051558               -0.35512748               -8.65729826                0.15702479
              29.43996921                2.43412307               87.28351855                0.45277264               -0.58848156               -0.01079112                0.39238860               -0.35567471               -5.97765005               -0.31560410
              30.43723063               -1.44019243               86.37869869                0.45081663                0.05533498                0.46087275               -1.08292273               -0.34350965               -5.56211525               -0.20407319
              31.44107591               -5.32022866               85.47668496                0.45437710                0.70950453                0.94579222               -2.58135431               -0.33595759               -5.46639611               -0.14332516
              32.45142072               -9.20168005               84.57316461                0.46439735                1.34143028                1.43142557               -4.11088026               -0.33009010               -5.87812596               -0.07726936
              33.46790452              -13.08131203               83.66384491                0.48118972                1.91969081                1.91386048               -5.66949693               -0.32542761               -6.78753096               -0.01110967
              34.48981454              -16.95752735               82.74450565                0.50762258                2.40620209                2.38971137               -7.24699954               -0.31756872               -8.44922265               -0.01334436
              35.51602856              -20.83100021               81.80555638                0.54458904                2.78677467                2.86052176               -8.82348209               -0.30035850               -9.01883712                0.74265872
              36.54555003              -24.70509107               80.87947039                0.78844031                2.95214711                3.35825417              -10.43522872               -0.05308795               -8.65097003               -5.46005202
              30.31278261               14.97453346               89.69639392                0.53742872               -1.00406022               -1.46540350                4.31293662               -0.25177932                6.13301514               12.38101393
              31.30274201               11.13991302               88.78156373                0.08263025               -0.51127141               -0.60426630                2.68543219               -0.65197177               13.86592616              -11.19710209
              32.30255718                7.29354138               88.02037586                0.04577044                0.14597495               -0.82859564                1.34752660               -1.60084241               20.31850049              -15.14679797
              33.30566151                3.43401515               87.23636687                0.03829651                0.42071055               -0.46932697               -0.16698298               -2.34604751               19.38692972              -22.44855763
              34.31097139               -0.43558370               86.45902740                0.04005379                0.63993181                0.02453122               -1.76272390               -2.80744286               19.62494809              -30.57342541
              35.31846014               -4.31077073               85.68219562                0.04370535                0.88450549                0.54565642               -3.41897321               -2.93504340               19.43401728              -39.61030628
              36.32866150               -8.18736579               84.90310107                0.05017468                1.20568756                1.01554629               -5.10646489               -2.71389359               18.95633730              -49.71269587
              37.34257390              -12.06217342               84.11834342                0.05995280                1.64107180                1.39113023               -6.81974056               -2.15227399               18.11671947              -61.06222874
              38.36148294              -15.93363024               83.32380071                0.07466950                2.21164679                1.65475033               -8.52591360               -1.29230519               17.04026291              -73.87699810
              39.38680683              -19.80239499               82.51872140                0.09211144                2.88135368                1.85317288              -10.21961829               -0.19815801               13.71336419              -88.45005130
              40.41911001              -23.67150853               81.65880188                0.52166102                3.23031819                1.91618934              -11.81413351                1.34263475               10.90291810             -108.01165120
              34.14033062               15.95962495               89.42936123                0.49940889               -0.92406335               -1.34357278                3.95899703               -0.06810064               -0.51137155               16.04873508
              35.13108998               12.13625413               88.31265771                0.02595079               -0.87246679               -0.35277019                1.97090835               -1.49420467               16.85704680              -14.37854934
              36.12288128                8.28173375               87.54236492                0.00010000               -0.44583223               -0.69896837                0.54505308               -3.56778657               33.00070817              -29.34189306
              37.12217334                4.42473653               86.74656043                0.00010000                0.14931908               -0.47825575               -1.10438234               -4.37558291               30.65894840              -43.89392911
              38.12586766                0.56029820               85.93252210                0.00010000                0.59918980                0.02334599               -2.99807053               -5.12479442               28.52935208              -60.01253955
              39.13415713               -3.30931553               85.09946770                0.00010000                1.13389371                0.58105943               -5.11830858               -5.38148654               26.06350442              -77.84189976
              40.14854554               -7.18136912               84.24196077                0.00010000                1.84831779                1.06371686               -7.43101744               -5.06476693               23.05930348              -97.74365553
              41.17112349              -11.05348942               83.35398060                0.00010000                2.78222329                1.38851359               -9.87466262               -4.17619430               19.48328718             -120.06527825
              42.20419000              -14.92443235               82.42850719                0.00010000                3.94100986                1.53256732              -12.36102953               -2.77636969               14.95937988             -145.14803246
              43.24994369              -18.79393675               81.45123562                0.00010000                5.32199009                1.54110679              -14.76006461               -1.18382182                8.31783075             -173.59205950
              44.31062980              -22.66676728               80.39089385                0.45354941                6.06861167                1.70981129              -16.93714572                0.55336000                4.51512225             -203.83875867
              37.95816222               16.94766200               89.13495465                0.49285453               -0.74131096               -1.10803713                3.55173570               -0.09252635                0.05153254               15.30400210
              38.95074912               13.13285762               87.88541007                0.01677015               -0.77215826               -0.28208740                1.30063811               -1.84473223               22.45238009              -12.37665715
              39.94271906                9.27956201               87.08318563                0.00010000               -0.55818575                0.04157662               -0.27934045               -3.73893434               44.07217345              -27.57705437
              40.93958540                5.42445004               86.26478680                0.00010000               -0.00957498                0.35842659               -2.13163851               -4.12325296               41.66996972              -42.32523711
              41.94252756                1.56488322               85.41823868                0.00010000                0.64561651                0.86473192               -4.32886473               -4.55407629               38.10541323              -57.81212347
              42.95249773               -2.29914955               84.53561136                0.00010000                1.45062492                1.44549559               -6.87492740               -4.70837879               33.67395597              -74.76588236
              43.97154006               -6.16609145               83.60854147                0.00010000                2.48077541                2.00210675               -9.72412011               -4.45556694               28.44070482              -93.62419371
              45.00211324              -10.03440315               82.62840819                0.00010000                3.74314080                2.46714970              -12.78199525               -3.79810623               22.44149404             -114.74031612
              46.04640287              -13.90297889               81.58588326                0.00010000                5.16760458                2.82709672              -15.90261084               -2.83056802               15.60977921             -138.35774970
              47.10546533              -17.77157285               80.46966383                0.00010000                6.47177033                3.15222451              -18.89129899               -1.58904037                8.01015585             -164.27982361
              48.17583828              -21.63731230               79.27080274                0.45405447                7.03729506                3.88128255              -21.49496991               -0.46698691                4.28948162             -191.28691199
              41.76808886               17.93746420               88.84927510                0.49318477               -0.57935282               -0.95983643                3.21427550               -0.09409935                0.03858991               16.06810939
              42.76229533               14.13061239               87.45848317                0.01541758               -0.57893442               -0.13403202                0.57576240               -1.99086424               28.71799988              -12.34698393
              43.75651017               10.28256528               86.64081450                0.00010000               -0.39541322                0.50543807               -1.15607623               -3.90108362               56.40750386              -26.05225037
              44.75438707                6.43190506               85.80455616                0.00010000                0.09377748                1.05064508               -3.22612211               -4.02724336               53.43452800              -39.78957866
              45.75838572                2.57759284               84.93308817                0.00010000                0.82885817                1.63589325               -5.71451980               -4.20224046               48.73883136              -54.13350748
              46.77096423               -1.28040562               84.01179843                0.00010000                1.81510398                2.28427506               -8.63858195               -4.22520469               42.62839818              -69.73734477
              47.79468780               -5.14132698               83.02799936                0.00010000                3.05422886                2.95115226              -11.94671917               -3.99577734               35.38275395              -87.11626818
              48.83204881               -9.00414643               81.97031047                0.00010000                4.50302726                3.59707258              -15.52017284               -3.50140754               27.23343747             -106.65707587
              49.88474835              -12.86789041               80.82858789                0.00010000                6.02237398                4.21762876              -19.17390774               -2.75017847               18.41876551             -128.58564606
              50.95249629              -16.73089226               79.59469496                0.00010000                7.40103087                4.89354785              -22.66010370               -1.66048096                9.23497095             -152.86542486
              52.03276896              -20.58914163               78.26401619                0.45424806                8.02726759                5.65868825              -25.68869082               -0.49628089                4.87000460             -179.35490021
              45.56998387               18.92846527               88.56706265                0.49228970               -0.41531202               -0.85285497                2.88625737               -0.09180089                0.08857709               16.44519311
              46.56583075               15.13017698               87.03354562                0.01452763               -0.32895799                0.06392398               -0.16195751               -2.03910177               35.80834276              -12.31136825
              47.56340471               11.28967077               86.21418878                0.00010000               -0.09088888                0.90653397               -2.08568391               -3.95061694               70.32070165              -24.42939758
              48.56401298                7.44546294               85.37456924                0.00010000                0.36943550                1.61979658               -4.36958925               -3.98039484               66.75754873              -36.44713939
              49.57079342                3.59760109               84.49235085                0.00010000                1.14502400                2.31998455               -7.12337927               -3.97957488               60.94501926              -49.04023109
              50.58691346               -0.25346404               83.54782458                0.00010000                2.22859487                3.07097505              -10.37499219               -3.86946333               53.26485430              -62.81153497
              51.61536532               -4.10706841               82.52391690                0.00010000                3.58675303                3.87651272              -14.07095238               -3.60450521               44.10030527              -78.29003113
              52.65864852               -7.96246170               81.40603948                0.00010000                5.13899073                4.71575436              -18.07631729               -3.16287272               33.81956408              -95.92321357
              53.71814514              -11.81862632               80.18222208                0.00010000                6.74292062                5.57972202              -22.17848226               -2.50207734               22.79410170             -116.07592558
              54.79350693              -15.67370190               78.84381403                0.00010000                8.21331361                6.46006428              -26.09997782               -1.49403570               11.41727630             -139.02488643
              55.88241141              -19.52413854               77.38649211                0.45478888                8.89044793                7.28827415              -29.52648728               -0.44321278                5.99053708             -164.96340695
              49.36282944               19.92040710               88.28668711                0.49194906               -0.25216364               -0.76750354                2.57457810               -0.09616107                0.11062329               16.56998639
              50.36030780               16.13189086               86.60867811                0.01447986               -0.03087838                0.29058637               -0.92059390               -2.06570625               43.92803106              -12.42249229
              51.36221187               12.30069596               85.80702077                0.00010000                0.32705277                1.29202623               -3.04861333               -3.96670510               86.29182249              -22.39342133
              52.36684885                8.46430099               84.98370170                0.00010000                0.77546701                2.10912988               -5.53535322               -3.94554398               82.11549393              -32.16127211
              53.37772121                4.62399253               84.11057594                0.00010000                1.56978005                2.90498701               -8.51969336               -3.79995564               75.16445370              -42.47693906
              54.39824446                0.78101388               83.16293886                0.00010000                2.69370705                3.77349690              -12.04662935               -3.54444619               65.91330026              -53.95363980
              55.43159535               -3.06379673               82.11945260                0.00010000                4.10524048                4.73039968              -16.06479533               -3.20192489               54.81264990              -67.10043456
              56.48034927               -6.90983134               80.96165475                0.00010000                5.71758243                5.75255399              -20.42834709               -2.75462238               42.26384069              -82.42524667
              57.54594700              -10.75629597               79.67388524                0.00010000                7.38892630                6.80907264              -24.90527153               -2.14096224               28.66182120             -100.48647239
              58.62812779              -14.60169097               78.24414625                0.00010000                8.94154958                7.85130591              -29.19626393               -1.25455436               14.44474865             -121.86467543
              59.72477799              -18.44337615               76.66551937                0.45505503                9.66501978                8.78207620              -32.97013294               -0.34128652                7.56225277             -147.06023512
              53.14509313               20.91311520               88.00558956                0.49007171               -0.08653571               -0.69837303                2.25724417               -0.10671366                0.16370796               16.42534559
              54.14422777               17.13598870               86.18250014                0.01521863                0.32836783                0.53906573               -1.69022456               -2.10606102               53.37587339              -12.66787620
              55.15166049               13.31551129               85.42392161                0.00010000                0.87888773                1.64301474               -4.02196803               -3.97492870              104.83360569              -19.78260632
              56.16180553                9.48764554               84.64218943                0.00010000                1.32104641                2.48496749               -6.68318559               -3.88725736               99.94171669              -26.68145993
              57.17808142                5.65570083               83.80280430                0.00010000                2.10041302                3.35565087               -9.85418125               -3.54547641               91.74533969              -34.29899053
              58.20381379                1.82200589               82.87645176                0.00010000                3.20453161                4.36110495              -13.60375512               -3.13212054               80.88041803              -43.09852360
              59.24217205               -2.01246041               81.83813908                0.00010000                4.61207616                5.47364177              -17.88457372               -2.71133335               67.82599787              -53.47297321
              60.29605531               -5.84741062               80.66503899                0.00010000                6.25067384                6.65765700              -22.54174314               -2.25981996               52.87211632              -65.93842697
              61.36718553               -9.68244487               79.33565075                0.00010000                7.97203528                7.87007467              -27.32562611               -1.70760503               36.28160404              -81.25353247
              62.45549602              -13.51667578               77.83110365                0.00010000                9.58852519                9.04790380              -31.91611114               -0.97354290               18.46699317             -100.46413535
              63.55895603              -17.34849701               76.13833812                0.45560187               10.34600110               10.08548405              -35.96503852               -0.22023066                9.66817364             -124.56825372
              56.91494816               21.90643964               87.72169332                0.48818398                0.08423268               -0.63201233                1.91798938               -0.11132382                0.25968017               16.21521914
              57.91579049               18.14267218               85.75346385                0.01738296                0.80541499                0.80047742               -2.46829503               -2.20602996               64.53155275              -13.26587009
              58.93105646               14.33355625               85.07120806                0.00010000                1.65618449                1.83915517               -4.97162960               -3.97669754              126.57388426              -16.02857296
              59.94891418               10.51400034               84.36265189                0.00010000                2.06974325                2.61335363               -7.75062824               -3.58373137              120.60561645              -19.60065155
              60.97245132                6.69110554               83.58501455                0.00010000                2.74245534                3.64731760              -11.05675342               -3.00216792              110.87822339              -24.37481381
              62.00376328                2.86823598               82.70759603                0.00010000                3.71669344                4.82090255              -14.97966352               -2.47649600               98.41784383              -30.26605945
              63.04678519               -0.95432389               81.70359044                0.00010000                5.06870178                6.08811087              -19.47300660               -2.05136459               83.55529740              -37.45354112
              64.10513732               -4.77667820               80.54604664                0.00010000                6.71374321                7.40889636              -24.37018085               -1.65322994               66.26700082              -46.37228922
              65.18106006               -8.59889448               79.20562371                0.00010000                8.47858806                8.74038188              -29.40205498               -1.20791088               46.36147403              -57.83815453
              66.27470908              -12.42073290               77.65048826                0.00010000               10.14778943               10.02394407              -34.22346878               -0.66013373               23.97863660              -73.49473445
              67.38401585              -16.24166647               75.85453887                0.45592139               10.93067658               11.15646507              -38.46238565               -0.08297984               12.61858423              -95.91899834
              60.67040158               22.90047496               87.43640551                0.48167285                0.25889818               -0.54102449                1.57404706               -0.11101458               -0.33495579               13.96509994
              61.67299057               19.15199825               85.31595532                0.01722151                1.51983974                1.05247881               -3.28408345               -2.48522331               78.04522828              -12.28182362
              62.70079838               15.35229440               84.76391130                0.00010000                2.97955230                1.36140126               -5.82088745               -3.16863336              152.53587972               -9.53673381
              63.73258161               11.53991261               84.16183474                0.00010000                3.15020177                2.53886555               -8.63901962               -2.49689196              143.93264723              -10.57462567
              64.76380241                7.72864718               83.47333138                0.00010000                3.35658484                3.82185852              -12.03131152               -1.83327229              132.44074371              -12.77556059
              65.79971331                3.91842394               82.67416474                0.00010000                4.11282633                5.17826715              -16.09164075               -1.43694425              118.67531898              -15.69762135
              66.84605894                0.10930180               81.73758654                0.00010000                5.39239956                6.57905138              -20.76240407               -1.15155878              102.47026955              -19.37278984
              67.90756130               -3.69923269               80.63383303                0.00010000                7.05115326                8.00271305              -25.85991851               -0.90686432               83.42565693              -24.05244820
              68.98708201               -7.50763723               79.32650600                0.00010000                8.87520163                9.41401735              -31.09371797               -0.64197068               60.52041283              -30.29986425
              70.08506533              -11.31619690               77.76471318                0.00010000               10.60407840               10.75953572              -36.08965553               -0.33162969               32.31062234              -39.45104062
              71.19916357              -15.12536771               75.88395181                0.45631814               11.40982415               11.97476199              -40.43346599                0.05838121               17.14114972              -56.61889776
              64.40968128               23.89561915               87.10802141                0.74024128                0.45853025               -0.48558023                1.08611537                0.73822943                6.24995905               11.75596244
              65.41426658               20.16372176               84.90723843                0.45920602                3.50440788                1.17235037               -4.02095010               -2.61414244               97.77081932              -10.87210949
              66.47976943               16.36078428               84.53798755                0.43947152                5.41784897                0.84898810               -6.39995062               -2.05009977              181.04604601               -4.77317360
              67.52262356               12.56477765               84.05683754                0.43808827                3.87525557                2.48650392               -9.20273072               -0.65788358              168.50546497               -5.27393296
              68.55727454                8.76754271               83.48147341                0.43756897                3.58731068                3.88955373              -12.66355903               -0.30160307              156.09708012               -6.31863252
              69.59436977                4.97180133               82.79002861                0.43760769                4.20680538                5.33773821              -16.85186004               -0.04863277              141.68995756               -7.77270539
              70.64141065                1.17725713               81.95680254                0.43913817                5.47846470                6.79553291              -21.68604862                0.11390792              124.96798990               -9.60253486
              71.70393907               -2.61662394               80.95155130                0.44199772                7.18870988                8.26087517              -26.95899396                0.24421329              105.33562293              -11.95406599
              72.78518485               -6.41061413               79.73521084                0.44593769                9.09339520                9.70230962              -32.35842466                0.36437221               81.43703565              -15.18201710
              73.88580697              -10.20554218               78.25009944                0.45164955               10.91701250               11.06547138              -37.49098038                0.49630894               48.71981946              -20.02373498
              75.00352510              -14.00217123               76.36746542                0.72839921               11.77181308               12.31964839              -41.89377198                0.77324815               29.76867216              -32.90090451
              27.32678589               14.43042939               91.10789849                0.77991740               -1.21170833               -1.33871838                4.65296767               -0.36701086               -7.05415967                7.51130161
              28.31466881               10.45602583               90.17918334                0.50628442               -1.21320773               -0.80282194                3.10920556               -0.49912133               -8.99270993               -6.12370339
              29.30252174                6.47380698               89.20982473                0.46235253               -0.97173661               -0.44562551                1.77000280               -0.34611547               -8.42235448                0.16909144
              30.29523408                2.48087320               88.28770503                0.45207728               -0.44437117               -0.00867754                0.44992158               -0.34705039               -5.69909559               -0.32076044
              31.29363431               -1.51922881               87.36880168                0.45049894                0.12850546                0.43368838               -0.88491597               -0.34330244               -5.28264410               -0.20564288
              32.29780419               -5.52306875               86.45250619                0.45329963                0.70055837                0.88733755               -2.23954339               -0.34047305               -5.20990023               -0.15224336
              33.30764548               -9.52750676               85.53436084                0.46175180                1.25262752                1.34341141               -3.62672388               -0.33532709               -5.66247771               -0.08333286
              34.32285674              -13.53034562               84.61010007                0.47553001                1.76173208                1.79957333               -5.04760635               -0.32623658               -6.61722765               -0.03141014
              35.34288012              -17.53080611               83.67558678                0.49745331                2.18942434                2.25075381               -6.49625636               -0.31610943               -8.31233526               -0.03860926
              36.36664522              -21.53011718               82.72149785                0.52831654                2.51669326                2.69104291               -7.93311706               -0.29349695               -8.93021658                0.69495120
              37.39321399              -25.53209858               81.77984456                0.77788570                2.65687655                3.15476818               -9.41685434                0.07692396               -8.62131330               -5.41125381
              31.29751934               15.41704220               90.73827379                0.52811679               -0.95305369               -1.28607008                4.05410802               -0.16672938                6.21634891               12.58009818
              32.28798880               11.44799761               89.80759694                0.07924438               -0.54412178               -0.64824171                2.51656829               -0.47653116               14.08914283              -11.29136961
              33.28663690                7.46935072               89.03333441                0.04572929                0.01463340               -0.69478345                1.23526230               -1.18947543               20.52152716              -15.22744818
              34.28828147                3.48078642               88.23438646                0.03834046                0.27676826               -0.29801863               -0.23569255               -1.79762467               19.40433703              -22.54391625
              35.29217226               -0.51489193               87.44137374                0.03982323                0.51284809                0.18028976               -1.77963641               -2.21883463               19.53327182              -30.74040856
              36.29853843               -4.51419538               86.64818690                0.04285017                0.78791899                0.64879482               -3.38525797               -2.38609201               19.28053231              -39.93456898
              37.30793064               -8.51407264               85.85248526                0.04829541                1.13528090                1.04222643               -5.02597746               -2.25160887               18.77396985              -50.28533579
              38.32124405              -12.51234989               85.05076785                0.05650504                1.58370803                1.32181549               -6.68809002               -1.78636674               17.93424155              -61.95772820
              39.33960481              -16.50829857               84.23942619                0.06883747                2.15562206                1.46549348               -8.34860165               -0.99702965               16.87987702              -75.13786393
              40.36435649              -20.50320675               83.41766758                0.08280492                2.81799121                1.50571873               -9.98212893                0.09804572               13.60858720              -90.06110323
              41.39596463              -24.50055090               82.54210156                0.51062915                3.16081422                1.26393832              -11.49684655                1.90457117               10.84112001             -109.84857746
              35.26154048               16.40470798               90.46790953                0.49409759               -0.87108165               -1.10962251                3.72944621               -0.07068602               -0.58304383               16.43236535
              36.25282966               12.44306100               89.33183788                0.02486978               -0.77985303               -0.47436154                1.85503053               -1.02125976               17.09690719              -14.55628352
              37.24594342                8.45991131               88.54822489                0.00010000               -0.46527156               -0.59054433                0.65578198               -2.47142529               33.50132471              -29.44017455
              38.24352423                4.47491283               87.73652537                0.00010000               -0.08519988               -0.25539403               -0.85509167               -3.17397904               30.86289406              -44.01801464
              39.24423942                0.48437699               86.90376614                0.00010000                0.28694147                0.26668559               -2.69670432               -3.88754330               28.40101690              -60.29817180
              40.24926306               -3.51009286               86.04940098                0.00010000                0.82641968                0.78266968               -4.84234188               -4.23327189               25.62445848              -78.44916261
              41.26076782               -7.50666223               85.16835733                0.00010000                1.60461339                1.17632364               -7.24752405               -4.08925704               22.36896016              -98.84706384
              42.28135533              -11.50390931               84.25533452                0.00010000                2.65142863                1.36813544               -9.83682760               -3.40367092               18.64223907             -121.80391553
              43.31379639              -15.50149624               83.30425207                0.00010000                3.97515663                1.32745586              -12.50078755               -2.18279361               14.12723320             -147.61913755
              44.36085846              -19.50000280               82.30232897                0.00010000                5.60986610                1.06482612              -15.06840152               -0.79658931                7.72813090             -176.80002069
              45.42599371              -23.50681981               81.21998093                0.45037756                6.51352480                0.82970501              -17.32530222                0.97612716                4.28071910             -207.82087394
              39.21939958               17.39484975               90.16963910                0.48805476               -0.70393071               -0.91758280                3.37810840               -0.09311544                0.03338250               15.75917820
              40.21236028               13.43851038               88.89804350                0.01644311               -0.70215088               -0.38990948                1.21665349               -1.16606530               22.82592700              -12.62223939
              41.20535657                9.45753984               88.08147675                0.00010000               -0.60120340               -0.02917981               -0.00818990               -2.38747316               44.77583153              -27.73769604
              42.20033621                5.47567854               87.24541159                0.00010000               -0.29647429                0.37712221               -1.65703644               -2.72951211               42.01419342              -42.52330023
              43.19942708                1.49044179               86.37710783                0.00010000                0.22879970                0.93371649               -3.79875422               -3.15936535               37.98570303              -58.16779797
              44.20491220               -2.49854198               85.46863871                0.00010000                1.02674393                1.52523770               -6.42683191               -3.38962201               33.08923250              -75.41441668
              45.21996196               -6.49054617               84.51217897                0.00010000                2.15462178                2.05450631               -9.47930204               -3.28621053               27.47034868              -94.70601446
              46.24800464              -10.48498718               83.50017057                0.00010000                3.60402311                2.45203118              -12.83687963               -2.82527601               21.24903516             -116.38643642
              47.29204242              -14.48174945               82.42495928                0.00010000                5.28718168                2.69582181              -16.31018699               -2.09760268               14.45260900             -140.66759999
              48.35374827              -18.48191022               81.27750667                0.00010000                6.85393854                2.84244293              -19.63363310               -1.17145201                7.25457078             -167.33426342
              49.42912119              -22.48395680               80.05187657                0.45063781                7.53729200                3.41070144              -22.44262002               -0.22719606                3.96093711             -195.13588518
              43.17235691               18.38635633               89.88091190                0.48973513               -0.55386362               -0.81108759                3.09544582               -0.09882557                0.01018665               16.59574950
              44.16681827               14.43526281               88.46393974                0.01551946               -0.56655559               -0.22399362                0.51652015               -1.18998263               29.23211789              -12.65767590
              45.16102580               10.45932771               87.63081818                0.00010000               -0.53931155                0.36354561               -0.77287149               -2.32777579               57.35084228              -26.32634781
              46.15603204                6.48245527               86.77487656                0.00010000               -0.28765778                0.93823475               -2.59666155               -2.43519343               53.93360422              -40.10523077
              47.15527264                2.50305131               85.87870885                0.00010000                0.32132680                1.57771813               -5.03333630               -2.64065625               48.68401721              -54.58538487
              48.16245858               -1.47958810               84.92757192                0.00010000                1.31080800                2.26979398               -8.08792750               -2.75984683               42.00942721              -70.43557538
              49.18148880               -5.46557210               83.90939472                0.00010000                2.67972581                2.95826853              -11.68782737               -2.69381356               34.29533005              -88.18128958
              50.21605309               -9.45486869               82.81415641                0.00010000                4.36392889                3.59896363              -15.67985708               -2.42424262               25.88198445             -108.20972127
              51.26876738              -13.44757980               81.63383320                0.00010000                6.17918354                4.18615544              -19.82252859               -1.96171187               17.12022647             -130.74095544
              52.33963676              -17.44315394               80.36316987                0.00010000                7.83877765                4.81886277              -23.77944852               -1.24295721                8.39809871             -155.72803286
              53.42554293              -21.43860578               79.00098470                0.45118760                8.59061678                5.55547085              -27.13832890               -0.25707144                4.49877232             -183.02527961
              47.11961011               19.37862800               89.59566508                0.48918506               -0.40208710               -0.75506359                2.83046736               -0.10650921                0.08534091               17.00003215
              48.11558924               15.43403051               88.03176600                0.01488534               -0.40007601               -0.00128879               -0.20063055               -1.18626421               36.46744079              -12.65489441
              49.11160859               11.46481075               87.19520506                0.00010000               -0.38402502                0.74061543               -1.62732698               -2.27002268               71.50326748              -24.82048249
              50.10790874                7.49444324               86.33384863                0.00010000               -0.14756309                1.45230974               -3.64358056               -2.26267359               67.43890750              -36.89556620
              51.10865733                3.52199615               85.42421170                0.00010000                0.52149724                2.20370423               -6.35743583               -2.31049611               60.99973642              -49.59809321
              52.11833868               -0.45314610               84.44635898                0.00010000                1.63544732                3.01910093               -9.78370277               -2.32750433               52.68263008              -63.56047063
              53.14136628               -4.43138080               83.38386779                0.00010000                3.15944022                3.88311160              -13.84444900               -2.25740965               42.98916375              -79.33140902
              54.18152749               -8.41300791               82.22370116                0.00010000                4.98635819                4.77043964              -18.36411098               -2.06963455               32.41061190              -97.36881181
              55.24109344              -12.39802635               80.95632939                0.00010000                6.91938099                5.67927857              -23.06472223               -1.72004886               21.43558262             -118.04000634
              56.31991511              -16.38553297               79.57632349                0.00010000                8.68950026                6.61759565              -27.57134114               -1.08329626               10.54574699             -141.62087802
              57.41488344              -20.37284738               78.08307665                0.45171381                9.49683357                7.53316625              -31.43928411               -0.21227107                5.59965107             -168.30095424
              51.05942170               20.37125506               89.31248461                0.48880250               -0.25114639               -0.72330319                2.57358366               -0.10408794                0.10518336               17.13393211
              52.05691024               16.43523703               87.59939911                0.01495637               -0.21045432                0.24989648               -0.93023621               -1.20671876               44.72165579              -12.78733002
              53.05521262               12.47414002               86.77860599                0.00010000               -0.16585343                1.13578226               -2.54388042               -2.27711803               87.71256981              -22.88702781
              54.05359317                8.51150146               85.93150615                0.00010000                0.07197222                1.95581696               -4.76078214               -2.19619020               82.99038151              -32.72764588
              55.05665206                4.54712540               85.02856195                0.00010000                0.78461341                2.80990468               -7.72478697               -2.11944572               75.35183152              -43.12104928
              56.06928544                0.58079392               84.04464943                0.00010000                1.97751755                3.75502814              -11.46884629               -2.02791667               65.39830107              -54.72817350
              57.09620241               -3.38790987               82.95907239                0.00010000                3.60102550                4.79290684              -15.91511569               -1.91152027               53.71347980              -68.08781959
              58.14130595               -7.35945990               81.75505150                0.00010000                5.53445259                5.90088923              -20.87259131               -1.73564441               40.83191542              -83.72369057
              59.20689146              -11.33399423               80.41959386                0.00010000                7.57429624                7.05646705              -26.03738933               -1.42947919               27.27029980             -102.19899519
              60.29279187              -15.31080203               78.94417842                0.00010000                9.45174335                8.22829836              -31.00533994               -0.88582500               13.55267854             -124.09119213
              61.39592633              -19.28794246               77.32580682                0.45180937               10.31344573                9.34142710              -35.30763627               -0.12844700                7.16067054             -149.89451532
              54.98956440               21.36416194               89.02843702                0.48679250               -0.09944983               -0.68905051                2.31877107               -0.09648352                0.17160319               16.97336728
              55.98856990               17.43902844               87.16570832                0.01571250                0.01187008                0.50754777               -1.67148634               -1.26130303               54.30173788              -13.04049824
              56.98980180               13.48752639               86.38585199                0.00010000                0.12148292                1.53978349               -3.49288154               -2.34425886              106.48309017              -20.35138546
              57.99099956                9.53355958               85.57853810                0.00010000                0.35870821                2.42582170               -5.89707146               -2.20136468              101.01217386              -27.31681693
              58.99697596                5.57819424               84.70733881                0.00010000                1.09080315                3.36614944               -9.07451108               -1.98064844               92.06265276              -34.97132907
              60.01281562                1.62195446               83.74228624                0.00010000                2.32068593                4.44505179              -13.08425000               -1.76983830               80.42347040              -43.83878140
              61.04338968               -2.33552266               82.65899064                0.00010000                4.00416711                5.64492952              -17.85167880               -1.59242035               66.72482674              -54.34689740
              62.09289896               -6.29499012               81.43641938                0.00010000                6.02281536                6.93384785              -23.17259745               -1.40848154               51.40084317              -67.02779486
              63.16384599              -10.25689700               80.05594907                0.00010000                8.16239358                8.27496372              -28.71851449               -1.13703205               34.84140992              -82.64180604
              64.25614683              -14.22096700               78.50243576                0.00010000               10.13746855                9.62075657              -34.05567509               -0.68796716               17.54408000             -102.22333001
              65.36659536              -18.18601884               76.76694998                0.45227280               11.04485258               10.89814713              -38.68962888               -0.04358487                9.25116874             -126.75328438
              58.90775902               22.35747405               88.74146659                0.48512309                0.05606961               -0.64313339                2.03855087               -0.09924497                0.27487698               16.75192914
              59.90831972               18.44538799               86.72902410                0.01782954                0.30186395                0.76529402               -2.41632011               -1.35965999               65.60076500              -13.66457236
              60.91379630               14.50493569               86.02367465                0.00010000                0.52891545                1.87577522               -4.43106000               -2.43084549              128.46418501              -16.60728630
              61.91889803               10.56001790               85.28824474                0.00010000                0.74239536                2.75970278               -6.97588188               -2.11528286              121.86558604              -20.20642364
              62.92864421                6.61444839               84.47728996                0.00010000                1.43537739                3.83101094              -10.32095293               -1.73102222              111.29093286              -24.97106267
              63.94760558                2.66969495               83.55922287                0.00010000                2.63271882                5.05483203              -14.55051694               -1.42523391               97.96624866              -30.87650366
              64.98129859               -1.27501128               82.50783773                0.00010000                4.34525412                6.40130627              -19.58984161               -1.22202337               82.39080109              -38.12861717
              66.03451066               -5.22078294               81.29811770                0.00010000                6.44145576                7.83266885              -25.21827899               -1.05368849               64.69453514              -47.17467941
              67.11012770               -9.16849496               79.90383556                0.00010000                8.68218519                9.30480739              -31.07903870               -0.83601638               44.81925231              -58.82844220
              68.20815436              -13.11838690               78.29719682                0.00010000               10.75153009               10.76521065              -36.69991635               -0.49159360               22.99145324              -74.71203915
              69.32515830              -17.06997952               76.45653109                0.45280787               11.70039405               12.14332973              -41.54899809                0.04270703               12.16883803              -97.35959208
              62.81175161               23.35129927               88.45303615                0.47868884                0.21634416               -0.57773936                1.75194815               -0.10663229               -0.34683812               14.42022220
              63.81391505               19.45433432               86.28348941                0.01742856                0.74016837                1.01547004               -3.19487974               -1.55161941               79.30810160              -12.65915893
              64.82655498               15.52504190               85.70792944                0.00010000                1.26330748                1.79195430               -5.26604975               -1.98172116              154.72962014               -9.96892055
              65.83918120               11.58875363               85.07846814                0.00010000                1.30617431                2.93676798               -7.87437114               -1.54295434              145.34309018              -10.97812893
              66.85267847                7.65481446               84.35560320                0.00010000                1.72947034                4.19376971              -11.34466233               -1.10601703              132.86218707              -13.14911639
              67.87377061                3.72305110               83.51416022                0.00010000                2.83743199                5.56496668              -15.76652434               -0.85953626              118.12181291              -16.05761334
              68.90942711               -0.20749654               82.52811798                0.00010000                4.57691304                7.03162553              -21.05100524               -0.71452246              101.13207464              -19.75014668
              69.96530887               -4.13833675               81.36984570                0.00010000                6.76512578                8.56688442              -26.95442428               -0.61097486               81.64825919              -24.48413002
              71.04472962               -8.07080086               80.00631502                0.00010000                9.12453244               10.12619482              -33.08938939               -0.48353213               58.78679669              -30.82064457
              72.14779952              -12.00566279               78.39104478                0.00010000               11.29525565               11.64740163              -38.93650666               -0.27776689               31.20247413              -40.07759596
              73.27063473              -15.94315224               76.46453139                0.45290011               12.28352142               13.07095668              -43.88923359                0.14185899               16.62932441              -57.29829370
              66.69955627               24.34591926               88.12001795                0.73829216                0.39884281               -0.53800090                1.31251868                0.75827915                6.44876396               12.13635981
              67.70354470               20.46569739               85.86758768                0.45730691                2.00931474                1.13630695               -3.88280651               -1.29425936               99.44928544              -11.21710463
              68.73974257               16.54077478               85.47644604                0.43898332                2.73608394                1.57328791               -5.78812490               -1.02844778              183.51950609               -5.02227440
              69.75826638               12.61875326               84.96794249                0.43781938                1.62419172                2.99996262               -8.40552720               -0.21403213              169.92610195               -5.52155735
              70.77222640                8.69832378               84.35728975                0.43737168                1.72297347                4.35093219              -11.99643512                0.06684498              156.35350616               -6.54800407
              71.79272585                4.78099429               83.62195490                0.43784593                2.80847899                5.79431863              -16.61910541                0.26039630              140.85839022               -7.98499207
              72.82839598                0.86562123               82.73723967                0.43900434                4.64348160                7.31177681              -22.15260811                0.37491084              123.29551309               -9.80390343
              73.88559548               -3.04944525               81.67529985                0.44083421                6.96935600                8.88914954              -28.32289474                0.44904638              103.21773593              -12.15479127
              74.96778310               -6.96597106               80.40069202                0.44417788                9.46774650               10.48297951              -34.71377500                0.50566730               79.39822319              -15.39217092
              76.07495041              -10.88543887               78.86037829                0.44889946               11.75956441               12.02239230              -40.77768173                0.58562310               47.39757413              -20.24574928
              77.20297439              -14.80856038               76.93131345                0.72662159               12.80239789               13.45918609              -45.80984789                0.92181403               29.11865533              -33.06272324
              28.19247243               14.87840845               92.15290696                0.77338970               -1.11155339               -1.22840734                4.32589889               -0.33794158               -7.08165437                7.53758585
              29.18135690               10.76903819               91.20924742                0.49907722               -1.02204737               -0.76070926                2.88913264               -0.37628100               -8.89418534               -6.17218187
              30.17203148                6.65466813               90.22716643                0.46015268               -0.71732738               -0.40758832                1.69450501               -0.31798790               -8.11393595                0.17137178
              31.16701035                2.53434499               89.29251699                0.45112819               -0.26274488               -0.00285017                0.51572980               -0.33601917               -5.33136293               -0.32960392
              32.16677659               -1.58944939               88.36100037                0.44954218                0.21541987                0.40930616               -0.66554282               -0.34301641               -4.90358496               -0.20946488
              33.17131875               -5.71463495               87.43189409                0.45211489                0.69003487                0.82780467               -1.86531357               -0.34325614               -4.85332911               -0.15387787
              34.18057728               -9.83959555               86.50063013                0.45882281                1.15076377                1.25265514               -3.09475829               -0.33377516               -5.35256635               -0.09427158
              35.19433402              -13.96327579               85.56289278                0.47025310                1.57963844                1.67133537               -4.35946948               -0.32076227               -6.36267762               -0.04380115
              36.21217005              -18.08597835               84.61458053                0.48802503                1.94162127                2.09255408               -5.65311495               -0.30717291               -8.09637022               -0.06145638
              37.23316645              -22.20944064               83.64689404                0.51283112                2.21301470                2.49924733               -6.92989465               -0.27891502               -8.76456559                0.64478799
              38.25643035              -26.33783015               82.69113330                0.76750680                2.32638985                2.92137085               -8.27338410                0.22445947               -8.51311106               -5.32798234
              32.29846328               15.86612438               91.77747608                0.51884290               -0.89990328               -1.07507567                3.76860673               -0.05229716                6.27803399               12.75388313
              33.28946425               11.76143110               90.83189509                0.07576232               -0.61325370               -0.71781391                2.33379966               -0.20881300               14.26875499              -11.37055877
              34.28619821                7.65059225               90.04508111                0.04542587               -0.18776626               -0.49401110                1.10265529               -0.54629099               20.63143942              -15.16263202
              35.28570892                3.53431648               89.23165302                0.03809573                0.08190925               -0.04969409               -0.31577246               -0.95344816               19.32532820              -22.39069491
              36.28783639               -0.58535633               88.42343468                0.03929949                0.36251706                0.40250296               -1.81544653               -1.32187915               19.36500936              -30.59975183
              37.29295926               -4.70635690               87.61449046                0.04171110                0.68617803                0.79421820               -3.36398358               -1.54881492               19.04834169              -39.93698732
              38.30155995               -8.82706900               86.80258152                0.04616021                1.06792695                1.07957244               -4.96024965               -1.53958101               18.50677527              -50.56351744
              39.31431780              -12.94656244               85.98458162                0.05278522                1.53103998                1.21526688               -6.54644698               -1.21221544               17.65515539              -62.62584407
              40.33218075              -17.06505281               85.15682867                0.06282528                2.09926983                1.18150796               -8.15013376               -0.51577842               16.61760950              -76.25923234
              41.35630320              -21.18444817               84.31907882                0.07360593                2.74418496                0.98321944               -9.71770272                0.60236836               13.42630606              -91.62655108
              42.38706445              -25.30861644               83.42886495                0.49981036                3.07612517                0.24351905              -11.13334423                2.80866861               10.71689725             -111.67823455
              36.40081306               16.85690694               91.50395016                0.48885758               -0.81002885               -0.81405905                3.47667596               -0.04461248               -0.65339332               16.82498783
              37.39271277               12.75468191               90.34975832                0.02391265               -0.62963900               -0.65600635                1.72605405               -0.30766342               17.40866867              -14.74292919
              38.38822028                8.64478791               89.55548056                0.00010000               -0.44113987               -0.41887273                0.83229719               -0.83307085               34.14211358              -29.23170029
              39.38388997                4.53335110               88.72945860                0.00010000               -0.36039414                0.06581826               -0.49847042               -1.38289888               31.12113032              -43.64566724
              40.38101239                0.41860067               87.87858802                0.00010000               -0.09174279                0.59704401               -2.26779996               -2.04617897               28.23954191              -59.97973185
              41.38205511               -3.69875059               87.00262086                0.00010000                0.44894015                1.03740407               -4.44182033               -2.51763911               25.07207185              -78.43092469
              42.38999120               -7.81800410               86.09701029                0.00010000                1.30092075                1.29099330               -6.96113249               -2.61823239               21.49037250              -99.37562618
              43.40807353              -11.93897045               85.15724405                0.00010000                2.48745123                1.28043366               -9.74532772               -2.21741346               17.55044893             -123.10316841
              44.43974022              -16.06234819               84.17849144                0.00010000                4.03519604                0.95703926              -12.65538369               -1.24338015               13.01508926             -149.82849320
              45.48877745              -20.18977626               83.14986759                0.00010000                6.06000233                0.26745759              -15.47618470               -0.16376631                6.91322513             -179.95215294
              46.56094027              -24.33295977               82.04438781                0.44779573                7.21628174               -0.62086692              -17.89298921                1.64428700                3.94404627             -211.98697842
              40.50202109               17.84984320               91.20251682                0.48431332               -0.65910818               -0.67768618                3.18397312               -0.08202949                0.00273270               16.23635234
              41.49543001               13.74831097               89.90974314                0.01625324               -0.55767469               -0.54727716                1.11973202               -0.16548816               23.35420860              -12.89231504
              42.49086759                9.64221480               89.08302183                0.00010000               -0.55959080               -0.12389487                0.38370058               -0.41541001               45.78143148              -27.65523394
              43.48423819                5.53563285               88.23164607                0.00010000               -0.59265456                0.40061491               -0.98882459               -0.71758679               42.53644935              -42.30053114
              44.47901450                1.42658455               87.34226360                0.00010000               -0.25134724                1.00903020               -3.04605693               -1.14416829               37.91400371              -58.00419785
              45.47921125               -2.68560882               86.40707472                0.00010000                0.52003329                1.59565968               -5.76425492               -1.47109420               32.42267245              -75.51363971
              46.48941517               -6.80124913               85.41895543                0.00010000                1.75511905                2.06812517               -9.06603430               -1.56631096               26.29562409              -95.27710632
              47.51431363              -10.92095376               84.37167060                0.00010000                3.43518919                2.35495078              -12.80933938               -1.37432061               19.75448319             -117.62164433
              48.55811895              -15.04591203               83.25967952                0.00010000                5.46629128                2.41342809              -16.76214339               -0.98730303               12.95918682             -142.72229068
              49.62363945              -19.17909902               82.07699117                0.00010000                7.40991357                2.27532612              -20.57455350               -0.52962234                6.25708921             -170.33740571
              50.70631722              -23.32103378               80.82195034                0.44791347                8.26777717                2.60562354              -23.73621129                0.11524680                3.51594450             -199.19041028
              44.60223692               18.84335322               90.91118401                0.48588029               -0.52055182               -0.64749928                2.95661607               -0.08829612               -0.00249905               17.14841921
              45.59703141               14.74373637               89.46881358                0.01575575               -0.48233652               -0.33456286                0.45232789               -0.04168086               29.97793071              -13.00810347
              46.59259019               10.64231001               88.62535707                0.00010000               -0.59314625                0.16292579               -0.23186585               -0.09265642               58.72339794              -26.41745698
              47.58516848                6.54136340               87.75262293                0.00010000               -0.66097473                0.76445866               -1.71595877               -0.19912230               54.71125986              -40.08356035
              48.57937070                2.43878127               86.83242144                0.00010000               -0.23507864                1.46007866               -4.06581462               -0.44687465               48.74983197              -54.60960453
              49.58046691               -1.66683739               85.85003988                0.00010000                0.73196085                2.19289277               -7.26575229               -0.68620691               41.35453152              -70.67355316
              50.59400992               -5.77664160               84.79424281                0.00010000                2.23915519                2.89374365              -11.22179985               -0.83213961               33.02493692              -88.80834162
              51.62525001               -9.89187144               83.65671333                0.00010000                4.20647502                3.51103702              -15.75008181               -0.86762555               24.23281815             -109.40144599
              52.67813942              -14.01407963               82.43213732                0.00010000                6.40283741                4.03624620              -20.55199578               -0.81413980               15.48576334             -132.66783345
              53.75330676              -18.14426973               81.11910599                0.00010000                8.44876572                4.59855052              -25.18861249               -0.63662576                7.32052810             -158.55305589
              54.84711473              -22.28084730               79.72124961                0.44811426                9.38079707                5.30270212              -29.09192115                0.07128750                4.00956307             -186.91257492
              48.69948886               19.83689321               90.62367199                0.48631675               -0.38492720               -0.65197042                2.77164917               -0.08399185                0.07793528               17.57891960
              49.69563959               15.74161971               89.02953301                0.01536347               -0.40507162               -0.07672111               -0.24766790                0.00841103               37.40928786              -13.03792171
              50.69138743               11.64547331               88.18164224                0.00010000               -0.59275506                0.49992284               -0.98412603                0.05341715               73.21482471              -25.08467387
              51.68378449                7.55092202               87.30169763                0.00010000               -0.65548119                1.18476007               -2.62836615                0.09224262               68.47119849              -37.09257138
              52.67827781                3.45578612               86.36520213                0.00010000               -0.14372582                1.98315825               -5.26523877               -0.02145666               61.23032377              -49.82590169
              53.68090997               -0.64175097               85.35215053                0.00010000                0.97643067                2.86802734               -8.88783633               -0.19636231               52.10472752              -63.94408169
              54.69780642               -4.74337426               84.24702792                0.00010000                2.67445892                3.79828083              -13.39329910               -0.37645445               41.72254935              -80.01608137
              55.73439915               -8.85073302               83.03875726                0.00010000                4.82140172                4.74240281              -18.56957054               -0.52983764               30.72193830              -98.51273911
              56.79423445              -12.96518710               81.72092764                0.00010000                7.16377283                5.70920389              -24.07338213               -0.61541662               19.75226585             -119.80756656
              57.87767461              -17.08712801               80.29238721                0.00010000                9.33318282                6.73213240              -29.41887025               -0.50655005                9.43964524             -144.17970093
              58.98089811              -21.21497974               78.75770642                0.44832488               10.32235029                7.78537581              -33.99821822                0.09581967                5.09130585             -171.81500994
              52.79110409               20.83031381               90.33815879                0.48558611               -0.24845618               -0.66463264                2.56503943               -0.08649909                0.12385123               17.71930035
              53.78861953               16.74220194               88.59007338                0.01553125               -0.33739321                0.19670203               -0.93889341               -0.03986830               45.83525125              -13.18632615
              54.78435623               12.65230847               87.75614316                0.00010000               -0.59595020                0.89708082               -1.83665247               -0.00191302               89.71293051              -23.30546384
              55.77670052                8.56505860               86.88848605                0.00010000               -0.63708343                1.68242944               -3.67216243                0.14568341               84.25923937              -33.12762182
              56.77161456                4.47844443               85.95608020                0.00010000               -0.05002415                2.58800596               -6.58004210                0.13865374               75.74575996              -43.53359415
              57.77570004                0.39052315               84.93356194                0.00010000                1.19241627                3.62038997              -10.56975991                0.03004875               64.90878667              -55.23454202
              58.79546288               -3.70067598               83.80115029                0.00010000                3.03830315                4.76052799              -15.53693237               -0.14087573               52.47179023              -68.80299926
              59.83646610               -7.79702338               82.54420292                0.00010000                5.33815947                5.98501508              -21.25004397               -0.32524861               39.12674358              -84.78246746
              60.90222607              -11.89989555               81.15313746                0.00010000                7.82511473                7.28322090              -27.33394602               -0.44204058               25.55605932             -103.74383032
              61.99296840              -16.00962708               79.62403945                0.00010000               10.12542585                8.64836155              -33.26666389               -0.37710684               12.42624299             -126.26196196
              63.10473459              -20.12513979               77.95936664                0.44859292               11.17661900               10.03463884              -38.40886976                0.15137256                6.63996976             -152.82122928
              56.87398261               21.82360056               90.05196498                0.48438362               -0.11350445               -0.67173531                2.37878905               -0.09335080                0.17313814               17.54569016
              57.87284756               17.74555375               88.14907042                0.01627926               -0.27450474                0.46988496               -1.64881733               -0.16037145               55.55489128              -13.44719685
              58.86849251               13.66341493               87.35406398                0.00010000               -0.61426833                1.35123074               -2.74538499               -0.21099222              108.73724291              -20.89185815
              59.86056219                9.58457061               86.52424800                0.00010000               -0.64530892                2.24416087               -4.78131240                0.00206898              102.48666405              -27.86634722
              60.85558633                5.50754624               85.62131408                0.00010000                0.00345837                3.24877312               -7.93216554                0.08817588               92.58863279              -35.50621210
              61.86063136                1.43065683               84.61476676                0.00010000                1.34745535                4.41543857              -12.23727723                0.05652541               79.98467338              -44.40512217
              62.88253544               -2.64816370               83.48110551                0.00010000                3.32411960                5.73262030              -17.59495568               -0.07230274               65.46574673              -55.03256869
              63.92711375               -6.73103272               82.20158704                0.00010000                5.77309548                7.17126383              -23.75662630               -0.23974492               49.63622691              -67.94091097
              64.99799735              -10.81952268               80.76128046                0.00010000                8.41314748                8.70331390              -30.31547639               -0.34940707               33.05900999              -83.89203063
              66.09537670              -14.91416078               79.14999015                0.00010000               10.84768071               10.30221945              -36.71058341               -0.29450318               16.37457328             -103.90337496
              67.21495096              -19.01428696               77.36454554                0.44911196               11.95742595               11.93500351              -42.26715147                0.18685539                8.70727845             -128.92981728
              60.94533069               22.81687910               89.76246434                0.48255066                0.02670415               -0.66362565                2.15080554               -0.09916062                0.28880255               17.29586338
              61.94559773               18.75159964               87.70513745                0.01832242               -0.21055841                0.73488717               -2.34604321               -0.30671329               66.99808510              -14.08011242
              62.94111952               14.67933309               86.98258686                0.00010000               -0.64935699                1.83648372               -3.66007864               -0.48691446              130.94768760              -17.19892794
              63.93261059               10.60994182               86.22313425                0.00010000               -0.69138333                2.80408337               -5.86121495               -0.23528660              123.51234377              -20.79395753
              64.92729185                6.54341990               85.37859549                0.00010000               -0.00350517                3.90594086               -9.21611332               -0.06710768              111.88251390              -25.51046435
              65.93254049                2.47883193               84.41658569                0.00010000                1.42072630                5.19414059              -13.79445708               -0.02200211               97.48870911              -31.39644643
              66.95570638               -1.58602357               83.31179361                0.00010000                3.52448521                6.65303115              -19.49347347               -0.09752543               81.01290856              -38.69383096
              68.00303019               -5.65359810               82.04168106                0.00010000                6.13298039                8.24676424              -26.04331396               -0.22950059               62.76871133              -47.86524664
              69.07836599               -9.72582928               80.58404294                0.00010000                8.94062117                9.93080479              -32.99908091               -0.31815392               42.88168147              -59.71947411
              70.18184262              -13.80358270               78.91648993                0.00010000               11.51790403               11.66152436              -39.74573807               -0.25443486               21.72563796              -75.84449516
              71.30872407              -17.88643971               77.02355891                0.44940950               12.68814533               13.40855085              -45.55492768                0.20559202               11.57413924              -98.70843179
              65.00255831               23.81032805               89.47144448                0.47615091                0.17010038               -0.62481757                1.91818489               -0.09833485               -0.36026099               14.87425008
              66.00425931               19.76025150               87.25205772                0.01765429               -0.10731311                0.97917367               -3.06881680               -0.44784876               80.88807984              -13.03893841
              67.00041204               15.70014460               86.65859030                0.00010000               -0.62448293                2.19862527               -4.46952590               -0.54569974              157.48901023              -10.42984279
              67.99176965               11.64065228               86.00434732                0.00010000               -0.75289843                3.27279922               -6.75936612               -0.33941259              147.10007910              -11.40069043
              68.98535407                7.58566506               85.24643813                0.00010000               -0.10674309                4.48948192              -10.28385374               -0.15361147              133.39435649              -13.51613253
              69.98963479                3.53453964               84.35883425                0.00010000                1.38304419                5.88401038              -15.11786157               -0.08604832              117.44986498              -16.38762396
              71.01301496               -0.51510307               83.31656643                0.00010000                3.63473275                7.44796250              -21.14121708               -0.11837456               99.47127249              -20.08218031
              72.06232944               -4.56609744               82.09474455                0.00010000                6.43019523                9.14850224              -28.05456130               -0.19961369               79.40201618              -24.86471065
              73.14161886               -8.62090659               80.66471821                0.00010000                9.42845008               10.93088547              -35.37179328               -0.25639873               56.55271604              -31.29101398
              74.25089845              -12.68093029               78.98598304                0.00010000               12.15789888               12.72292476              -42.40860479               -0.19574725               29.75034795              -40.64946424
              75.38477684              -16.74611595               77.00616714                0.44988994               13.38783950               14.47249499              -48.32217942                0.24662572               15.93711478              -57.86964074
              69.04351709               24.80438275               89.13427179                0.73710260                0.33071048               -0.59452974                1.53671171                0.77591575                6.65648957               12.50783513
              70.04682420               20.77118312               86.82958230                0.45535573                0.31438235                1.09316223               -3.69645260                0.20263112              101.45255707              -11.55410702
              71.04980474               16.72330559               86.42222505                0.43862025               -0.32611581                2.31609890               -4.91060737                0.15000427              186.55285284               -5.32916317
              72.04030188               12.67539781               85.88872700                0.43762830               -0.97362409                3.47455267               -7.23545970                0.34842047              171.62109952               -5.82111516
              73.03033226                8.63320954               85.24154471                0.43748611               -0.43571150                4.75444777              -10.94112759                0.55353488              156.59494126               -6.81386837
              74.03158765                4.59651213               84.45764651                0.43769371                1.18218542                6.19724890              -16.06171928                0.68159350              139.74814905               -8.21701759
              75.05397597                0.56293568               83.51375038                0.43834476                3.66268889                7.80387517              -22.43529913                0.73909143              121.12117772              -10.01043621
              76.10484143               -3.47062806               82.38509341                0.44033799                6.70474499                9.54693775              -29.72454145                0.74383657              100.44494721              -12.34800875
              77.18807087               -7.50721157               81.04093534                0.44269953                9.91477989               11.36950222              -37.40697928                0.72039338               76.67799002              -15.58130526
              78.30313703              -11.54912420               79.43454581                0.44668330               12.79785136               13.18060898              -44.75942799                0.73494586               45.59048171              -20.42596983
              79.44402790              -15.59698982               77.45126846                0.72497570               14.08908664               14.91261318              -50.77855086                1.13854403               28.18424666              -33.10056049
              29.07247189               15.33204286               93.19441647                0.76697507               -0.99462570               -1.09661904                3.96037448               -0.29858903               -7.08160675                7.53858644
              30.06252563               11.08728685               92.23696600                0.49169473               -0.77492165               -0.72113191                2.64647761               -0.20856461               -8.74761778               -6.19856158
              31.05697345                6.84140507               91.24371483                0.45770951               -0.38763741               -0.36211184                1.61377955               -0.31045981               -7.72530762                0.15901320
              32.05477288                2.59600905               90.29801963                0.45035699               -0.03939719                0.00218662                0.58801604               -0.31843171               -4.87074076               -0.34225655
              33.05618551               -1.64828672               89.35549082                0.44917948                0.31674803                0.38121106               -0.42498443               -0.32245415               -4.42271468               -0.21727941
              34.06110784               -5.89133905               88.41519992                0.45124414                0.67049765                0.76771512               -1.45220427               -0.32535498               -4.39784527               -0.14954583
              35.06959546              -10.13329497               87.47246567                0.45574820                1.02724739                1.15718218               -2.51363298               -0.32506134               -4.95027850               -0.10465213
              36.08165279              -14.37459932               86.52291068                0.46517570                1.36779990                1.53812863               -3.60612533               -0.31710696               -6.02116185               -0.04542907
              37.09695146              -18.61653153               85.56252448                0.47915317                1.65741714                1.91374010               -4.71973148               -0.29874982               -7.79055530               -0.07977933
              38.11480113              -22.86159098               84.58289996                0.49802141                1.87608891                2.28796621               -5.83253968               -0.27497959               -8.52617464                0.58830823
              39.13447324              -27.11412152               83.61437688                0.75807707                1.96721065                2.67514276               -7.03401821                0.37265410               -8.34944824               -5.20465176
              33.31424200               16.32107667               92.81364592                0.51039029               -0.84831233               -0.79379272                3.45209701                0.11910650                6.31299146               12.90582467
              34.30575888               12.08007554               91.85427294                0.07219300               -0.73671209               -0.84662442                2.13547184                0.18271432               14.38975345              -11.42222675
              35.29950776                7.83778395               91.05538751                0.04486350               -0.46622087               -0.20342458                0.95484431                0.40336724               20.65016165              -14.90162004
              36.29643446                3.59603092               90.22807102                0.03752540               -0.14363716                0.29986913               -0.41079511                0.29039717               19.13691124              -21.91073908
              37.29663502               -0.64447461               89.40506480                0.03839522                0.19619785                0.71200722               -1.85387053               -0.00051621               19.06637458              -30.05494543
              38.30035842               -4.88366189               88.58090723                0.04020573                0.56699863                1.00217142               -3.35401748               -0.30370758               18.68366442              -39.51393133
              39.30797499               -9.12172315               87.75328027                0.04368996                0.98707929                1.13731530               -4.88834289               -0.45997631               18.13073571              -50.45403905
              40.32010000              -13.35921804               86.91983891                0.04886256                1.47424025                1.07688323               -6.41066499               -0.32203100               17.28390231              -63.00013335
              41.33745979              -17.59739413               86.07642351                0.05669205                2.03731640                0.78072932               -7.91780303                0.25149415               16.24179112              -77.21940565
              42.36084633              -21.83871132               85.22331353                0.06464338                2.66352624                0.23163872               -9.42397181                1.42247505               13.15496536              -93.17538399
              43.39073032              -26.08737009               84.31943468                0.49022723                2.98839873               -1.27616256              -10.75923462                4.20217088               10.53649560             -113.58466431
              37.55685628               17.31616700               92.53744305                0.48476198               -0.73836512               -0.43668632                3.20195948               -0.04328388               -0.74016683               17.22045731
              38.54947263               13.07035437               91.36635896                0.02313526               -0.38854315               -0.92333537                1.58721385                0.71750698               17.81654191              -14.93671235
              39.54908542                8.83733658               90.56487084                0.00010000               -0.33166222               -0.16126510                1.09035676                1.56132863               34.99369822              -28.61780796
              40.54283939                4.60200643               89.72655597                0.00010000               -0.66087123                0.52363345               -0.00843321                1.20029060               31.49545853              -42.62413426
              41.53586799                0.36595343               88.85841014                0.00010000               -0.52785791                1.04995051               -1.68225242                0.61707191               28.10606565              -58.87395857
              42.53228223               -3.87129562               87.96056457                0.00010000                0.00420419                1.37140488               -3.87799136               -0.00933420               24.46077543              -77.59717427
              43.53595208               -8.11054866               87.02913468                0.00010000                0.93004635                1.42011623               -6.53080184               -0.42312296               20.45796808              -99.15962170
              44.55088316              -12.35306166               86.06042797                0.00010000                2.27612751                1.11643447               -9.55388081               -0.40490337               16.21014526             -123.83805027
              45.58147463              -16.60091695               85.05114440                0.00010000                4.11717197                0.37764937              -12.79941290                0.22746205               11.59734432             -151.73519712
              46.63322659              -20.85695821               83.99280527                0.00010000                6.71797861               -0.95927062              -15.98852910                0.85225370                5.83470797             -183.11070759
              47.71583420              -25.13964477               82.86212114                0.44497516                8.26076063               -2.86283554              -18.68043985                2.67091471                3.47966352             -216.54061585
              41.80500160               18.31234294               92.23331857                0.48040222               -0.60621579               -0.39987335                2.97100575               -0.06383548               -0.02874798               16.73564158
              42.79893944               14.06160883               90.92043814                0.01625176               -0.29596664               -0.75217495                1.01493164                1.24734541               24.10626458              -13.20148355
              43.79908227                9.83455865               90.08915076                0.00010000               -0.35580073               -0.24892103                0.92033829                2.37468692               47.23093652              -27.25517752
              44.79182343                5.60650358               89.22563510                0.00010000               -0.84018822                0.43630376               -0.08977226                2.11596146               43.36372296              -41.53398160
              45.78227850                1.37652440               88.31618669                0.00010000               -0.75748032                1.09836332               -2.02385614                1.71234787               38.01231348              -57.17596549
              46.77667382               -2.85623380               87.35335361                0.00010000               -0.04999662                1.65803236               -4.83033369                1.28001936               31.78945726              -74.91377607
              47.78127857               -7.09332082               86.33085828                0.00010000                1.28481997                2.03686187               -8.41941017                0.93532313               25.00866426              -95.19999864
              48.80237022              -11.33688935               85.24398379                0.00010000                3.23135078                2.15386910              -12.63958652                0.77057369               18.00765587             -118.34246840
              49.84590558              -15.58984114               84.08971641                0.00010000                5.71245052                1.93661768              -17.22423608                0.68039853               11.13038679             -144.47975429
              50.91661923              -19.85789673               82.86601560                0.00010000                8.18080770                1.36735544              -21.73293288                0.44613885                4.99548646             -173.34751466
              52.00952174              -24.14462680               81.57715235                0.44519049                9.29025089                1.35157048              -25.46772734                0.60763008                2.93833695             -203.65708564
              46.05704780               19.30816954               91.94004422                0.48261843               -0.48439703               -0.45556617                2.82352094               -0.06360791               -0.00617487               17.75068260
              47.05220383               15.05531087               90.47298629                0.01615741               -0.26816992               -0.47982787                0.37334029                1.55269649               31.04603940              -13.41674318
              48.05168440               10.83235816               89.62618087                0.00010000               -0.45054823               -0.11137357                0.49680038                3.00399215               60.71518135              -26.26752212
              49.04319287                6.61073251               88.74055738                0.00010000               -0.94160348                0.51125515               -0.54185873                2.87559630               55.93715770              -39.62821768
              50.03285233                2.38792069               87.79739256                0.00010000               -0.77325133                1.26474777               -2.76009022                2.58324625               49.10495593              -54.09014189
              51.02772784               -1.83813497               86.78225688                0.00010000                0.12308794                2.03419996               -6.10910947                2.21007539               40.82888638              -70.32950898
              52.03531409               -6.06981142               85.68495872                0.00010000                1.75435566                2.73554603              -10.47778399                1.80413259               31.71433380              -88.88400270
              53.06281495              -10.30998428               84.49915477                0.00010000                4.03879476                3.30685301              -15.66662610                1.36615765               22.38224564             -110.14548838
              54.11608999              -14.56218459               83.22279329                0.00010000                6.70600395                3.73316639              -21.33278184                0.84882006               13.55464671             -134.33198518
              55.19693503              -18.82961110               81.85939762                0.00010000                9.26784786                4.19181399              -26.92762692                0.24406131                6.00339431             -161.39467303
              56.30144694              -23.11261336               80.41914628                0.44528582               10.45119125                4.86810967              -31.69025470                0.52724342                3.39723058             -191.20774164
              50.30944678               20.30323162               91.65109807                0.48368791               -0.36420320               -0.54107309                2.70004070               -0.07084809                0.06466690               18.19710865
              51.30580475               16.05201227               90.02681264                0.01596707               -0.28531553               -0.16688806               -0.29308845                1.62633096               38.73893680              -13.47590441
              52.30374047               11.83233118               89.17552254                0.00010000               -0.60159643                0.16254237               -0.12637935                3.20452846               75.66908221              -25.17585456
              53.29377282                7.61672869               88.28128131                0.00010000               -1.04647836                0.78330732               -1.28070121                3.25681153               70.05013691              -36.96252136
              54.28281090                3.40181936               87.31890692                0.00010000               -0.75826879                1.62104402               -3.79480239                3.06802795               61.83529535              -49.63135785
              55.27860744               -0.81554980               86.26860225                0.00010000                0.31998119                2.58109078               -7.62431678                2.71169943               51.73138626              -63.86294295
              56.28921053               -5.03860990               85.11600180                0.00010000                2.17295482                3.58819915              -12.64663734                2.22403253               40.48103095              -80.24816925
              57.32206654               -9.27075229               83.85230974                0.00010000                4.66491417                4.60226282              -18.63062872                1.62353910               28.88641657              -99.27779889
              58.38250881              -13.51517782               82.47486175                0.00010000                7.49313424                5.64804658              -25.18292398                0.93889837               17.81359647             -121.34197660
              59.47192923              -17.77406045               80.98794609                0.00010000               10.17811613                6.79834454              -31.70297073                0.30328602                8.11814687             -146.73525778
              60.58607113              -22.04726461               79.40311229                0.44571590               11.41419072                8.07036025              -37.38594249                0.51080422                4.46921857             -175.64651315
              54.55806953               21.29734808               91.36378540                0.48285713               -0.24386464               -0.62307175                2.56223232               -0.06902145                0.14973214               18.32076806
              55.55563089               17.05197311               89.58062124                0.01619152               -0.35054897                0.15040830               -0.95329306                1.50124541               47.37759654              -13.62438973
              56.55105856               12.83560901               88.74187294                0.00010000               -0.83949846                0.54571768               -0.89217253                3.00270739               92.52051167              -23.61100461
              57.53884092                8.62639865               87.85806290                0.00010000               -1.22835899                1.24278751               -2.22657856                3.22212441               86.12750197              -33.30317890
              58.52649138                4.42034157               86.89696111                0.00010000               -0.82249166                2.18676767               -5.03400722                3.12535766               76.55992722              -43.64251208
              59.52239109                0.21348685               85.83325423                0.00010000                0.42529277                3.31890309               -9.28674148                2.78605986               64.66485452              -55.39199791
              60.53499723               -3.99804744               84.64833374                0.00010000                2.47312820                4.58962706              -14.85970185                2.26239727               51.29087952              -69.16406935
              61.57185365               -8.21793902               83.33005062                0.00010000                5.15894452                5.97329057              -21.50005018                1.61028953               37.30354891              -85.52982558
              62.63817612              -12.44922366               81.87291494                0.00010000                8.16169478                7.47673595              -28.77857673                0.92045386               23.60658039             -105.07556496
              63.73508755              -16.69364421               80.27884514                0.00010000               10.99476105                9.12877352              -36.05351281                0.32307495               11.09454962             -128.37888294
              64.85807134              -20.95120616               78.55762943                0.44621777               12.29837968               10.92285820              -42.48189668                0.52175611                6.00833774             -155.91290841
              58.79881629               22.29077018               91.07601280                0.48187664               -0.12475650               -0.67181281                2.41459059               -0.06900842                0.18098155               18.11425595
              59.79756873               18.05502044               89.13273197                0.01687700               -0.47236097                0.44126646               -1.60594028                1.25016827               57.24697521              -13.87269177
              60.78936907               13.84324553               88.33094429                0.00010000               -1.20429913                1.04109027               -1.74512523                2.51293499              111.81157757              -21.37609389
              61.77348274                9.64158444               87.48291185                0.00010000               -1.55696039                1.88203907               -3.29185786                2.83022659              104.57000404              -28.28989998
              62.75822986                5.44555471               86.54869550                0.00010000               -1.03825438                2.93867359               -6.37497578                2.77977498               93.53996875              -35.85173219
              63.75271766                1.25082826               85.49754069                0.00010000                0.38272369                4.21058428              -10.99882251                2.47092412               79.79117046              -44.73595716
              64.76588434               -2.94681736               84.30709153                0.00010000                2.63654477                5.68493095              -17.04171019                1.96747101               64.26086949              -55.46328750
              65.80544855               -7.15128647               82.96128686                0.00010000                5.53693700                7.33468183              -24.23098818                1.34780853               47.74202553              -68.61353865
              66.87662308              -11.36564310               81.44963954                0.00010000                8.74623350                9.14507334              -32.09932961                0.72889116               31.02824642              -84.95250276
              67.98037322              -15.59148498               79.76822409                0.00010000               11.75035375               11.11872566              -39.95649122                0.24496287               14.99061157             -105.47645557
              69.11163015              -19.82880745               77.92160695                0.44636401               13.12569314               13.27182023              -46.91305372                0.48934358                8.04552849             -131.10510144
              63.02818886               23.28391182               90.78448271                0.48052721               -0.00299562               -0.68966798                2.23400125               -0.08615792                0.30829553               17.81363657
              64.02815890               19.06079844               88.68210324                0.01881493               -0.67178026                0.70451333               -2.23983023                0.97405461               68.81744525              -14.49104005
              65.01475325               14.85643081               87.95047308                0.00010000               -1.75113150                1.67806580               -2.62194322                1.89587586              134.22629114              -17.78939393
              65.99313627               10.66403943               87.17102044                0.00010000               -2.09551035                2.67813174               -4.36108997                2.12682208              125.74114249              -21.34260676
              66.97284305                6.47911504               86.29296769                0.00010000               -1.44773176                3.79939419               -7.68850878                2.07539479              112.86440386              -25.96299062
              67.96418164                2.29769853               85.28333372                0.00010000                0.18091713                5.17047687              -12.64494426                1.82290442               97.20857581              -31.78639366
              68.97646139               -1.88434882               84.11796826                0.00010000                2.67269599                6.78602230              -19.10748145                1.40570029               79.63009642              -39.10278419
              70.01763556               -6.07124538               82.77725142                0.00010000                5.82455312                8.61215806              -26.77788862                0.88877459               60.64890688              -48.39526919
              71.09295245              -10.26632219               81.24385394                0.00010000                9.27577967               10.60647811              -35.14022285                0.39490284               40.63799332              -60.46518239
              72.20315115              -14.47126970               79.50228206                0.00010000               12.47753439               12.73885180              -43.43181175                0.07683866               20.21007591              -76.85178682
              73.34250314              -18.68576975               77.54543253                0.44647695               13.93519890               15.02764191              -50.69048689                0.41892848               10.84097899              -99.93014091
              67.24331990               24.27697682               90.49139985                0.47354692                0.12109245               -0.67452399                2.05566961               -0.09280289               -0.36524504               15.31595352
              68.24453083               20.06911070               88.22211307                0.01787250               -0.96371556                0.93838315               -2.89493703                0.81568492               82.87100248              -13.41677147
              69.22404559               15.87680685               87.61853892                0.00010000               -2.55979361                2.52455998               -3.39251950                1.14690177              161.00286943              -10.91782438
              70.19333495               11.69514707               86.94328082                0.00010000               -2.89834638                3.47660767               -5.24772972                1.14840940              149.38783210              -11.83846536
              71.16607866                7.52154259               86.14992613                0.00010000               -2.03476711                4.63591139               -8.79481577                1.07267014              134.23603543              -13.86638679
              72.15263961                3.35423780               85.21180299                0.00010000               -0.15682025                6.06654444              -14.07825044                0.93310044              116.86841043              -16.67056206
              73.16294226               -0.81109691               84.10529364                0.00010000                2.62789018                7.76967174              -20.95491361                0.68150634               97.67975277              -20.34662112
              74.20519741               -4.97904331               82.80875447                0.00010000                6.08015951                9.70711164              -29.09067977                0.36286446               76.82761631              -25.16911510
              75.28454545               -9.15351354               81.29887915                0.00010000                9.80800690               11.81453905              -37.91672895                0.06367095               53.88887446              -31.68485316
              76.40135755              -13.33670795               79.54287268                0.00010000               13.22316946               14.00929524              -46.57420433               -0.07326506               27.97106229              -41.13869550
              77.54900884              -17.52825461               77.49808780                0.44695012               14.76512840               16.24977618              -53.93670354                0.38087787               15.06387861              -58.29264698
              71.44206504               25.27042134               90.15075218                0.73620185                0.25775335               -0.65554842                1.74025353                0.78899009                6.87321782               12.89282369
              72.44464258               21.07956610               87.79365863                0.45408670               -1.52050608                1.04553949               -3.45715608                1.83620873              103.88125870              -11.90478717
              73.41165492               16.90692201               87.37823389                0.43786130               -3.66369298                3.01151624               -3.72567264                1.46120766              190.34481482               -5.70985527
              74.37136872               12.73357159               86.82323330                0.43757360               -3.82246006                3.84245157               -5.64641889                1.04893940              173.76057446               -6.18764113
              75.33520572                8.57183327               86.13846720                0.43748655               -2.79427808                5.02906776               -9.44570652                1.18559748              156.99660100               -7.12623134
              76.31548316                4.41902942               85.30072051                0.43761473               -0.59165440                6.47916184              -15.11576604                1.24492147              138.53950560               -8.47420489
              77.32337263                0.27104461               84.28853369                0.43809736                2.59131567                8.21415258              -22.46015316                1.23640905              118.60471499              -10.22417629
              78.36730947               -3.87710315               83.08080902                0.43927698                6.42589365               10.19401637              -31.09950876                1.15740418               97.12203602              -12.53299658
              79.45189051               -8.03003141               81.65255244                0.44132317               10.45587273               12.34821220              -40.42149166                1.03547378               73.30786741              -15.74516410
              80.57642692              -12.19108379               79.96518973                0.44442896               14.06617574               14.56241564              -49.51605498                0.96979629               43.28180686              -20.55380479
              81.73321402              -16.36077423               77.91574243                0.72325745               15.67870969               16.74803790              -57.01619035                1.45147453               26.93855726              -32.98166076
              29.96574125               15.79072127               94.23211445                0.76083691               -0.86350633               -0.95069827                3.56578212               -0.25403598               -7.06002501                7.52134062
              30.95710618               11.41045307               93.26217697                0.48560701               -0.46347712               -0.68594731                2.38689269                0.03024258               -8.56096653               -6.20861038
              31.95647170                7.03450303               92.25944203                0.45647364                0.03566803               -0.30991873                1.52022661               -0.25963391               -7.25988489                0.12754668
              32.95781954                2.66739708               91.30427731                0.44958852                0.23351488                0.01682877                0.66267231               -0.27726718               -4.32217304               -0.36526375
              33.96114200               -1.69294294               90.35250068                0.44885615                0.42837254                0.35683832               -0.16549896               -0.30331181               -3.84114587               -0.21348754
              34.96638699               -6.04904049               89.40285001                0.44983139                0.63594754                0.70403081               -1.00759937               -0.31573257               -3.84826052               -0.14481338
              35.97386095              -10.40331778               88.45035747                0.45387621                0.87324926                1.04989969               -1.88751587               -0.31181346               -4.46135898               -0.09863447
              36.98385198              -14.75804083               87.49077028                0.45999615                1.12543607                1.39584431               -2.79671155               -0.30264798               -5.59010085               -0.05360079
              37.99636967              -19.11537200               86.52018590                0.47019214                1.34692910                1.73111572               -3.73687498               -0.30581051               -7.40417169               -0.08364315
              39.01079056              -23.47850162               85.53024325                0.48512022                1.50589358                2.06404513               -4.66494118               -0.27326172               -8.21867662                0.54052018
              40.02648754              -27.85203879               84.55045294                0.74933172                1.56969835                2.39847944               -5.68931617                0.55273439               -8.11579888               -5.05256715
              34.34346908               16.78121429               93.84651802                0.50242871               -0.79513560               -0.45389140                3.11189261                0.35976452                6.32432482               13.03011699
              35.33551773               12.40359360               92.87460453                0.06874815               -0.90328608               -1.03353049                1.92489449                0.73495979               14.44617311              -11.45389062
              36.32540336                8.03140384               92.06417799                0.04403586               -0.83739352                0.20827355                0.79505904                1.76986464               20.52292502              -14.39377435
              37.31876986                3.66756536               91.22343712                0.03658490               -0.45378477                0.79536291               -0.51468691                2.08309447               18.79607799              -21.01637976
              38.31632767               -0.68937456               90.38635727                0.03707309               -0.01763850                1.14712744               -1.89236095                1.92087745               18.61207206              -29.00119031
              39.31841709               -5.04200018               89.54741011                0.03827374                0.44576595                1.29500211               -3.34174292                1.53574328               18.17259938              -38.55475140
              40.32524299               -9.39281878               88.70481466                0.04084076                0.92177599                1.22716194               -4.79798462                1.16720042               17.60902418              -49.84828224
              41.33685261              -13.74408239               87.85636832                0.04474138                1.41494875                0.90822513               -6.25923628                1.05863412               16.79043869              -62.98979053
              42.35354196              -18.09806084               86.99847261                0.05057675                1.97693663                0.25134809               -7.67921014                1.45806755               15.77890482              -77.98575190
              43.37639134              -22.45786117               86.13059939                0.05603717                2.60050499               -0.80954331               -9.11434017                2.68555746               12.77450467              -94.73721125
              44.40555206              -26.82805400               85.21368026                0.48102896                2.91607208               -3.47254839              -10.33550170                6.25142988               10.22904623             -115.64903809
              38.72817791               17.78164344               93.56798935                0.48043641               -0.65620906                0.03702855                2.90923577                0.00079715               -0.82974575               17.62616812
              39.72161582               13.38978246               92.38150260                0.02266066               -0.01403406               -1.29698196                1.43802043                2.16152160               18.37264276              -15.14932235
              40.72789723                9.03866850               91.57728770                0.00010000               -0.06779938                0.21986853                1.44501550                4.92039356               36.16175485              -27.49097489
              41.72025983                4.68330433               90.72928993                0.00010000               -0.93860669                1.16932186                0.63421383                4.85189849               32.07862440              -40.78307385
              42.70912510                0.32999961               89.84494297                0.00010000               -0.98568752                1.67286892               -0.91365223                4.43849056               28.10047303              -56.78969274
              43.70054608               -4.02314045               88.92506103                0.00010000               -0.49189675                1.82117688               -3.11250791                3.65687838               23.89846731              -75.73658906
              44.69928716               -8.37877454               87.96639425                0.00010000                0.48603164                1.58728197               -5.90184190                2.84897089               19.37521999              -98.00415661
              45.71026672              -12.73987633               86.96616643                0.00010000                2.00113195                0.87762277               -9.20259950                2.35927557               14.68777439             -123.84154822
              46.73930980              -17.11034504               85.92250318                0.00010000                4.21140740               -0.45475802              -12.87806756                2.51683769                9.87271724             -153.27896625
              47.79449487              -21.49469248               84.83009701                0.00010000                7.62959993               -2.73902436              -16.59258043                2.42885925                4.45446539             -186.34875308
              48.89190180              -25.92148976               83.67077901                0.44230464                9.74069354               -6.15733192              -19.74234343                4.18319338                2.86590728             -221.74859883
              43.12720699               18.78195486               93.26193694                0.47740555               -0.54838861               -0.05280376                2.75506240               -0.02752120               -0.05805077               17.28636479
              44.12172310               14.37765396               91.93004177                0.01651492                0.15411876               -1.03777307                0.90076100                3.20230416               25.16935001              -13.57157563
              45.13028936               10.03580121               91.10142859                0.00010000                0.13768109               -0.40403537                1.61942576                6.23616706               49.30183873              -26.45339768
              46.12447672                5.69095180               90.22985063                0.00010000               -0.93735496                0.49242538                1.06081882                6.03608558               44.67161642              -40.09338674
              47.11154226                1.34408282               89.30178648                0.00010000               -1.20739593                1.21292965               -0.70433445                5.70583891               38.47848625              -55.52675713
              48.10032880               -3.00557665               88.31046805                0.00010000               -0.62919909                1.72321190               -3.57889451                5.18882132               31.40755536              -73.45005174
              49.09895828               -7.36107315               87.25056723                0.00010000                0.76399036                1.96546848               -7.46926589                4.55791251               23.81667453              -94.31635511
              50.11560861              -11.72652993               86.11887887                0.00010000                2.98682944                1.83845827              -12.24440359                3.93553936               16.16107869             -118.42801188
              51.15869487              -16.10715600               84.91519479                0.00010000                6.02523177                1.22401839              -17.63480090                3.17839923                9.03555354             -145.88879140
              52.23611325              -20.51264165               83.64233251                0.00010000                9.20578032                0.02994045              -23.11422373                1.92410776                3.47479549             -176.44492788
              53.34281048              -24.95120063               82.31259580                0.44277923               10.66972295               -0.47361571              -27.74585648                1.32711247                2.21736339             -208.83652830
              47.53622929               19.78058737               92.96765443                0.48045907               -0.44137362               -0.24303226                2.68455519               -0.04873330               -0.02593898               18.37399923
              48.53181555               15.36902700               91.47628038                0.01676985                0.15467228               -0.65936439                0.28539594                3.71355886               32.54264442              -13.88194760
              49.53932273               11.03058779               90.63529308                0.00010000                0.04421954               -0.47685350                1.42807958                7.20684418               63.55566097              -25.81333558
              50.53269994                6.69315284               89.74178576                0.00010000               -0.97762042                0.16071376                0.93971744                7.02982637               57.83844994              -38.63751267
              51.51977032                2.35425820               88.77721964                0.00010000               -1.16107332                0.97537975               -1.09641491                6.71457265               50.01270652              -52.90485641
              52.50947847               -1.98867621               87.72785769                0.00010000               -0.41858127                1.77847319               -4.57783772                6.21953213               40.72903866              -69.27114586
              53.51139870               -6.33946517               86.58468713                0.00010000                1.27909425                2.46802417               -9.38804749                5.51651574               30.65588203              -88.27878110
              54.53506036              -10.70310716               85.34338081                0.00010000                3.87954044                2.96725442              -15.34846644                4.56297165               20.56457594             -110.33606696
              55.58898951              -15.08586467               84.00548168                0.00010000                7.09806468                3.25038581              -22.11102445                3.25943306               11.46512702             -135.68785413
              56.67702165              -19.49409368               82.58055345                0.00010000               10.32862521                3.56804827              -29.02847743                1.52881773                4.49650977             -164.32123250
              57.79556201              -23.93096207               81.08744452                0.44298320               11.85403578                4.24037421              -35.10946330                1.17014052                2.67651103             -196.17083336
              51.94935305               20.77709421               92.67767281                0.48142205               -0.33592021               -0.43864685                2.61014191               -0.05286683                0.07538900               18.81298720
              52.94599385               16.36446667               91.02367124                0.01670868                0.04736761               -0.26160912               -0.33691682                3.77191447               40.58045628              -13.95930490
              53.95030041               12.02626414               90.17911466                0.00010000               -0.22955031               -0.29605841                0.95793373                7.38507358               79.10925965              -25.04141738
              54.94140285                7.69416608               89.27608360                0.00010000               -1.13188175                0.21058212                0.40470446                7.43943618               72.43068543              -36.42442686
              55.92766277                3.36359041               88.28930608                0.00010000               -1.14800128                1.07737112               -1.93685636                7.18390929               63.11616489              -48.91377052
              56.91844282               -0.97000718               87.19966419                0.00010000               -0.19716122                2.12104831               -5.96260431                6.64214749               51.90895026              -63.20357971
              57.92371955               -5.31171266               85.99409518                0.00010000                1.74123600                3.22090408              -11.54431452                5.79538658               39.61410639              -79.91111953
              58.95326754               -9.66718484               84.66614469                0.00010000                4.55752485                4.32550795              -18.47340270                4.62299513               27.19610555              -99.56189616
              60.01487004              -14.04214828               83.21726916                0.00010000                7.92597331                5.48400125              -26.35156886                3.12389025               15.80695367             -122.58454812
              61.11178701              -18.44128069               81.65832780                0.00010000               11.25400192                6.83054628              -34.48147324                1.44391918                6.66037446             -149.31575935
              62.23995008              -22.86639315               80.00998757                0.44351054               12.81630759                8.45347271              -41.83063663                1.07729159                3.76256279             -179.96601141
              56.36042703               21.77181443               92.38940343                0.48152063               -0.23431232               -0.59529230                2.54055800               -0.06141881                0.15680463               18.88877062
              57.35808391               17.36379482               90.57100752                0.01692330               -0.15511163                0.10756264               -0.95846388                3.48569588               49.45546220              -14.08160244
              58.35732480               13.02466663               89.73829971                0.00010000               -0.69607574                0.05143858                0.29674519                6.89067205               96.38740761              -23.75863195
              59.34416240                8.69736448               88.84395448                0.00010000               -1.48515156                0.58244997               -0.42466250                7.19736121               88.85641934              -33.18756286
              60.32762177                4.37580562               87.85540006                0.00010000               -1.32689471                1.54573019               -3.08418964                7.02371810               78.11264449              -43.36197737
              61.31762450                0.05374475               86.74782711                0.00010000               -0.15688390                2.79326914               -7.59448288                6.43816023               65.03847745              -55.09915425
              62.32448409               -4.27504709               85.50395625                0.00010000                2.01656924                4.23243500              -13.82635143                5.49726808               50.55143149              -69.06073027
              63.35795589               -8.61659700               84.11420192                0.00010000                5.05395325                5.83402729              -21.55091940                4.25005822               35.68599077              -85.85956495
              64.42556316              -12.97618464               82.57756592                0.00010000                8.60945085                7.63182736              -30.33391507                2.79346274               21.63515107             -106.11292832
              65.53014490              -17.35748275               80.90296920                0.00010000               12.08848053                9.70769416              -39.43516713                1.28632702                9.65104378             -130.41406382
              66.66733277              -21.76189262               79.10972871                0.44367278               13.71878642               12.11005265              -47.77902797                1.01629972                5.30173730             -159.22740848
              60.76416390               22.76518837               92.10025679                0.47967178               -0.13083272               -0.70248208                2.41425627               -0.06561896                0.20303193               18.62002138
              61.76285557               18.36661793               90.11695161                0.01746951               -0.48098597                0.43014625               -1.53509116                2.99884506               59.47427925              -14.28642484
              62.75454418               14.02729292               89.31916148                0.00010000               -1.43222500                0.56419786               -0.48456552                5.93002444              115.94004519              -21.76902397
              63.73421107                9.70581508               88.45841085                0.00010000               -2.13936590                1.26781161               -1.43103145                6.39942673              107.51695055              -28.53438972
              64.71175686                5.39450502               87.49381456                0.00010000               -1.80761681                2.35619166               -4.40129112                6.23440007               95.23653958              -35.93794302
              65.69805874                1.08585820               86.39479031                0.00010000               -0.38750992                3.75485003               -9.34182746                5.62589786               80.22278735              -44.74424749
              66.70400667               -3.22706396               85.14027130                0.00010000                2.06737589                5.43828639              -16.13007373                4.67720110               63.50197310              -55.53886391
              67.73940626               -7.55050430               83.71696727                0.00010000                5.38091891                7.38129514              -24.51690467                3.48594934               46.05295840              -68.94078120
              68.81162504              -11.88951174               82.11929387                0.00010000                9.19076327                9.59060534              -34.02486229                2.19547790               28.97064767              -85.72569072
              69.92322152              -16.24712681               80.35086032                0.00010000               12.87353850               12.11078646              -43.85578954                0.98201386               13.48928086             -106.86647567
              71.06909581              -20.62419210               78.42628446                0.44395132               14.58742925               15.01846194              -52.87478104                0.88896719                7.30265410             -133.23839526
              65.15625554               23.75776479               91.80714437                0.47747150               -0.02992760               -0.74053639                2.27992720               -0.05355171                0.34094664               18.30172862
              66.15595626               19.37239774               89.66034084                0.01923460               -0.97636999                0.68713750               -2.09619010                2.49352537               71.14548709              -14.89937449
              67.13672814               15.03595058               88.93014799                0.00010000               -2.55087178                1.33671943               -1.30550882                4.75402357              138.51041406              -18.35260673
              68.10493883               10.72272072               88.13591245                0.00010000               -3.22307464                2.29275195               -2.47660321                5.04534417              128.79158321              -21.81838564
              69.07226665                6.42292946               87.22482531                0.00010000               -2.66136950                3.41663989               -5.73360382                4.79583928              114.54810185              -26.28124338
              70.05171144                2.12884175               86.16368680                0.00010000               -0.89380177                4.89417070              -11.06880312                4.21829653               97.50131588              -31.98265122
              71.05439061               -2.16628136               84.92964398                0.00010000                1.92056052                6.72315165              -18.36001361                3.39195068               78.63058415              -39.27785135
              72.09012265               -6.46897110               83.50612328                0.00010000                5.58523046                8.87334832              -27.32971010                2.38994135               58.66539983              -48.67800008
              73.16609522              -10.78437254               81.88123848                0.00010000                9.71714455               11.31047931              -37.44073880                1.36785917               38.30465818              -60.97488339
              74.28446554              -15.11526702               80.04785370                0.00010000               13.65737370               14.02574643              -47.80082356                0.53693406               18.53802218              -77.64175827
              75.43924269              -19.46152338               78.00974917                0.44413349               15.47771555               17.09566567              -57.17897576                0.70078225               10.00261775             -100.92837096
              69.53382696               24.75037764               91.51255787                0.47112510                0.07133299               -0.71151200                2.14200586               -0.05604526               -0.36671679               15.74288374
              70.53454029               20.38036068               89.19415898                0.01801401               -1.72626382                0.87992582               -2.66166360                2.23305345               85.33348513              -13.79399690
              71.49930168               16.05402730               88.59073991                0.00010000               -4.32006007                2.68839808               -2.02095988                3.08538332              165.45776500              -11.42086706
              72.44813909               11.75167011               87.89939272                0.00010000               -4.88745344                3.45096567               -3.34013598                2.95758736              152.42790419              -12.28023656
              73.40155261                7.46283782               87.07054182                0.00010000               -3.82517992                4.53366549               -6.87194454                2.62909578              135.68308074              -14.17885620
              74.37163549                3.18374161               86.07726924                0.00010000               -1.59470388                6.01756188              -12.61056717                2.25805459              116.73775016              -16.87431227
              75.36965853               -1.09260093               84.89746816                0.00010000                1.68303840                7.91267048              -20.41252955                1.74061045               96.12881938              -20.50189999
              76.40529626               -5.37303733               83.51293095                0.00010000                5.78098058               10.17870118              -29.95919341                1.12197654               74.23541154              -25.34880131
              77.48527815               -9.66330215               81.90638363                0.00010000               10.29073949               12.74555570              -40.64834712                0.50888685               50.99072886              -31.94792289
              78.61111105              -13.96661188               80.05449896                0.00010000               14.51730156               15.52163098              -51.45856603                0.10705019               25.94374078              -41.48298353
              79.77562418              -18.28227878               77.92743307                0.44411875               16.45131319               18.47955424              -60.93115674                0.55585675               14.03361920              -58.48106576
              73.89516856               25.74353455               91.16907686                0.73491622                0.17991044               -0.68430909                1.88221880                0.78033178                7.08938103               13.26977427
              74.89696767               21.38999626               88.76043918                0.45222336               -3.40210984                0.96355852               -3.13201436                3.55193789              106.80636923              -12.25751795
              75.82712637               17.08971855               88.34771160                0.43810658               -7.08438022                3.56912406               -2.22140694                2.86965709              195.08000591               -6.18342166
              76.75528006               12.79174003               87.77579862                0.43730883               -6.71746517                4.00699155               -3.64356971                1.90830880              176.54479077               -6.63550373
              77.69277706                8.51360276               87.05263057                0.43749441               -5.14843949                5.07649491               -7.51117544                1.99509325              157.82635866               -7.49233242
              78.65231127                4.24919299               86.15533119                0.43728217               -2.33976487                6.54513783              -13.75024271                1.98604274              137.56212692               -8.75751396
              79.64598177               -0.00802795               85.06454732                0.43798043                1.54760639                8.45729746              -22.15172478                1.90281972              116.08406502              -10.44165103
              80.68326340               -4.26539708               83.76310323                0.43844424                6.19328679               10.76402546              -32.34660994                1.72504124               93.51992211              -12.70256754
              81.76984750               -8.52946142               82.23250550                0.43968525               11.11598866               13.38407290              -43.68456771                1.48506948               69.43591059              -15.87101360
              82.90558318              -12.80483440               80.44422471                0.44213795               15.59230712               16.17774759              -55.07996308                1.32366941               40.50672651              -20.60596721
              84.08169364              -17.09193229               78.31094465                0.72214276               17.61104691               19.03464892              -64.72764985                1.89715733               25.36844975              -32.64860102
              30.87114634               16.25366253               95.26573211                0.75462539               -0.71676176               -0.78584137                3.14824760               -0.19938439               -7.02480344                7.49054670
              31.86397873               11.73825954               94.28470385                0.47944457               -0.07354603               -0.65874414                2.11312769                0.34544193               -8.34587791               -6.20546884
              32.86967542                7.23448407               93.27411936                0.45461124                0.56460191               -0.24212800                1.41445383               -0.24794490               -6.71454354                0.08206501
              33.87527076                2.75038415               92.31127307                0.44893704                0.55572355                0.03065465                0.73653744               -0.24708736               -3.67455381               -0.38565939
              34.88078989               -1.72026964               91.35218085                0.44838721                0.55075388                0.33289372                0.10170991               -0.27562604               -3.15798092               -0.20614834
              35.88628584               -6.18335552               90.39504793                0.44924843                0.58290598                0.63875688               -0.54794255               -0.28890367               -3.20291995               -0.13576422
              36.89244801              -10.64418204               89.43471536                0.45122049                0.68682540                0.94564723               -1.23525007               -0.30067083               -3.88265837               -0.07847910
              37.90002235              -15.10686743               88.46697645                0.45467782                0.84735215                1.24574259               -1.96279417               -0.30694158               -5.08813710               -0.04916028
              38.90939506              -19.57477783               87.48778698                0.46347974                1.00691036                1.53513740               -2.71990673               -0.29009493               -6.94056588               -0.08048368
              39.92016056              -24.05149286               86.48960113                0.47360906                1.11714094                1.81835507               -3.43565306               -0.24566158               -7.80850709                0.47691049
              40.93173788              -28.54162750               85.50059055                0.74209982                1.15773187                2.09505751               -4.26613156                0.72769803               -7.77085198               -4.83641606
              35.38455549               17.24580411               94.87588378                0.49558308               -0.75331167               -0.01955352                2.75505034                0.69122418                6.31391550               13.14215758
              36.37702237               12.73167210               93.89277083                0.06569370               -1.17109103               -1.31644312                1.70597732                1.49535442               14.43324720              -11.46877661
              37.36113367                8.23206279               93.07128870                0.04303161               -1.34228133                0.78912034                0.62578608                3.69381809               20.25031843              -13.57953478
              38.35017675                3.75069070               92.21777728                0.03533374               -0.81151005                1.47736496               -0.61845820                4.62411746               18.30829843              -19.61936421
              39.34490347               -0.71694070               91.36721759                0.03535606               -0.24118695                1.74999987               -1.93430601                4.68289070               18.00949221              -27.33244015
              40.34535301               -5.17696795               90.51407237                0.03595402                0.31468962                1.71350894               -3.30699905                4.23647914               17.52352391              -36.93998444
              41.35119726               -9.63472557               89.65732058                0.03769200                0.84489107                1.38988409               -4.69154677                3.62305077               16.95943259              -48.62799240
              42.36225083              -14.09441000               88.79465419                0.04034090                1.38047818                0.72321300               -6.07608231                3.19032380               16.16980356              -62.50100795
              43.37880682              -18.55942646               87.92283931                0.04444258                1.94389749               -0.42203118               -7.41797182                3.33520156               15.18149624              -78.49514516
              44.40112878              -23.03330931               87.04102672                0.04777323                2.51713374               -2.20867682               -8.74654136                4.63145213               12.28879458              -96.34863182
              45.42914950              -27.52067693               86.11272464                0.47274939                2.80207204               -6.59523914               -9.83881099                9.26576154                9.85626975             -118.02592110
              39.91323486               18.25327146               94.59562777                0.47788972               -0.56077263                0.63005200                2.60974788                0.01969283               -0.93310866               18.04765845
              40.90762713               13.71193068               93.39511937                0.02266874                0.56491625               -1.81362814                1.27919952                4.14037165               19.12906597              -15.39178837
              41.92453319                9.25026648               92.59377115                0.00010000                0.45647358                0.77112633                1.90421259                9.60886465               37.76608932              -25.73514708
              42.91675661                4.77993145               91.73924024                0.00010000               -1.12134162                2.07246645                1.42912619                9.95925041               32.99883556              -37.96135335
              43.90210635                0.31473036               90.84013710                0.00010000               -1.39781567                2.53266442                0.04352325                9.86552732               28.39214352              -53.52710178
              44.88880029               -4.14908534               89.89831442                0.00010000               -0.98776363                2.44682316               -2.12087840                8.97882251               23.59645142              -72.63187776
              45.88235108               -8.61638436               88.91109784                0.00010000               -0.01352903                1.83923812               -5.00919923                7.73430783               18.45721174              -95.68749154
              46.88852971              -13.09240317               87.87637598                0.00010000                1.63236573                0.58730222               -8.59857581                6.59396530               13.15011738             -122.93320244
              47.91499839              -17.58321845               86.79358305                0.00010000                4.27551798               -1.55845077              -12.80074290                6.05464786                7.91302774             -154.34458564
              48.97404007              -22.09566640               85.66095367                0.00010000                8.83949735               -5.19712095              -17.25281190                4.86357637                2.73741673             -189.74115458
              50.09178834              -26.67353229               84.46727427                0.44029508               11.77482705              -10.86729736              -21.12691031                6.42305829                2.04611425             -228.04513743
              44.46763091               19.25840515               94.28841981                0.47536103               -0.47961260                0.33210962                2.53127390                0.00155099               -0.09762068               17.84867781
              45.46283478               14.69539953               92.93845336                0.01713374                0.88396403               -1.39441149                0.78111059                5.84355526               26.62986398              -14.00132685
              46.48531019               10.24748532               92.12153928                0.00010000                1.10315457               -0.59305465                2.47969795               11.47497767               52.19761382              -25.16964360
              47.48489787                5.79214002               91.24685148                0.00010000               -0.70396934                0.59089139                2.44375381               11.37529834               46.69063147              -37.85731914
              48.47123080                1.33371259               90.30210000                0.00010000               -1.44268489                1.37867980                0.89183183               11.23783326               39.61903300              -52.91403547
              49.45604418               -3.12803149               89.28177572                0.00010000               -1.10147788                1.81656556               -2.00062871               10.71937159               31.66046883              -70.96294347
              50.44920124               -7.59794081               88.18147296                0.00010000                0.24600262                1.87346828               -6.15367236                9.79625325               23.12582577              -92.45988759
              51.46096423              -12.08266396               86.99909571                0.00010000                2.69808825                1.42158655              -11.51522841                8.60637735               14.55425228             -117.72990105
              52.50316301              -16.59059547               85.73702039                0.00010000                6.38749549                0.26012075              -17.88663433                6.93168591                6.87286045             -146.88206295
              53.58871414              -21.13725173               84.40373113                0.00010000               10.50897161               -1.81823172              -24.69199017                4.17174564                1.76018304             -179.72890291
              54.71334244              -25.73802287               83.02223522                0.44056228               12.46283036               -2.99447609              -30.69990633                2.39321957                1.36593427             -215.13448211
              49.03927712               20.25991365               93.99373533                0.47902510               -0.38590464               -0.03313950                2.52230899               -0.02078118               -0.03887920               18.97760778
              50.03541807               15.68404245               92.47869421                0.01762525                0.90075642               -0.86502493                0.20080216                6.58144916               34.57593667              -14.39673641
              51.05729225               11.23840539               91.65474246                0.00010000                1.13086152               -0.94945601                2.54460521               12.79549728               67.48740920              -24.99700844
              52.05803530                6.79174928               90.75935173                0.00010000               -0.51288592               -0.30343003                2.68233658               12.55978984               60.70404126              -37.02239084
              53.04703453                2.34230396               89.77546426                0.00010000               -1.15970924                0.58254707                0.87217574               12.29097524               51.86736807              -50.94238475
              54.03484112               -2.11275403               88.69070012                0.00010000               -0.70629567                1.42203384               -2.69240700               11.73671169               41.55458156              -67.36800809
              55.03290862               -6.57891499               87.49719777                0.00010000                0.92354024                2.09196986               -7.91085594               10.72967531               30.38911594              -86.85078810
              56.05331192              -11.06397144               86.19218544                0.00010000                3.76556340                2.49263170              -14.69909082                9.13746992               19.25423225             -109.84324694
              57.10821988              -15.57801604               84.78057280                0.00010000                7.57952325                2.58212247              -22.79432001                6.76210875                9.53523847             -136.66355598
              58.20490239              -20.13203103               83.27882807                0.00010000               11.64875707                2.72301703              -31.50190000                3.41491951                2.94020903             -167.40078321
              59.34119503              -24.73342181               81.71695702                0.44093285               13.62926370                3.45769217              -39.56844205                2.09394186                1.89846471             -202.13548172
              53.61895769               21.25774236               93.70330090                0.47973162               -0.29856642               -0.36870728                2.51285319               -0.02831633                0.10194135               19.38696699
              54.61597203               16.67809903               92.02007430                0.01758567                0.72778061               -0.34908776               -0.38425181                6.55898083               43.03433756              -14.47617053
              55.63351330               12.22849620               91.19468122                0.00010000                0.81115368               -0.90079195                2.23749585               12.82699435               83.79472758              -24.63571538
              56.63219510                7.78607142               90.28937540                0.00010000               -0.59798462               -0.57145611                2.35659567               12.88504941               75.92607137              -35.40345230
              57.62155361                3.34536353               89.28016980                0.00010000               -1.00988711                0.31447963                0.22754135               12.60874379               65.51260837              -47.57336536
              58.61199736               -1.09959081               88.14935017                0.00010000               -0.32707264                1.45658374               -3.94833547               11.91491921               53.20281911              -61.84177236
              59.61501216               -5.55610141               86.88511551                0.00010000                1.54086562                2.67384084              -10.06400608               10.67609598               39.74095276              -78.86234561
              60.64281467              -10.03281132               85.48284169                0.00010000                4.57263099                3.90092673              -18.01648277                8.79001282               26.20809550              -99.22304116
              61.70646478              -14.53895302               83.94783037                0.00010000                8.48018132                5.22545501              -27.50398522                6.19559591               14.12186156             -123.43195770
              62.81241830              -19.08279139               82.29831662                0.00010000               12.57690262                6.87865082              -37.79572948                3.05636169                5.25045734             -151.91717951
              63.95800283              -23.66886903               80.56649955                0.44094229               14.55845333                9.06852955              -47.61234219                1.86183737                3.04609766             -184.94835587
              58.19799745               22.25253950               93.41459656                0.47950687               -0.21535960               -0.61563426                2.48375130               -0.02140114                0.17470489               19.38635165
              59.19584385               17.67706069               91.56145197                0.01767865                0.39311484                0.09297915               -0.94568993                6.00138229               52.17156632              -14.54497484
              60.20585975               13.22038955               90.74780785                0.00010000                0.15125538               -0.62397142                1.68674727               11.82284503              101.55866457              -23.70457670
              61.19886896                8.78032015               89.84956965                0.00010000               -1.04940535               -0.35663737                1.64684815               12.25887850               92.76111170              -32.70895418
              62.18487164                4.34859355               88.83527732                0.00010000               -1.21322599                0.60035312               -0.82686235               12.05425368               80.85875301              -42.59310499
              63.17460444               -0.08362235               87.68136458                0.00010000               -0.26102950                1.98372152               -5.54951911               11.23437875               66.62318538              -54.22798273
              64.17965105               -4.52543818               86.37180671                0.00010000                1.86796756                3.64095196              -12.41997546                9.82020633               50.90868875              -68.34057751
              65.21196379               -8.98595290               84.89903223                0.00010000                5.12304086                5.53939309              -21.32263956                7.83008626               34.86851455              -85.60903378
              66.28211187              -13.47350694               83.26623664                0.00010000                9.19909199                7.75617754              -31.92560297                5.35865448               20.06202349             -106.70857921
              67.39594563              -17.99445801               81.49014180                0.00010000               13.42375963               10.45461944              -43.45846873                2.61028327                8.29605930             -132.27227243
              68.55058706              -22.55205122               79.60204887                0.44137690               15.46414268               13.76366101              -54.59459856                1.68228621                4.60251744             -162.76307526
              62.76948729               23.24542968               93.12429793                0.47731795               -0.13376664               -0.74470927                2.38461180               -0.01623661                0.25591369               19.04613374
              63.76814963               18.67995862               91.10203015                0.01800951               -0.13882771                0.42714428               -1.44400507                5.14041282               62.33149101              -14.68549383
              64.76671074               14.21601677               90.32125298                0.00010000               -0.94904793               -0.12946524                0.99185688               10.12551216              121.34554422              -22.02143421
              65.74916867                9.77893868               89.45429122                0.00010000               -2.00647741                0.31848459                0.70938784               10.83877395              111.62841400              -28.53213328
              66.72658119                5.35737059               88.46066967                0.00010000               -1.92260057                1.40846852               -2.10879883               10.61520175               98.12987531              -35.67004521
              67.71071666                0.94008362               87.31070415                0.00010000               -0.64171796                2.95944644               -7.31817898                9.70659432               81.87815122              -44.30491029
              68.71374683               -3.48328237               85.98449005                0.00010000                1.83842493                4.91677356              -14.83200937                8.24392310               63.85296195              -55.10668034
              69.74748516               -7.92202346               84.47094876                0.00010000                5.41980733                7.25919200              -24.51775889                6.34190808               45.17197851              -68.75133743
              70.82214298              -12.38382947               82.76914229                0.00010000                9.78415421               10.02986541              -35.99707083                4.17638984               27.31191524              -86.03505921
              71.94316824              -16.87369900               80.89110830                0.00010000               14.23459887               13.33572613              -48.43144045                1.98444663               12.07195827             -107.90743328
              73.10683496              -21.39359581               78.86411133                0.44140525               16.36667161               17.32827195              -60.41805836                1.41919357                6.55999461             -135.18876955
              67.32861484               24.23764532               92.83008125                0.47569697               -0.05498204               -0.77638348                2.26362272               -0.03937200                0.36569139               18.69763252
              68.32806502               19.68560358               90.64017943                0.01951187               -0.96124533                0.65869082               -1.90129867                4.25118908               74.04913043              -15.26519816
              69.30938993               15.21780024               89.92436290                0.00010000               -2.68871991                0.74045665                0.24479233                8.11713389              143.99542019              -18.84551190
              70.27429062               10.78668985               89.12148838                0.00010000               -3.66796001                1.53587459               -0.29712923                8.59425681              132.93906137              -22.16825915
              71.23603073                6.37676292               88.17829561                0.00010000               -3.24506647                2.63948086               -3.44215925                8.20796472              117.37328605              -26.38976583
              72.20938929                1.97556657               87.06195766                0.00010000               -1.46970685                4.25117771               -9.10387102                7.29429945               98.95878413              -31.88245209
              73.20663659               -2.42710271               85.75076798                0.00010000                1.49798829                6.36220599              -17.20127398                5.98872313               78.67256930              -39.09075596
              74.23934906               -6.84076906               84.23065722                0.00010000                5.53393037                8.95120853              -27.57299740                4.38490452               57.41417299              -48.56435817
              75.31731520              -11.27290963               82.49503916                0.00010000               10.30259253               12.00452272              -39.76928955                2.68373057               36.29971001              -61.08295955
              76.44540091              -15.72774349               80.54626558                0.00010000               15.07246765               15.54801867              -52.83120258                1.17192722               16.90509207              -78.03224301
              77.61876455              -20.20548578               78.40185302                0.44198264               17.33636482               19.72622030              -65.23070383                1.07467341                9.13507495             -101.49730430
              71.87278334               25.22990201               92.53423996                0.46883910                0.02351459               -0.74332355                2.13325121               -0.05129791               -0.37706521               16.07294182
              72.87301848               20.69313243               90.16887980                0.01795952               -2.24080950                0.81258875               -2.33736091                3.74970489               88.30745265              -14.10386621
              73.82796715               16.23082590               89.57811972                0.00010000               -5.54636775                2.57549797               -0.39732487                5.25146983              170.99921970              -11.91294801
              74.76209113               11.80965617               88.87647810                0.00010000               -6.30516957                3.06799338               -1.12512449                5.11946219              156.46957308              -12.70124444
              75.70186376                7.41016021               88.01248723                0.00010000               -5.08114290                4.05230958               -4.60146815                4.58103029              138.15755303              -14.41338747
              76.66046827                3.02510717               86.95959165                0.00010000               -2.60034124                5.60943388              -10.74116168                3.96106016              117.63550453              -16.94066709
              77.64985693               -1.35603825               85.69704304                0.00010000                1.02609499                7.75779921              -19.44433254                3.12694123               95.46147773              -20.47375982
              78.68099017               -5.74299929               84.20957060                0.00010000                5.64675440               10.46349989              -30.50575909                2.13499515               72.20203149              -25.31577308
              79.76279202              -10.14373902               82.48591221                0.00010000               10.90963810               13.66071029              -43.39885908                1.12163547               48.25398908              -31.97829912
              80.89918293              -14.56273863               80.51370136                0.00010000               16.05104874               17.25444277              -56.99539092                0.36945054               23.84844398              -41.56101159
              82.08381300              -18.99907141               78.27946466                0.44153265               18.46300622               21.23581811              -69.45786326                0.78565075               12.91067901              -58.26948070
              76.40112803               26.22277885               92.18839656                0.73363962                0.10071918               -0.71231613                1.92341538                0.74211922                7.27846089               13.57178171
              77.40213522               21.70185535               89.73101834                0.45104142               -5.16162170                0.87229166               -2.69091772                5.23824120              110.20821740              -12.54760802
              78.29789559               17.26931020               89.33380575                0.43748127              -10.23948310                3.84842985               -0.44372346                4.30256254              200.87443687               -6.76553811
              79.19734556               12.84804971               88.75036190                0.43708615               -9.28476316                3.83935447               -1.32663772                2.95038815              180.19487664               -7.17355358
              80.11220033                8.45780911               87.98824369                0.43710880               -7.12683027                4.76489012               -5.23511017                3.01893421              159.47533117               -7.91122509
              81.05480895                4.08775525               87.02571566                0.43748911               -3.74592232                6.26480778              -11.99869188                2.94627642              137.36595092               -9.05708572
              82.03728188               -0.27194672               85.84549919                0.43751147                0.74703865                8.40915286              -21.43985356                2.77977924              114.17396406              -10.64761753
              83.06974972               -4.63149906               84.43387682                0.43792614                6.11026806               11.15002266              -33.30312771                2.48852018               90.17757698              -12.83693180
              84.15948724               -8.99969542               82.77886108                0.43876461               11.91862904               14.40435925              -47.01579695                2.11174380               65.40356441              -15.93073546
              85.30812231              -13.38265464               80.86359047                0.44027089               17.38279411               18.00839892              -61.37457467                1.84023762               37.38830573              -20.53692024
              86.50714313              -17.78076941               78.62118943                0.72096366               19.90208216               21.83019900              -74.05280400                2.52153530               23.48427548              -32.00188288
              31.78730170               16.72022888               96.29507940                0.74938705               -0.55003282               -0.60670922                2.70350728               -0.13475442               -6.97288611                7.43787462
              32.78180137               12.07020974               95.30443953                0.47394754                0.41549544               -0.64071884                1.82240229                0.77647769               -8.09825901               -6.19054176
              33.79561161                7.44180567               94.28773110                0.45387387                1.22328059               -0.16443032                1.30057186               -0.19754600               -6.09873995                0.01477154
              34.80626698                2.84667548               93.31900806                0.44862061                0.92979562                0.05354319                0.80453118               -0.17325780               -2.94081657               -0.40987695
              35.81420752               -1.72713939               92.35453488                0.44837888                0.67635492                0.31597750                0.36262896               -0.22251773               -2.39152932               -0.19765940
              36.81979408               -6.28980466               91.39189115                0.44863621                0.50358708                0.57383044               -0.09406176               -0.24887164               -2.48336318               -0.10839238
              37.82427926              -10.85009780               90.42565247                0.44911451                0.46117640                0.83366856               -0.58949741               -0.27168634               -3.24378166               -0.05563197
              38.82901761              -15.41437951               89.45151439                0.45150894                0.53272043                1.08774347               -1.13020225               -0.27819243               -4.52251299               -0.04016464
              39.83493367              -19.98708632               88.46578776                0.45646846                0.63996180                1.33265155               -1.68430594               -0.28518621               -6.39541618               -0.07241035
              40.84181685              -24.57181459               87.46153019                0.46348711                0.70789966                1.56282530               -2.19376327               -0.25094357               -7.32561728                0.43410848
              41.84909167              -29.17303529               86.46513031                0.73526757                0.72748184                1.77791549               -2.82425603                0.89692426               -7.35768200               -4.57923334
              36.43597329               17.71416178               95.90161903                0.48904697               -0.71955384                0.49158495                2.38437237                1.12561914                6.27709502               13.22919887
              37.42877775               13.06380255               94.90872408                0.06332282               -1.52850056               -1.69727874                1.48590079                2.51259860               14.34744907              -11.47505614
              38.40540328                8.44016136               94.07669371                0.04197835               -1.98854091                1.59546541                0.44386800                6.34474446               19.83853014              -12.40854664
              39.38900694                3.84721091               93.21106796                0.03382001               -1.25904333                2.41637948               -0.71611032                8.17313154               17.65700188              -17.64516139
              40.38022241               -0.72397962               92.34767115                0.03325145               -0.51111808                2.58572718               -1.95960734                8.62045031               17.24823690              -24.96116322
              41.37878457               -5.28406636               91.48127013                0.03322301                0.18137047                2.31616542               -3.23622504                8.19693904               16.71240420              -34.57175133
              42.38384982               -9.84176112               90.61098373                0.03409656                0.79726864                1.67105234               -4.53363277                7.33274271               16.15360848              -46.67489442
              43.39472995              -14.40350207               89.73484667                0.03562572                1.34747628                0.56988028               -5.82392107                6.48837798               15.40854135              -61.40224887
              44.41079935              -18.97375981               88.85011318                0.03830419                1.87759744               -1.21657550               -7.08897727                6.26873690               14.45444094              -78.67861426
              45.43228190              -23.55618633               87.95566856                0.03988930                2.42411323               -4.02026973               -8.31499705                7.61193986               11.67943456              -98.06369668
              46.45928161              -28.15525614               87.01690404                0.46498301                2.69997186              -10.94338938               -9.29379762               13.64757974                9.34926521             -120.92861871
              41.11053255               18.73006057               95.62018431                0.47605874               -0.44787828                1.33295368                2.30374338                0.08106882               -1.04980600               18.46328170
              42.10605376               14.03626417               94.40708659                0.02338355                1.42827972               -2.48749879                1.12201926                6.80387814               20.14004450              -15.66918313
              43.13909814                9.47371498               93.61537195                0.00010000                1.39084155                1.56378327                2.45942541               15.95895700               39.93911385              -23.24755827
              44.13387059                4.89500307               92.75787246                0.00010000               -1.06021731                3.32415095                2.33907052               16.97909356               34.42699085              -34.02055448
              45.11789379                0.32457515               91.84581343                0.00010000               -1.61781136                3.72272796                1.14165511               17.51459222               29.24969428              -48.93121746
              46.10151437               -4.24348135               90.88264347                0.00010000               -1.37619802                3.34225666               -0.91784322               16.70643686               23.93162226              -68.10788978
              47.09036983               -8.81667676               89.86621027                0.00010000               -0.53652537                2.26951461               -3.80200968               15.04022156               18.12944491              -91.97983564
              48.09078386              -13.40298190               88.79419492                0.00010000                1.13114178                0.32823281               -7.61381829               13.08376004               11.95670787             -120.86312123
              49.11299267              -18.01141783               87.66648832                0.00010000                4.23840563               -2.90136014              -12.41083096               11.57396174                5.90839690             -154.78445759
              50.17555197              -22.65221998               86.48504077                0.00010000               10.35950991               -8.44538898              -17.87011844                8.66674715                0.70065218             -193.39566705
              51.32018287              -27.39190308               85.24824081                0.43824577               14.46308954              -17.41584400              -22.87368966                9.72365864                0.99199583             -235.97100045
              45.82518749               19.74082086               95.31256241                0.47400802               -0.39865712                0.75989298                2.30137244                0.07324118               -0.13176296               18.40874720
              46.82120092               15.01405258               93.94566399                0.01823642                2.03280163               -1.83964187                0.66111518                9.34447806               28.56620762              -14.49254801
              47.86584352               10.47143703               93.15102255                0.00010000                2.82638567               -0.81046432                3.46374193               18.44783043               56.12325482              -23.34896835
              48.87772863                5.91369393               92.27872570                0.00010000                0.15775800                0.75890187                3.96259387               18.56131409               49.70571981              -34.74715043
              49.86899868                1.35047494               91.31962311                0.00010000               -1.17817032                1.63827786                2.64280321               18.84801735               41.89182232              -49.24503314
              50.85416522               -3.21722122               90.27045548                0.00010000               -1.24219373                1.99352670               -0.17771419               18.52382289               33.18990564              -67.32930519
              51.84415480               -7.79637083               89.12749378                0.00010000               -0.15094992                1.82766357               -4.45354976               17.38048348               23.67542810              -89.47253866
              52.85114622              -12.39693742               87.88857430                0.00010000                2.36809291                0.96319117              -10.31948715               15.52849671               13.86228728             -116.07731461
              53.89151666              -17.03178701               86.55746211                0.00010000                6.74779301               -0.92639638              -17.80129436               12.59511433                5.09250393             -147.34425516
              54.98610208              -21.72509411               85.14849271                0.00010000               12.08021610               -4.22374246              -26.38282682                7.60518195                0.03288773             -183.28481510
              56.13312098              -26.50357302               83.69859767                0.43875248               14.70189006               -6.30164810              -34.48551989                4.00663656                0.43060412             -223.09509522
              50.56553393               20.74525843               95.01810061                0.47676610               -0.32067801                0.15757347                2.36373909                0.05416917               -0.02393905               19.58240791
              51.56232715               15.99947133               93.48029643                0.01875606                2.14397326               -1.09335340                0.11420984               10.31733151               37.22961305              -14.98907219
              52.60841340               11.45750569               92.68618518                0.00010000                3.18659051               -1.54762907                3.77184635               20.08800601               72.74229590              -23.78871858
              53.62605896                6.91018110               91.79543249                0.00010000                0.86779485               -0.89074097                4.52781820               19.82710421               64.87888603              -34.73323934
              54.62576929                2.35734071               90.79466315                0.00010000               -0.36111828                0.09175537                2.94988679               19.75747837               55.23644317              -48.12942565
              55.61883660               -2.20361082               89.67400955                0.00010000               -0.40367982                0.98570696               -0.60363350               19.29620333               44.11018151              -64.51018431
              56.61769570               -6.78012349               88.42647001                0.00010000                0.89666912                1.64011562               -6.07826502               18.03925058               31.85355860              -84.44798293
              57.63676998              -11.38371808               87.04939899                0.00010000                3.76779773                1.92224822              -13.61742250               15.68730467               19.33416680             -108.49295381
              58.69305165              -16.02994576               85.54959528                0.00010000                8.13358194                1.76678672              -23.22995704               11.86694652                8.40054813             -137.12631401
              59.79944162              -20.73669483               83.95051545                0.00010000               13.21108781                1.70780523              -34.31219978                6.20173019                1.63988567             -170.66058860
              60.95727341              -25.51793604               82.29607568                0.43890853               15.78317907                2.65604487              -45.34203018                3.44513805                1.18436305             -209.47849716
              55.31784508               21.74397233               94.72792987                0.47752274               -0.25447917               -0.33569972                2.41946715                0.05513689                0.14306922               19.93164524
              56.31530029               16.99218551               93.01598621                0.01857048                1.95243903               -0.42659249               -0.43618468               10.12444568               46.18385207              -15.04563908
              57.35689386               12.44048445               92.22386457                0.00010000                2.95677007               -1.67511823                3.60540925               19.78303049               89.95652683              -23.93258880
              58.37443569                7.89587911               91.32321552                0.00010000                1.05231538               -1.59557641                4.36794451               19.88408992               80.89613219              -33.84907462
              59.37794017                3.35231005               90.29385691                0.00010000                0.15588972               -0.69485324                2.45055065               19.69232085               69.63869736              -45.52400852
              60.37755349               -1.19750708               89.12069748                0.00010000                0.35534531                0.57209692               -1.77767640               18.94218255               56.49421220              -59.64390456
              61.38504708               -5.76356851               87.79281505                0.00010000                1.85805534                1.94451517               -8.27161791               17.31545744               41.89808898              -76.91968922
              62.41471459              -10.35849245               86.30581503                0.00010000                4.83926339                3.34166630              -17.18249015               14.56217555               26.90955223              -98.04858862
              63.48183234              -14.99645128               84.66718945                0.00010000                9.17061875                4.91388061              -28.50825196               10.50984248               13.48660710             -123.68730640
              64.59812697              -19.69093801               82.90241321                0.00010000               14.13369126                7.04874763              -41.64169123                5.34056985                4.24988561             -154.44025956
              65.76450617              -24.45045212               81.05774073                0.43892503               16.63792015               10.15850712              -55.06642720                2.96336701                2.47180116             -190.70138729
              60.07021031               22.73854444               94.43907846                0.47759468               -0.19063632               -0.66729890                2.40318373                0.03813657                0.22011407               19.80477385
              61.06830394               17.99093948               92.55209372                0.01839731                1.50850495                0.09975370               -0.92367591                9.13444666               55.59830022              -15.01347755
              62.10038041               13.42400332               91.77203466                0.00010000                2.18056068               -1.50876352                3.15226758               17.98151135              108.23409306              -23.40758874
              63.11191516                8.87826958               90.87689145                0.00010000                0.63107495               -1.63127110                3.75300534               18.61836469               98.18944035              -31.79907094
              64.11300190                4.34344365               89.83886281                0.00010000                0.08218282               -0.71121163                1.46671049               18.47814096               85.41826713              -41.22322996
              65.11355881               -0.19216888               88.63683673                0.00010000                0.59941551                0.83369966               -3.36166125               17.47855329               70.32017760              -52.61265472
              66.12499022               -4.74123318               87.25555674                0.00010000                2.36687195                2.77048378              -10.70964908               15.55291679               53.42716092              -66.78525775
              67.16089625               -9.31688475               85.68774913                0.00010000                5.53519210                5.06682072              -20.73262233               12.65220142               35.86768146              -84.52072753
              68.23569406              -13.93166815               83.93905386                0.00010000                9.96788026                7.87179157              -33.41162513                8.85181715               19.63851776             -106.59505431
              69.36025386              -18.59571988               82.03379982                0.00010000               14.99374577               11.47693753              -48.10738703                4.42334649                7.40074175             -133.72040376
              70.53556897              -23.31476590               80.01783674                0.43944760               17.53151147               16.13402419              -63.24828577                2.58457167                4.06682126             -166.36790822
              64.81381774               23.73062635               94.14794903                0.47545757               -0.12873979               -0.83845171                2.30480192                0.01355794                0.30094757               19.32730132
              65.81253034               18.99418058               92.08807151                0.01837869                0.76881275                0.46523264               -1.32239533                7.70180528               65.85244415              -15.02537889
              66.82919399               14.41030918               91.33899861                0.00010000                0.74161629               -1.09148578                2.54853841               15.20101502              128.19743412              -22.07868702
              67.82736266                9.86325369               90.47259860                0.00010000               -0.56262724               -1.05504611                2.88773609               16.28244128              117.22444521              -28.19814753
              68.81794145                5.33808582               89.45163858                0.00010000               -0.77806417               -0.00635344                0.23319729               16.10871988              102.82637824              -34.91855783
              69.81180138                0.81916691               88.24842673                0.00010000                0.14399192                1.72370444               -5.12428763               14.93056393               85.65085428              -43.23670488
              70.82082128               -3.70815884               86.84363112                0.00010000                2.31961036                4.02918547              -13.19226358               12.89146385               66.37227155              -53.93495145
              71.85819359               -8.25715604               85.22661210                0.00010000                5.84412635                6.90023244              -24.11705518               10.11910354               46.10872313              -67.77068104
              72.93770381              -12.83901545               83.39935245                0.00010000               10.57490297               10.44332528              -37.83126692                6.82718899               26.79450021              -85.57618925
              74.06969165              -17.46139926               81.38223152                0.00010000               15.82929175               14.86074697              -53.61446011                3.33717382               11.10043603             -108.28017307
              75.25428965              -22.12777164               79.21792330                0.43967422               18.45979992               20.39715511              -69.79198008                2.12277988                5.96679011             -136.63364761
              69.54337300               24.72177541               93.85241682                0.47293978               -0.07157787               -0.85525902                2.16184917                0.00628490                0.40865680               18.89492174
              70.54265722               20.00024413               91.62231487                0.01950211               -0.40226986                0.66319321               -1.64358657                6.23387237               77.53815941              -15.50814658
              71.53532760               15.40217361               90.93504384                0.00010000               -1.64349389               -0.19918407                1.89538928               11.97091513              150.78743920              -19.21146903
              72.50978734               10.85716865               90.12996986                0.00010000               -2.80322602                0.27590055                1.94178719               12.84716683              138.47354871              -22.31091856
              73.47926308                6.34331658               89.15598213                0.00010000               -2.56862960                1.32680869               -1.06697044               12.43926158              121.92739434              -26.17037803
              74.45841475                1.84230521               87.98160938                0.00010000               -1.00603207                3.10016826               -6.91799504               11.20111678              102.46052349              -31.32377987
              75.45914244               -2.66064947               86.58561850                0.00010000                1.78600902                5.56757528              -15.63551590                9.34512678               80.80025892              -38.33788390
              76.49413493               -7.17888010               84.95466334                0.00010000                5.86693083                8.72918235              -27.33894982                7.00609812               57.88940053              -47.81262527
              77.57648106              -11.72280164               83.08585269                0.00010000               11.08092974               12.61626950              -41.87628817                4.44492636               35.35089765              -60.51075748
              78.71575353              -16.29850494               80.99122965                0.00010000               16.71441359               17.31211322              -58.37425815                2.04073348               15.66294703              -77.70259309
              79.91076933              -20.90682280               78.70513509                0.43961288               19.50158028               23.03834118              -74.99592461                1.56928921                8.37937151             -101.26027140
              74.25700598               25.71352117               93.55522289                0.46662024               -0.01964008               -0.75592065                2.00198793               -0.00161113               -0.36293661               16.23642108
              75.25680958               21.00744445               91.14741176                0.01760541               -2.26591063                0.72614429               -1.90977019                5.29349667               91.75820583              -14.28942406
              76.21168777               16.40632550               90.58279341                0.00010000               -5.68232748                2.04310576                1.34619634                7.56355952              177.66568805              -12.34945029
              77.14316303               11.86877170               89.87689023                0.00010000               -6.50488232                2.16663498                1.16604596                7.66244058              161.77105124              -13.05564538
              78.08159012                7.36462199               88.97851246                0.00010000               -5.16866328                3.02743892               -2.22266338                7.00327125              142.22891085              -14.49791460
              79.03978977                2.88117027               87.86244601                0.00010000               -2.63404955                4.67490237               -8.61209965                6.12653559              120.42991865              -16.77027781
              80.02890913               -1.59680733               86.50858151                0.00010000                1.03389770                7.13784365              -18.01456379                4.92073920               96.71116039              -20.13849196
              81.06046772               -6.08257239               84.90281577                0.00010000                5.86590197               10.40659821              -30.50606657                3.47176984               71.70679260              -24.92364905
              82.14622717              -10.58669006               83.03840645                0.00010000               11.70298747               14.44138807              -45.84752441                1.95697401               46.38697814              -31.60361255
              83.29452747              -15.11515699               80.91459114                0.00010000               17.80419884               19.15769555              -62.94902141                0.74763294               22.02343216              -41.16350910
              84.50231115              -19.66700481               78.53827580                0.44003955               20.77836789               24.57016527              -79.56150188                1.08581303               11.82362748              -57.37573521
              78.95549422               26.70665699               93.20754516                0.73266707                0.02286051               -0.68641755                1.83011986                0.65982609                7.39025460               13.74292220
              79.95572283               22.01476702               90.70662082                0.44954119               -6.51113400                0.73225707               -2.12218410                6.71026084              113.97380072              -12.72726760
              80.82527154               17.44303572               90.33883713                0.43712208              -12.54915837                3.67102278                1.46169484                5.64509378              207.73309374               -7.46084859
              81.70473966               12.90050135               89.74926587                0.43726935              -10.91708048                3.17296560                1.05587559                4.19914403              184.92796566               -7.79881458
              82.60692993                8.40386536               88.94792837                0.43725902               -8.11824350                3.92433629               -2.87153471                4.29907567              162.48467715               -8.36382735
              83.54237479                3.93580326               87.91535735                0.43735386               -4.28150205                5.46329818              -10.00699914                4.17060424              138.80419463               -9.34267872
              84.52129989               -0.51789260               86.63575025                0.43738785                0.55391311                7.89147327              -20.27541822                3.91150579              113.89812933              -10.80654468
              85.55345305               -4.97074814               85.09704068                0.43682561                6.34526244               11.18242515              -33.71175533                3.49446877               88.05220397              -12.89684258
              86.64820514               -9.43397388               83.29218956                0.43770771               12.87839455               15.27161731              -50.04564867                2.96765217               61.86699444              -15.87434504
              87.81102094              -13.91535103               81.21673321                0.43865532               19.39880450               19.98059662              -68.11104726                2.57706659               34.19598246              -20.26995752
              89.03618123              -18.41541949               78.82988857                0.71990607               22.51602869               25.15853210              -84.97890796                3.38016136               21.33794628              -30.88058140
              32.71296837               17.18934077               97.31980226                0.74493938               -0.36065272               -0.40575756                2.22370005               -0.05422310               -6.89039664                7.34867463
              33.70936185               12.40587961               96.32115190                0.46986548                1.00818604               -0.63556978                1.50915777                1.32915815               -7.80653118               -6.14376290
              34.73313210                7.65685428               95.30013080                0.45237911                2.01444033               -0.06032700                1.17737418               -0.14781033               -5.42464936               -0.07032440
              35.74965065                2.95806681               94.32736370                0.44833586                1.34720563                0.08562573                0.86219400               -0.09861223               -2.14811626               -0.41558322
              36.76007621               -1.71049536               93.35943342                0.44799375                0.79251664                0.30528394                0.60021883               -0.15842373               -1.58123532               -0.17615106
              37.76550099               -6.36428131               92.39316670                0.44766258                0.39364670                0.51260251                0.32317988               -0.19433989               -1.73200036               -0.07215371
              38.76794914              -11.01595719               91.42292541                0.44785140                0.19679061                0.71759441                0.01179563               -0.22832461               -2.56983848               -0.02163715
              39.76943680              -15.67433529               90.44437241                0.44868678                0.17608988                0.91997829               -0.33461908               -0.26044276               -3.91105078               -0.00415638
              40.77147094              -20.34487687               89.45410086                0.45112680                0.24344323                1.11775636               -0.69498485               -0.27732604               -5.79528921               -0.06760168
              41.77430566              -25.03108744               88.44572587                0.45568504                0.29565243                1.29936099               -0.99841410               -0.23204414               -6.76388814                0.38136303
              42.77738399              -29.73675963               87.44410543                0.73040643                0.30783246                1.43998322               -1.41418226                1.06076623               -6.83249559               -4.27415094
              37.49588730               18.18528319               96.92357122                0.48392555               -0.69906305                1.11264716                2.00693579                1.69736166                6.20612017               13.27932444
              38.48889667               13.39952391               95.92248884                0.06220115               -2.01634555               -2.21362524                1.27099593                3.84231762               14.15422573              -11.46254421
              39.45556039                8.65625101               95.08016606                0.04119441               -2.82786603                2.70660965                0.24714796                9.93983306               19.27517851              -10.82021531
              40.43233935                3.95892307               94.20345507                0.03218538               -1.79471791                3.68979006               -0.80200815               13.07553794               16.86730886              -15.05029705
              41.41966603               -0.70744252               93.32802544                0.03082071               -0.80254215                3.73247000               -1.95009414               14.20873322               16.34636513              -21.86270093
              42.41628851               -5.35915529               92.44934787                0.03007621                0.05134248                3.19264141               -3.10924085               14.00980921               15.77607763              -31.40858895
              43.42069288              -10.00878125               91.56664792                0.03005020                0.75018498                2.17330353               -4.27837779               12.97295863               15.20497632              -43.89920738
              44.43129221              -14.66513550               90.67817577                0.03055541                1.31904372                0.54710342               -5.45795853               11.65154803               14.45356513              -59.56333814
              45.44707376              -19.33369930               89.78105976                0.03199258                1.83171991               -2.06898350               -6.64952185               10.89456043               13.53200682              -78.41643831
              46.46792661              -24.01809383               88.87472678                0.03235800                2.32950429               -6.26582241               -7.80412225               12.16672357               10.92314632              -99.89347754
              47.49366384              -28.72235980               87.92684869                0.45823832                2.57372372              -16.89431466               -8.64797036               19.96561317                8.71101599             -124.60632976
              42.31843417               19.21159371               96.64170264                0.47503252               -0.31937896                2.16903000                2.00405893                0.14659958               -1.18655560               18.89240774
              43.31524038               14.36160710               95.41755975                0.02518369                2.70477152               -3.35925858                0.98103059               10.30974440               21.42890323              -16.02209712
              44.37252960                9.71098647               94.64295966                0.00010000                2.98072813                2.67208550                3.08187685               24.47043431               42.79393402              -19.94819630
              45.37485494                5.03186261               93.78602165                0.00010000               -0.51001852                5.03569576                3.26068202               26.56199644               36.56524899              -28.91805005
              46.36232923                0.36415404               92.86297020                0.00010000               -1.39095179                5.37023609                2.23374576               28.26901720               31.07260201              -42.97996621
              47.34703591               -4.30042848               91.87995755                0.00010000               -1.44703495                4.65858065                0.38375483               27.95189720               25.52911099              -62.08740447
              48.33338853               -8.97249112               90.83505765                0.00010000               -0.98250470                3.05649620               -2.28022359               26.04666848               19.16315800              -86.70064871
              49.32738581              -13.66339322               89.72409961                0.00010000                0.44659735                0.28605893               -6.09129908               23.15920143               11.85080856             -117.35738014
              50.34232048              -18.38625654               88.54536643                0.00010000                3.94574106               -4.34441136              -11.44664635               20.25051242                4.33813231             -154.32474932
              51.40630063              -23.15640389               87.30355130                0.00010000               12.14538571              -12.51644383              -18.24370364               14.59601680               -1.54618584             -197.29333245
              52.58522819              -28.07464592               86.00980048                0.43709431               17.89275581              -26.26999249              -25.02859477               14.57983442               -0.35240830             -246.24324823
              47.19879250               20.22866379               96.33444726                0.47306810               -0.30937116                1.23003196                2.08481868                0.16612197               -0.16135655               18.98485249
              48.19569879               15.33233874               94.95167566                0.01999259                3.79605314               -2.38341616                0.54646258               13.88571588               31.02893416              -15.09635276
              49.27471357               10.70969272               94.19081412                0.00010000                5.73564581               -1.05987391                4.47645458               27.58853753               61.25413977              -20.98862544
              50.31041171                6.05963698               93.32610335                0.00010000                2.13119526                1.03660313                5.38416994               28.12747977               54.04795371              -30.77840859
              51.31733747                1.39996220               92.35495607                0.00010000                0.07799549                2.06638007                4.23041241               29.26182227               45.95475429              -44.53827277
              52.31197162               -3.26598367               91.27822144                0.00010000               -0.63732446                2.36143814                1.61264879               29.52942261               37.03330380              -62.51866190
              53.30459098               -7.94765133               90.09240197                0.00010000               -0.18649863                1.96476002               -2.47283947               28.38855854               26.75772998              -85.22417076
              54.30824165              -12.65941432               88.79270597                0.00010000                2.02518461                0.61609841               -8.52537786               25.82739900               15.35536538             -113.24478895
              55.34509468              -17.42058753               87.38099451                0.00010000                6.99973414               -2.20065632              -17.09355196               21.18927642                4.61403416             -147.05575309
              56.44823633              -22.26842271               85.87607459                0.00010000               13.83249640               -7.13797053              -27.99656030               12.88734764               -1.28613153             -187.12441585
              57.62174460              -27.24775965               84.33252482                0.43668149               17.35082743              -10.37444432              -39.30335778                6.49298773               -0.45256344             -233.36991405
              52.11440671               21.23619435               96.04101011                0.47571294               -0.24809462                0.33668160                2.22732101                0.12013823                0.00678719               20.17114706
              53.11192576               16.31393878               94.48097841                0.02023387                4.12976969               -1.34748907                0.01473775               15.08051115               40.54815730              -15.67817532
              54.19700210               11.68978900               93.73017939                0.00010000                6.76046441               -2.28488863                4.94733710               29.46784289               79.49299944              -22.21565095
              55.24713505                7.05259467               92.84990810                0.00010000                3.80921135               -1.60030046                6.12707341               29.27031726               70.74075549              -31.79975299
              56.27318633                2.40548165               91.83446200                0.00010000                1.90514182               -0.46392504                4.68487808               29.68568610               60.90587669              -44.46559168
              57.28523789               -2.25319972               90.67862745                0.00010000                1.07020087                0.53437983                1.28659186               29.61371355               49.64402157              -60.62572854
              58.29459035               -6.93319592               89.37563247                0.00010000                1.58160521                1.20347036               -4.09089303               28.26969384               36.61235944              -80.89941717
              59.31686999              -11.65107125               87.91983699                0.00010000                4.02620194                1.36405439              -12.03538970               25.06579657               22.37002854             -106.02357959
              60.37511439              -16.43026966               86.31597366                0.00010000                8.71748556                0.92148986              -23.17720735               19.32060112                9.25704377             -136.79622043
              61.49121970              -21.29916330               84.59258407                0.00010000               14.93237212                0.67708770              -37.33328287               10.33816264                1.20061561             -173.97248255
              62.67376183              -26.28213481               82.81011641                0.43754234               18.25421252                2.15509047              -52.78809159                5.45480876                0.78200447             -218.51403850
              57.04570641               22.23539742               95.75169025                0.47616132               -0.19920384               -0.37892623                2.31786610                0.09727809                0.18547682               20.38354619
              58.04371437               17.30538896               94.01135061                0.01964352                3.98540621               -0.46164713               -0.49019712               14.57627111               50.03691277              -15.65067020
              59.12541453               12.66399495               93.26678940                0.00010000                6.82055190               -2.63426319                4.84087211               28.54918986               97.72223595              -22.94601527
              60.18012541                8.02763097               92.37673429                0.00010000                4.57155302               -2.88195127                6.01076328               28.76916594               87.70932423              -31.75801398
              61.21684559                3.39068370               91.32918081                0.00010000                3.13990269               -1.95671842                4.20374999               28.85891588               76.31196038              -42.70193257
              62.24292346               -1.25529608               90.11379664                0.00010000                2.55053982               -0.52024859                0.08694469               28.24052746               63.09624286              -56.45702395
              63.26785639               -5.92358192               88.71968315                0.00010000                3.18539286                1.06182645               -6.40902872               26.29271794               47.73725817              -73.82635925
              64.30663132              -10.63213324               87.13919189                0.00010000                5.58711805                2.69533666              -15.92770285               22.51872466               30.96546675              -95.68720246
              65.37959875              -15.40215773               85.37766533                0.00010000               10.01167072                4.63493203              -29.13830258               16.54847125               15.18837919             -122.95483477
              66.50686473              -20.25488095               83.46548280                0.00010000               15.85925279                7.52394492              -45.90853061                8.57288891                4.31927198             -156.54813310
              67.69678380              -25.20465784               81.46517101                0.43742239               18.99190730               12.12714323              -64.57648451                4.52670222                2.32030950             -197.08437254
              61.97636920               23.22861582               95.46266023                0.47538705               -0.15155424               -0.83800397                2.28996025                0.08674533                0.28038753               20.04049990
              62.97485366               18.30470584               93.54297845                0.01900128                3.46873412                0.19204678               -0.89175585               12.94612340               59.70322104              -15.43198785
              64.04574388               13.63710373               92.81085320                0.00010000                6.04879781               -2.62805513                4.43741625               25.54838060              116.48105424              -22.85084074
              65.09582962                8.99495565               91.92462976                0.00010000                4.37739082               -3.28668334                5.42769309               26.50678710              105.47267677              -30.39979072
              66.13329170                4.36634728               90.86461153                0.00010000                3.42422231               -2.44017942                3.24527319               26.59373487               92.58739924              -39.12064529
              67.16431406               -0.26360469               89.61413135                0.00010000                3.19950822               -0.70635278               -1.49721519               25.52555395               77.42729985              -50.02865881
              68.19728187               -4.91195940               88.15761373                0.00010000                4.07531185                1.57693801               -8.92386031               23.07953435               59.74571373              -64.07085336
              69.24582030               -9.59716452               86.48437978                0.00010000                6.57748320                4.38909733              -19.70863264               19.08476716               40.33621022              -82.17719574
              70.32883153              -14.33757102               84.59800414                0.00010000               10.96786456                8.00028250              -34.52386793               13.56474657               21.63681273             -105.28767269
              71.46517759              -19.14868440               82.52799406                0.00010000               16.75090598               12.90743329              -53.21289529                6.88602300                7.60712151             -134.25449549
              72.66384965              -24.03959195               80.33708315                0.43783413               19.86720582               19.55453612              -74.03097337                3.80941511                3.96418009             -169.56208564
              66.89526129               24.21863734               95.17039397                0.47196268               -0.11123589               -1.01729665                2.16578705                0.09038857                0.37692856               19.39316303
              67.89414893               19.30922989               93.07558224                0.01847510                2.54355222                0.56972771               -1.17103532               10.70720141               69.97315372              -15.26119402
              68.94613233               14.61143385               92.37222375                0.00010000                4.34343382               -2.36638350                3.91635276               21.22036254              136.49289274              -21.88214897
              69.98101760                9.96189731               91.51204594                0.00010000                3.05741503               -2.93879024                4.63381581               22.87199796              124.59445706              -27.42625218
              71.00728063                5.34188012               90.46533362                0.00010000                2.53618035               -1.99328947                2.08777771               22.91634785              110.08355249              -33.50524531
              72.03174121                0.73057687               89.20821839                0.00010000                2.78631327               -0.06618040               -3.19432904               21.53630247               92.79678881              -41.27991195
              73.06300690               -3.89204316               87.72064478                0.00010000                4.10985381                2.65743098              -11.39210250               18.86888995               72.65273437              -51.68066423
              74.11393829               -8.54435129               85.98860766                0.00010000                6.97033341                6.19696364              -23.18041262               15.04868277               50.46877525              -65.57406853
              75.20241356              -13.24215208               84.01251695                0.00010000               11.63339145               10.76961203              -39.18049490               10.32771575               28.64597248              -83.84933790
              76.34660612              -17.99673229               81.81881910                0.00010000               17.61868172               16.72647121              -59.13511821                5.13924083               11.18222513             -107.42130490
              77.55478720              -22.81356712               79.46827173                0.43774676               20.81810830               24.42741169              -81.14738495                3.05108912                5.77161617             -136.94892489
              71.79699187               25.20826989               94.87331823                0.47013260               -0.07906889               -0.95676283                1.97111143                0.07732904                0.45518922               18.86153823
              72.79620118               20.31610039               92.60730770                0.01908765                1.02459238                0.69040551               -1.33301412                8.39846625               81.50466927              -15.60300252
              73.81748372               15.58977606               91.96227069                0.00010000                1.33110605               -1.56951183                3.38186478               16.28747818              158.83378541              -19.36803715
              74.82282331               10.93617984               91.16032412                0.00010000                0.27276890               -1.63250247                3.78697040               17.87404672              145.64166948              -22.12617641
              75.82293910                6.32648149               90.15695621                0.00010000                0.30700406               -0.68122205                0.89015961               17.62487112              128.93546461              -25.44269282
              76.82896339                1.73507170               88.92359776                0.00010000                1.33243603                1.26883935               -4.89502737               16.09820586              109.22771260              -30.06449595
              77.84958782               -2.85881078               87.43805767                0.00010000                3.39697455                4.15516630              -13.77994678               13.62032699               86.56984973              -36.71771728
              78.89690288               -7.47322524               85.68387822                0.00010000                6.90895111                8.02508357              -26.41388878               10.39973941               61.66150582              -46.06136857
              79.98776684              -12.12217878               83.65751340                0.00010000               12.12372823               13.00019700              -43.31753291                6.77064593               36.65674708              -58.83109680
              81.13937744              -16.81415498               81.37878042                0.00010000               18.53871254               19.26099562              -64.04098547                3.21555893               15.40178940              -76.14696303
              82.35854109              -21.55104371               78.90193452                0.43796354               21.91636503               27.11137649              -86.48062331                2.21757712                7.97296052              -99.61479201
              76.68114687               26.19950209               94.57427972                0.46337509               -0.05347855               -0.76385722                1.73253631                0.04308837               -0.33460634               16.17567777
              77.68061208               21.32303800               92.13068439                0.01686186               -1.46722123                0.63957458               -1.38505562                6.73298036               95.53687484              -14.29889666
              78.65180244               16.58004361               91.60504365                0.00010000               -3.94094835                0.91148678                2.94872317                9.93189778              185.33701631              -12.67486664
              79.60179311               11.92924726               90.89979902                0.00010000               -4.54581208                0.55711531                3.09667475               10.61011944              168.54462812              -13.26136323
              80.56088620                7.32825567               89.96803397                0.00010000               -3.13977613                1.26096220               -0.20555204                9.97848446              148.60437958              -14.31175711
              81.53899759                2.75595365               88.78734966                0.00010000               -0.85879111                3.00036491               -6.55940552                8.84560376              126.33237926              -16.20637809
              82.54371038               -1.80893983               87.33675177                0.00010000                2.31517452                5.81978445              -16.17492902                7.20850236              101.42928725              -19.30844043
              83.58530108               -6.38384962               85.59944927                0.00010000                6.75229198                9.76697535              -29.65942286                5.21216494               74.31569772              -23.95398116
              84.67875622              -10.98214814               83.56896172                0.00010000               12.72405725               14.87151166              -47.43792421                3.08525011               46.58236693              -30.56561683
              85.83978223              -15.61151237               81.25472093                0.00010000               19.70799988               21.09085185              -68.79368121                1.28870299               21.05752543              -39.97443394
              87.07291621              -20.27133959               78.68823462                0.43798963               23.31339884               28.47185667              -91.09261953                1.46979093               11.00440147              -55.37922398
              81.55078181               27.19299275               94.22499896                0.73107366               -0.04625388               -0.65093400                1.58437775                0.55340783                7.42262872               13.71992493
              82.55031927               22.32889188               91.68857466                0.44771030               -7.04346927                0.58538799               -1.43358226                7.72137143              117.90492479              -12.73573507
              83.40991242               17.60800580               91.36303965                0.43660967              -13.17528196                2.79621885                3.21424842                6.73251147              215.46576309               -8.26977072
              84.28681363               12.94732215               90.77147942                0.43712575              -10.70550145                1.80748928                3.04538427                5.68679827              190.91168153               -8.48104374
              85.19580239                8.35170073               89.93081299                0.43755285               -7.18713294                2.34450566               -0.90274463                5.87946165              167.54428813               -8.79889073
              86.14307097                3.79507900               88.82557568                0.43715471               -3.11206275                3.91253433               -8.10267348                5.70154710              143.10193210               -9.55138094
              87.13356114               -0.74241509               87.43999083                0.43705120                1.56417576                6.65247469              -18.67226718                5.33683946              116.83959140              -10.85399190
              88.17435449               -5.27788574               85.75964171                0.43664560                7.17867314               10.59638821              -33.19648519                4.78866738               88.73217863              -12.82007875
              89.27713460               -9.82474855               83.77794811                0.43630900               13.99942310               15.73995942              -52.10366830                4.11522822               59.99594469              -15.63200686
              90.45434295              -14.39233794               81.50136952                0.43723985               21.52283684               21.91744354              -74.62584367                3.61317062               31.45251990              -19.69903977
              91.70759134              -18.98160658               78.92161127                0.71908731               25.32483899               28.97330086              -97.21164226                4.54064831               19.06156760              -29.05828573
              33.64679449               17.65966443               98.33955341                0.74105757               -0.14522855               -0.18165413                1.71065889                0.04621168               -6.77091043                7.22204991
              34.64534221               12.74466059               97.33462268                0.46780141                1.70561651               -0.65167737                1.17504084                2.02573486               -7.46558500               -6.06161193
              35.68090682                7.88032867               96.31127859                0.45314291                2.93299144                0.05995334                1.03330924               -0.02059606               -4.70400131               -0.17940269
              36.70400204                3.08618106               95.33625194                0.44880759                1.79364961                0.13659490                0.89051664                0.04041384               -1.37513696               -0.40632345
              37.71677981               -1.66784644               94.36653926                0.44779660                0.88300281                0.30760307                0.78193786               -0.04184754               -0.81610126               -0.14822308
              38.72166209               -6.40361009               93.39835475                0.44688137                0.24484847                0.45810978                0.65930755               -0.10430153               -1.01928934               -0.03229001
              39.72167678              -11.13797557               92.42588838                0.44593734               -0.10204757                0.60980667                0.51574065               -0.17849601               -1.90649627                0.02933101
              40.71962114              -15.88206935               91.44482201                0.44559837               -0.20011790                0.75733123                0.35154593               -0.24220242               -3.27883696                0.04553483
              41.71767443              -20.64235616               90.45188806                0.44616438               -0.15433130                0.90020181                0.18007233               -0.28458564               -5.13580510               -0.03461961
              42.71653451              -25.42218915               89.44156190                0.44866856               -0.09959006                1.03078418                0.09210022               -0.24029565               -6.11464932                0.34365310
              43.71568262              -30.22400483               88.43684666                0.72618015               -0.08518892                1.09270486               -0.11305950                1.17598154               -6.20395382               -3.88409576
              38.56226046               18.65784789               97.94175775                0.48113878               -0.69930195                1.86841278                1.64093421                2.44422767                6.09091802               13.27362476
              39.55526744               13.73814381               96.93414399                0.06328547               -2.61599167               -2.90125907                1.07225616                5.55564566               13.82771581              -11.43767762
              40.50994062                8.88092820               96.08163667                0.04095098               -3.83868543                4.18871582                0.08086293               14.75056480               18.49254379               -8.78924740
              41.47849373                4.08754701               95.19502779                0.03051901               -2.43418545                5.39063599               -0.86473106               19.77321905               15.93468467              -11.88394461
              42.46125691               -0.66477041               94.30866926                0.02806963               -1.14050428                5.29458206               -1.86877826               22.10270599               15.32290615              -18.15842855
              43.45568364               -5.39902899               93.41908531                0.02651153               -0.10677289                4.47535409               -2.86884218               22.56199741               14.73227781              -27.56091257
              44.45912146              -10.13187751               92.52541617                0.02562169                0.68528820                3.07658991               -3.90050258               21.61735485               14.13043550              -40.29608328
              45.46938941              -14.87449604               91.62568750                0.02517544                1.28835061                0.87048226               -4.97151155               19.81967405               13.35249748              -56.82496689
              46.48488847              -19.63335414               90.71712274                0.02554769                1.77832427               -2.77457034               -6.07270257               18.26219685               12.43295019              -77.48969006
              47.50495589              -24.41188131               89.79958611                0.02515931                2.21848230               -8.86226434               -7.17272194               19.19680246                9.99624783             -101.79386268
              48.52925812              -29.21307778               88.84394463                0.45166578                2.43022223              -24.92196721               -7.89508360               29.12803865                7.93470109             -129.40100971
              43.53508721               19.69703269               97.66026548                0.47609149               -0.17123967                3.16812703                1.71233146                0.22242659               -1.34331463               19.28949055
              44.53337481               14.68663541               96.42670720                0.02874325                4.57138565               -4.47184756                0.86491573               14.86078012               23.00651534              -16.46964102
              45.62651492                9.96410299               95.67700949                0.00010000                5.58951099                4.17582931                3.71781817               35.69581876               46.43680913              -15.82454388
              46.64516503                5.19399378               94.82308610                0.00010000                0.94475085                7.33461508                3.96873411               39.49971196               39.64235005              -22.78851904
              47.64540994                0.43804520               93.89048835                0.00010000               -0.25779457                7.64940495                2.97127514               43.33109892               34.46372450              -35.91074544
              48.64000914               -4.31410301               92.89031856                0.00010000               -0.79595018                6.63823134                1.45527728               44.36063893               29.41413072              -54.75297508
              49.62949093               -9.07644378               91.82060579                0.00010000               -1.12589426                4.52242213               -0.59612250               42.75733556               22.93341877              -79.79567629
              50.61749125              -13.86465971               90.67236893                0.00010000               -0.45936501                0.84627331               -3.88349543               38.94338975               14.26059840             -112.03770845
              51.62030363              -18.69784756               89.43755540                0.00010000                3.13514752               -5.50775819               -9.48635736               34.03827614                4.25603353             -152.44764449
              52.68019420              -23.59943444               88.12016670                0.00010000               14.01663507              -17.23669464              -17.96786591               23.96483196               -3.64135934             -201.21533275
              53.90063633              -28.72244417               86.74766891                0.43551395               22.04421306              -37.91047249              -27.62071089               21.79458408               -2.01239420             -259.77300758
              48.58750356               20.72121043               97.35425879                0.47272547               -0.20908155                1.72028507                1.88904716                0.28193623               -0.17689991               19.54970559
              49.58541274               15.64870686               95.95659324                0.02265209                6.44975311               -3.02012658                0.43797255               19.69902836               34.00867023              -15.85524318
              50.71649862               10.96444479               95.24055165                0.00010000               10.45665051               -1.34427995                5.34306905               39.41806160               67.68708694              -18.18466652
              51.79454575                6.23423931               94.38640910                0.00010000                5.97385304                1.47806646                6.23109718               40.75996645               60.08234032              -26.13936024
              52.83597568                1.48821769               93.40423136                0.00010000                3.14198227                2.78794669                4.97935154               43.46269288               52.76082176              -39.01581095
              53.85738540               -3.26626436               92.30270845                0.00010000                1.44245944                3.12012083                2.71941615               45.04453310               44.81903983              -56.66256559
              54.86482487               -8.04142907               91.07803699                0.00010000                0.61377956                2.55253793               -0.60991901               44.39681008               34.54454500              -79.64472059
              55.86966099              -12.85757058               89.71806674                0.00010000                1.78019260                0.69920604               -6.10850893               41.21289365               21.33890276             -108.91687329
              56.90042872              -17.74350930               88.21559107                0.00010000                6.95940749               -3.23467142              -15.35094162               34.30485939                7.27824898             -145.54982079
              58.00884914              -22.75661520               86.58856150                0.00010000               15.53702693              -10.30591220              -29.15333272               21.06695234               -1.28015320             -190.97947206
              59.21116926              -27.97128723               84.91253051                0.43546311               20.23201213              -14.92094142              -45.47176356               10.39342165               -0.94574166             -246.61132466
              53.68573308               21.73143839               97.06264703                0.47494681               -0.16120541                0.43913480                2.09150283                0.21596485                0.04603473               20.67900972
              54.68412102               16.62623287               95.48059118                0.02211716                7.18053123               -1.57673984               -0.08832973               21.06528218               44.46891651              -16.46996687
              55.82934370               11.93721739               94.78513192                0.00010000               12.62352188               -3.17772298                5.77082212               41.33892601               87.76921406              -20.39726087
              56.93659146                7.22355511               93.91797396                0.00010000                9.29118856               -2.41210738                6.81352767               41.41358803               78.66623779              -28.37101671
              58.01516747                2.49380413               92.88836072                0.00010000                6.69775480               -1.00479094                5.19901007               42.79428221               69.95632858              -40.04176987
              59.07054655               -2.25170059               91.69974139                0.00010000                4.67829379                0.20564503                2.14823314               43.61967234               60.01168724              -55.67203109
              60.10873335               -7.02539302               90.34465215                0.00010000                3.66414048                0.96760530               -2.48914280               42.52985599               47.14190621              -75.96431733
              61.14382936              -11.85067559               88.80869120                0.00010000                4.83560511                1.03956424              -10.03056939               38.46163935               31.01430885             -101.96745711
              62.20544545              -16.76254099               87.08605113                0.00010000                9.27409061                0.29654270              -22.29971677               30.20016002               14.29237053             -135.04532701
              63.32931118              -21.80555268               85.20384979                0.00010000               16.62016840               -0.03477253              -40.26796227               16.49177896                2.79262118             -176.77424794
              64.53784882              -27.02086300               83.24031384                0.43603754               20.85376406                2.60904588              -62.40306547                8.48730190                1.19438341             -229.16265036
              58.80223389               22.72999313               96.77428719                0.47442271               -0.12945014               -0.53938369                2.20046601                0.19032070                0.26217357               20.66483925
              59.80093939               17.61717207               95.00618226                0.02083283                7.18605051               -0.40823917               -0.55406154               20.04757870               54.46828163              -16.26510237
              60.94595490               12.90089033               94.32068202                0.00010000               13.26456881               -3.78326141                5.55570785               39.39157903              107.00397504              -21.76782889
              62.06623077                8.18599717               93.44343078                0.00010000               11.05810624               -4.42965026                6.51585788               39.91252223               96.68506981              -29.18738668
              63.16711703                3.46812187               92.37793191                0.00010000                9.13726155               -3.44631016                4.53624928               40.59660985               86.58427675              -39.05387948
              64.24897600               -1.26215146               91.12243638                0.00010000                7.36399807               -1.77316108                0.77444699               40.41786114               74.85157186              -52.07012672
              65.31439699               -6.02207696               89.66463448                0.00010000                6.35328770                0.08905699               -5.02941901               38.31474425               59.73227233              -69.17668617
              66.37604175              -10.83677929               87.98726098                0.00010000                7.24560150                2.04155738              -14.31710038               33.39496000               41.04015534              -91.51476504
              67.45930902              -15.73757845               86.08442340                0.00010000               11.04824875                4.51338831              -29.02389303               24.94196121               21.43180598             -120.42251585
              68.59700673              -20.75731066               83.98424259                0.00010000               17.61134568                8.57032975              -50.24350464               13.12391155                6.63061340             -157.35620971
              69.81153593              -25.91910631               81.76621104                0.43623581               21.45292053               15.58773350              -76.52523129                6.76171251                3.10350005             -203.29097607
              63.91518162               23.72065072               96.48487766                0.47228104               -0.10062243               -1.10807622                2.15056109                0.17903052                0.38380167               20.07789714
              64.91417540               18.61806809               94.53425861                0.01950359                6.65842803                0.37276914               -0.86391728               17.50628388               64.29947509              -15.80056791
              66.04835018               13.86155216               93.86078298                0.00010000               12.67174840               -3.98208097                5.10068379               34.67636283              126.10674488              -22.04957499
              67.16761036                9.13496211               92.98544531                0.00010000               11.34490586               -5.34814411                5.86966308               36.16184714              114.84975242              -28.46468759
              68.27524830                4.42487793               91.90376827                0.00010000               10.07461223               -4.62428172                3.56133350               36.70985506              103.32750119              -36.11484789
              69.36910261               -0.28716381               90.60689242                0.00010000                8.72038817               -2.68731383               -0.79436726               35.74800927               89.67704235              -46.15881384
              70.44965606               -5.02361188               89.07707953                0.00010000                7.90637235               -0.00695492               -7.55840792               32.82045426               72.21804315              -59.71124961
              71.52723005               -9.80984444               87.29357648                0.00010000                8.75799884                3.43217201              -18.23073977               27.54969105               50.82082760              -77.89848402
              72.62481604              -14.67227323               85.24857650                0.00010000               12.30436079                8.10334911              -34.77174084               19.84005778               28.15163819             -101.91357534
              73.77331727              -19.63414609               82.96954192                0.00010000               18.59291720               14.83494673              -58.25288808               10.18697713                9.99891598             -132.84932923
              74.99667438              -24.70910833               80.53721727                0.43634392               22.33571109               24.37524030              -87.06036036                5.46781468                4.75193248             -171.19798516
              69.01097976               24.70783161               96.19126477                0.46931826               -0.08161312               -1.27651513                1.98227244                0.14539548                0.45281810               19.19385664
              70.01016363               19.62462745               94.06465080                0.01826941                5.58041921                0.75069190               -1.01466894               14.15199307               74.45696884              -15.36158694
              71.12258814               14.82124871               93.41732567                0.00010000               10.79891553               -3.97795942                4.63876471               28.25217741              145.96785266              -21.37453444
              72.22614194               10.07903428               92.56527492                0.00010000               10.04259521               -5.40350285                5.15734780               30.73561878              133.90389314              -26.08222516
              73.32344005                5.37563624               91.49339414                0.00010000                9.31420275               -4.65577792                2.54996054               31.22592055              120.76892459              -31.18847858
              74.41242599                0.68410226               90.18454015                0.00010000                8.50233282               -2.54760814               -2.30484024               29.74563199              104.93058569              -38.08211328
              75.49348670               -4.02221606               88.61578907                0.00010000                8.16354644                0.62505362               -9.84964231               26.41824001               84.92031522              -47.87042483
              76.57569692               -8.76813585               86.76300384                0.00010000                9.34625599                4.94476764              -21.58763947               21.36919255               60.67688562              -61.54485716
              77.68041182              -13.57551147               84.61574255                0.00010000               13.09422262               10.82024398              -39.42018907               14.87109465               34.85234403              -80.08024732
              78.83758137              -18.46061172               82.19952915                0.00010000               19.52024432               18.84000293              -64.29223977                7.49804387               13.32342021             -104.40237449
              80.07081671              -23.43160151               79.59497560                0.43637276               23.32353355               29.50133987              -94.35620778                4.26331893                6.38850175             -135.05167010
              74.08449784               25.69512042               95.89183905                0.46657367               -0.06996929               -1.12388023                1.68280465                0.12238892                0.49956379               18.46946591
              75.08379815               20.63308193               93.59565459                0.01817912                3.72445241                0.77860552               -0.98103341               10.67460407               85.67861733              -15.45364863
              76.15898689               15.78199297               93.00268114                0.00010000                7.20685309               -3.45947530                4.25356938               21.02677240              167.80462460              -19.21283306
              77.22793521               11.02689205               92.20570927                0.00010000                6.78559194               -4.33225729                4.48896896               23.73463694              154.55618682              -21.43225707
              78.29469873                6.33176237               91.17378532                0.00010000                6.69661640               -3.55530870                1.58702132               23.88395042              139.19676499              -23.94665568
              79.36186754                1.66188403               89.88370884                0.00010000                6.77801206               -1.45187321               -3.73953793               22.12101891              120.79225384              -27.77520283
              80.43025897               -3.01111081               88.31001957                0.00010000                7.30208869                1.86533771              -11.97396261               18.95377218               98.12446776              -33.83232327
              81.50790932               -7.71094909               86.42638556                0.00010000                9.22274138                6.53601742              -24.58445028               14.70586301               71.08550510              -42.82895977
              82.61471380              -12.45586835               84.21950203                0.00010000               13.57294359               12.85371813              -43.35293248                9.78970437               42.15324489              -55.46034869
              83.77936819              -17.25734603               81.71040994                0.00010000               20.46032656               21.16884727              -68.99232081                4.78052565               17.09942951              -72.66250395
              85.02392033              -22.11908153               78.97552263                0.43637113               24.45521442               31.86677326              -99.39137372                3.05420369                8.31665986              -95.72503289
              79.13750451               26.68535400               95.58987362                0.45952980               -0.07213584               -0.77516963                1.32549570                0.09943307               -0.27676446               15.79504535
              80.13678315               21.64019956               93.11971065                0.01564528                0.59044790                0.55949301               -0.78565894                7.93438412               99.32530281              -14.05474916
              81.14931347               16.75205920               92.64176788                0.00010000                0.71410609               -1.01723297                3.98223674               12.24423653              193.61149958              -12.79568270
              82.15106528               11.99238914               91.93882373                0.00010000                0.84068050               -1.96861801                3.96363628               13.98677924              176.86891143              -13.17837178
              83.16612708                7.30453006               90.97440141                0.00010000                2.33271374               -1.47164432                0.67314821               13.58481790              158.05373133              -13.66609873
              84.19771955                2.65506480               89.73125790                0.00010000                3.96340907                0.32197846               -5.21378868               12.19643443              136.85389480              -15.02750498
              85.24539526               -1.98490930               88.18508293                0.00010000                5.84260870                3.48301242              -14.17988443               10.06432059              111.75240552              -17.73455551
              86.31457172               -6.63741550               86.30962731                0.00010000                8.86037962                8.17072483              -27.64656918                7.43511120               82.39596702              -22.12489770
              87.42260285              -11.31843710               84.08964797                0.00010000               14.09166751               14.56407731              -47.29547470                4.59315729               50.79933841              -28.53635547
              88.59640507              -16.03723478               81.53871751                0.00010000               21.63844681               22.73585103              -73.52532182                2.06055266               21.96086150              -37.59194424
              89.85537179              -20.79426604               78.71642341                0.43644210               25.89667157               32.78715152             -103.59443479                1.94731098               10.87418745              -51.77245478
              84.17679539               27.67961702               95.23923272                0.72943919               -0.10147608               -0.57369782                1.16533316                0.39456445                7.30248244               13.45228536
              85.17578063               22.64427179               92.67794918                0.44600767               -6.25566738                0.40722300               -0.63635011                8.00131209              121.58201225              -12.52834978
              86.05168204               17.76164831               92.40312210                0.43644327              -11.02903448                0.95891069                4.36555567                7.39925240              223.58504411               -9.15202877
              86.95519994               12.98751969               91.81017355                0.43746583               -7.39813064               -0.48694483                3.92344332                7.44752524              198.17924046               -9.14215931
              87.90371943                8.30232949               90.92987348                0.43704357               -2.99821726               -0.22005757               -0.09855611                7.79943033              175.43228941               -9.11409484
              88.89523560                3.66832359               89.75330388                0.43691750                1.01531263                1.32587985               -6.87977573                7.56260232              151.83020322               -9.57603287
              89.92402568               -0.94145056               88.26230490                0.43653999                4.74518724                4.34587463              -16.81098808                7.07013286              125.23474848              -10.69358911
              90.99013934               -5.54753459               86.43311098                0.43605015                9.11852676                8.98809112              -31.31150220                6.39994940               94.69888742              -12.52953827
              92.10639622              -10.16458680               84.25011620                0.43584996               15.31344182               15.38503037              -52.11142974                5.62461551               61.82017931              -15.13787862
              93.29640818              -14.80262901               81.72421634                0.43538595               23.52664318               23.46057650              -79.64083743                5.06272507               30.15404213              -18.73329645
              94.57692908              -19.46333850               78.88565573                0.71814121               28.05209057               33.09275376             -110.00981442                6.08477987               16.98292022              -26.28322675
              34.58741161               18.12937308               99.35401544                0.73767477                0.09133560                0.06705268                1.15774227                0.17532258               -6.59356574                7.03673122
              35.58832497               13.08560475               98.34465271                0.46482770                2.50056029               -0.69189102                0.82645643                2.88355819               -7.07271771               -5.93475981
              36.63742282                8.11255005               97.32079699                0.45385273                3.92811384                0.21851070                0.89370301                0.04965917               -3.99783442               -0.23401731
              37.66688724                3.23238863               96.34517403                0.44870951                2.21142748                0.20213871                0.86651768                0.19782676               -0.72832499               -0.36308177
              38.68165137               -1.59771983               95.37507218                0.44704711                0.94394149                0.31596512                0.86013305                0.10268416               -0.22656236               -0.10109988
              39.68576607               -6.40638823               94.40635285                0.44586155                0.08502960                0.40508808                0.85167902                0.00679185               -0.45377993                0.01718363
              40.68335196              -11.21442615               93.43324022                0.44402011               -0.39528472                0.50058272                0.85088911               -0.10362319               -1.32375119                0.07752433
              41.67786038              -16.03515557               92.45140333                0.44255425               -0.56685065                0.59738119                0.85304395               -0.20310161               -2.66042105                0.09904703
              42.67201495              -20.87603861               91.45770231                0.44238543               -0.54031504                0.68781723                0.86579788               -0.27344088               -4.43357593                0.01195494
              43.66705408              -25.74026280               90.44756787                0.44357172               -0.46397767                0.76869215                0.98412480               -0.23238481               -5.38574876                0.28984154
              44.66273539              -30.62863748               89.44184424                0.72359948               -0.43186867                0.74352437                0.97955985                1.25307539               -5.46552796               -3.44506479
              39.63293317               19.13004361               98.95638991                0.47994814               -0.73611074                2.77547001                1.30020287                3.42786435                5.91037589               13.16397698
              40.62557206               14.07868584               97.94393397                0.06775419               -3.42028507               -3.79198540                0.92210367                7.74966342               13.37099446              -11.41563656
              41.56452747                9.11473516               97.08178331                0.04158180               -5.07858042                6.15152849               -0.05083843               21.15941250               17.51897118               -6.32282321
              42.52400045                4.23441002               96.18616045                0.02886795               -3.12304155                7.61611470               -0.86488906               28.90202492               14.87640847               -8.36943701
              43.50206664               -0.59456018               95.29064987                0.02494711               -1.49066497                7.40484334               -1.65324624               33.29862605               14.21382691              -14.27649093
              44.49418715               -5.40233735               94.39197103                0.02245697               -0.26836191                6.36385509               -2.46846348               35.22874266               13.56756598              -23.45951177
              45.49669940              -10.20942033               93.48863787                0.02074727                0.62242182                4.67003420               -3.35064286               34.99050805               12.90620353              -36.07969685
              46.50663559              -15.02918176               92.57874554                0.01950163                1.25673753                1.93144757               -4.31354527               32.90238438               12.08879900              -53.04763013
              47.52183415              -19.86916044               91.65960571                0.01906311                1.71970393               -2.88195735               -5.32384821               30.21171597               11.13522351              -75.49339396
              48.54102967              -24.73257588               90.73127234                0.01831018                2.09033398              -11.47115656               -6.37813949               30.21320237                8.87536135             -103.50794761
              49.56364083              -29.62120224               89.76894702                0.44605411                2.26111603              -35.50272367               -7.00350674               42.49938846                6.98125274             -135.72790341
              44.75868444               20.18488248               98.67594927                0.47881225               -0.00577559                4.36163730                1.43382663                0.37087785               -1.49989596               19.62835383
              45.75862668               15.00976504               97.43485807                0.03498559                7.31012258               -5.86679705                0.79670172               20.73527109               24.84516427              -17.08392029
              46.90488689               10.23558062               96.71731602                0.00010000                9.77982006                6.15708968                4.27327973               50.45289288               50.88594546              -10.99982411
              47.95422308                5.38471092               95.86539633                0.00010000                3.97421817               10.37759512                3.97311341               56.95873799               44.05507250              -16.11863128
              48.98437125                0.55037704               94.92239570                0.00010000                2.54889961               10.81668988                2.63200833               64.51829345               40.38675556              -28.49468616
              50.00520107               -4.27911113               93.90906310                0.00010000                1.28176406                9.68397690                1.55334705               68.44785626               37.30119871              -46.78825240
              51.01000653               -9.12102547               92.82313520                0.00010000               -0.47764491                7.24141141                0.71018239               68.30043503               31.75446714              -71.50702950
              51.99564818              -13.99652662               91.64642970                0.00010000               -1.51815760                2.75538561               -1.08752677               63.90888752               21.91153937             -104.46878328
              52.97964338              -18.93367775               90.35563928                0.00010000                1.38558775               -5.54596227               -5.96257025               56.25857176                8.02759068             -148.14148817
              54.02335993              -23.96968593               88.94419398                0.00010000               15.51662511              -21.95596797              -16.21517224               38.98249741               -4.50209602             -204.29172473
              55.28997588              -29.33869196               87.45738626                0.43463068               26.66159522              -52.57144176              -30.70769248               32.66194352               -3.88847547             -277.61631486
              49.99058561               21.21727635               98.37222821                0.47359077               -0.10062680                2.24318273                1.69424094                0.44508794               -0.17911603               20.06579780
              50.98957934               15.96134990               96.96043511                0.02656457               10.40269174               -3.74073127                0.34242436               27.03965623               37.38348083              -16.81362643
              52.19863944               11.23787695               96.29767550                0.00010000               17.93997303               -1.69336075                5.72233212               54.53643719               75.40188946              -15.17370118
              53.34837880                6.44196192               95.45072530                0.00010000               12.88075570                2.17208682                5.54607581               57.34522998               68.37073990              -21.27645523
              54.45625456                1.62177362               94.45454310                0.00010000                9.30839926                4.02843306                3.60521593               62.77772459               63.82183177              -33.14768464
              55.53454679               -3.20865781               93.33260976                0.00010000                6.19345192                4.63714298                1.87941317               66.88067029               59.10438544              -50.07898908
              56.58012359               -8.06459210               92.08020359                0.00010000                3.14594203                4.09728559                0.13787910               67.65279460               50.45764135              -72.69157924
              57.59746563              -12.97407405               90.67053579                0.00010000                2.00206492                1.84559987               -3.50155073               64.23107160               35.82466204             -102.52660356
              58.62016489              -17.98007968               89.07397568                0.00010000                6.41140971               -3.31653900              -12.18821834               54.42693167               16.72860833             -141.77496770
              59.72569382              -23.17169524               87.29300794                0.00010000               16.73634290              -13.03217071              -29.14863961               33.84490449                2.16826396             -193.77988065
              60.95489175              -28.67263108               85.42308955                0.43477378               22.91979310              -19.01881932              -53.58877134               16.64369165               -0.21682379             -262.98118987
              55.27943911               22.22974613               98.08284017                0.47367743               -0.06199047                0.45936117                1.93423998                0.34913442                0.12774379               21.10360904
              56.27881920               16.93495041               96.47921182                0.02450231               11.77822514               -1.74652055               -0.19132575               28.45365574               48.73359351              -17.40290550
              57.51500361               12.20171341               95.84559583                0.00010000               21.92059072               -4.24448207                5.68312680               56.14041583               97.33443704              -18.60597646
              58.71723102                7.42815266               94.98617865                0.00010000               18.77709309               -3.27750142                5.36100499               56.87151976               89.17237608              -24.71751112
              59.89054547                2.63094570               93.93844220                0.00010000               15.59745896               -1.37875308                3.01422951               59.93750237               83.94939004              -34.99122917
              61.02918020               -2.18636827               92.72159212                0.00010000               11.89665961                0.24040813                0.57147061               62.43400439               77.86375596              -49.55591592
              62.12847866               -7.03907976               91.32584962                0.00010000                8.32884971                1.25245369               -2.38683152               62.21536410               66.99505100              -69.20154885
              63.19575719              -11.95961463               89.71922560                0.00010000                6.86622690                1.33801167               -8.12011244               57.46255496               49.46790046              -95.40274825
              64.26580320              -17.00000853               87.86997932                0.00010000                9.85261126                0.34731300              -20.28333989               46.01868192               27.39795583             -130.45992158
              65.39280942              -22.23032935               85.78722483                0.00010000               17.94590937                0.19989836              -42.49530383               25.64678649                8.73951287             -177.41965787
              66.62472139              -27.71906834               83.56205510                0.43487229               23.19119740                5.26251438              -74.83333103               13.12735824                3.46300849             -240.08466350
              60.58715974               23.22646358               97.79569957                0.47316796               -0.04745575               -0.82749723                2.06044932                0.28780310                0.35902813               20.80816298
              61.58668518               17.92641949               96.00026938                0.02220315               12.05428883               -0.23622369               -0.63063530               26.63211889               59.10312770              -16.92721071
              62.82824551               13.15298731               95.37790356                0.00010000               23.49458632               -5.11224151                5.06275856               52.58404370              117.37040109              -20.56522389
              64.05657691                8.37641189               94.50705145                0.00010000               22.06400084               -6.21674489                4.60043690               53.69098000              108.16463232              -26.21086941
              65.26952553                3.59419856               93.41990580                0.00010000               19.83377112               -5.11788031                1.98789940               55.37937996              101.80793802              -34.44681663
              66.45325233               -1.20384965               92.12928558                0.00010000               16.40758518               -3.12582361               -1.06004962               56.08109350               94.13792368              -46.11450495
              67.59767723               -6.03954302               90.61909477                0.00010000               12.71965868               -0.91296089               -5.14881395               54.15079206               81.14795160              -62.27694925
              68.70764550              -10.94731382               88.85284988                0.00010000               10.67880086                1.43687817              -12.72378124               48.06961469               61.06301616              -84.38591194
              69.81125325              -15.97313342               86.79718747                0.00010000               12.50219286                4.64234273              -27.64583327               36.48560981               35.87168558             -114.42231972
              70.95768936              -21.16769727               84.46061270                0.00010000               19.18318299               10.46859017              -53.74420616               19.47291792               13.31805585             -154.75528335
              72.19491691              -26.56738079               81.93466638                0.43522734               23.72275519               21.33760689              -91.06544307                9.97245814                5.73321003             -206.92106832
              65.88528335               24.21319619               97.50567145                0.47007536               -0.03455077               -1.54552431                2.00099304                0.22226729                0.50656195               19.86887352
              66.88493784               18.93022594               95.52570010                0.01999915               11.57043647                0.70913431               -0.86597200               22.84073072               68.93837377              -16.09217307
              68.11669208               14.09946858               94.91286688                0.00010000               23.24507651               -5.54711557                4.42088295               45.51057876              136.52203280              -21.08203157
              69.34983937                9.30381776               94.04202302                0.00010000               23.08512644               -7.82115253                3.82414948               47.77848020              126.48335681              -25.93361910
              70.57839461                4.52858809               92.93583820                0.00010000               21.73521372               -7.30525308                1.04017526               49.05829303              118.73162985              -31.96095225
              71.78454365               -0.24888474               91.59824401                0.00010000               18.82820327               -5.20160820               -2.48550423               48.43892996              109.12009803              -40.57347654
              72.95495867               -5.05733898               90.00644557                0.00010000               15.30981166               -2.14243318               -7.49046346               45.16399740               93.77108648              -53.02714015
              74.09073988               -9.93087706               88.11976499                0.00010000               13.04700892                1.96281507              -16.47802826               38.50271536               70.93483189              -70.64346893
              75.21589885              -14.90716168               85.90256932                0.00010000               14.28876304                7.92254325              -33.34994540               28.08007026               42.55523128              -94.97475913
              76.37651514              -20.02095754               83.36293629                0.00010000               20.38193663               17.10247365              -61.90462523               14.54987946               16.49974566             -127.54267672
              77.62353759              -25.29231621               80.59587595                0.43495659               24.70224439               30.72374569             -101.88158130                7.70150522                7.22457102             -168.88968592
              71.15754558               25.19555309               97.21003942                0.46555262               -0.03181775               -1.70729146                1.76872511                0.20834420                0.54020634               18.64450156
              72.15722741               19.94060217               95.05528886                0.01783804               10.36598427                1.08708154               -0.88253353               18.02427562               78.82158206              -15.27120563
              73.36486527               15.04204500               94.46499905                0.00010000               21.28997959               -5.91956928                3.97503402               36.31080576              155.94257289              -20.51446194
              74.58302700               10.21998884               93.61519290                0.00010000               21.92643125               -8.49159334                3.24972225               39.95259889              145.18963748              -23.98857742
              75.80339389                5.44809350               92.51633283                0.00010000               21.24654989               -8.10234972                0.32082938               41.13047875              135.77487340              -27.65958268
              77.00795800                0.69211819               91.16212159                0.00010000               18.97778056               -5.91326833               -3.61125594               39.67726937              123.84993139              -33.22990748
              78.18294950               -4.08239169               89.52365194                0.00010000               15.97822596               -2.37060637               -9.36192826               35.71330361              105.85806465              -41.94407256
              79.32752251               -8.90805752               87.55685487                0.00010000               13.99928164                2.72245774              -19.40532811               29.30498825               80.13783002              -54.89077879
              80.46293514              -13.81468256               85.22411317                0.00010000               15.31594804               10.09352546              -37.57075918               20.66591126               48.61701498              -73.16592942
              81.63384148              -18.82564780               82.53297430                0.00010000               21.43646028               20.71820630              -67.50138544               10.53034878               19.32851038              -97.79573459
              82.89166434              -23.95290587               79.58114757                0.43498916               25.78228677               35.26620103             -108.59576405                5.82975869                8.54396117             -129.21641850
              76.39935207               26.17905036               96.90697433                0.46196701               -0.04206280               -1.37718836                1.34836760                0.21131747                0.57672791               17.65832767
              77.39893144               20.95196757               94.58768703                0.01677601                8.20847286                0.95231303               -0.64964467               13.00116522               89.56260884              -15.01505530
              78.56352153               15.98107719               94.04734207                0.00010000               17.19557072               -5.91780040                3.79863130               26.10362054              176.97035666              -18.58936733
              79.74284286               11.13398589               93.25010350                0.00010000               18.26766536               -7.93866485                2.92069771               30.44873556              165.16393775              -19.96322909
              80.92887484                6.36654110               92.18869663                0.00010000               18.28656807               -7.46239767               -0.18193836               31.24983805              153.45018704              -21.34095663
              82.10857422                1.63284989               90.84880700                0.00010000               17.02628075               -5.31548384               -4.53577124               29.30718881              138.76703756              -24.08563257
              83.26940045               -3.10475110               89.19857841                0.00010000               15.02781476               -1.67622961              -10.96090984               25.40808827              117.98931330              -29.25902694
              84.40913051               -7.87642791               87.19218922                0.00010000               13.87034553                3.74922635              -21.85450859               20.02963997               89.45276492              -37.58677372
              85.54680736              -12.70529117               84.79045475                0.00010000               15.81074611               11.55965685              -40.91564006               13.62760693               54.96817055              -49.71790203
              86.72534544              -17.60659342               81.99893401                0.00010000               22.39207751               22.42450685              -71.53989299                6.83407607               22.52353554              -66.41510617
              87.99464891              -22.58699219               78.91410705                0.43530285               26.93034750               36.79920461             -112.80934120                4.12631421               10.12257385              -88.65290650
              81.61593751               27.16800932               96.60078964                0.45556866               -0.07136344               -0.78650553                0.81704898                0.16623459               -0.21255991               14.98656026
              82.61522388               21.95964843               94.11497121                0.01387172                4.44909221                0.49401329               -0.17387585                8.74091813              102.57882033              -13.46129138
              83.70491936               16.92368899               93.68468838                0.00010000                9.56569633               -3.94102069                3.79509996               14.37172538              201.71646086              -12.55014196
              84.80653780               12.06121554               92.97907175                0.00010000               11.23036500               -5.61032911                2.75514044               17.79803743              186.63151702              -12.56820526
              85.92952666                7.29884554               91.98149693                0.00010000               12.94280837               -5.40331959               -0.67756453               17.85179944              171.23499538              -12.29154344
              87.06539397                2.58580851               90.68307388                0.00010000               13.54312072               -3.66917582               -5.56797783               16.19537851              153.52294670              -12.97485045
              88.20038907               -2.11591628               89.05315408                0.00010000               13.16307052               -0.29898556              -12.70430227               13.50835292              130.17201191              -15.15598585
              89.32865538               -6.83307299               87.04651789                0.00010000               13.26318573                5.04920405              -24.39669715               10.19086421               99.25699044              -19.14837132
              90.46565278              -11.58348942               84.62305223                0.00010000               16.17843147               12.84242954              -44.25318707                6.57703946               62.22945205              -25.19275673
              91.65222401              -16.37715766               81.78421449                0.00010000               23.46676900               23.42959479              -75.36695017                3.15532309               26.57507586              -33.65090518
              92.93498816              -21.21692178               78.61634593                0.43540354               28.27641537               37.06282225             -116.09751217                2.50969086               12.22323023              -46.14368317
              86.81939854               28.16332025               96.24830562                0.72744986               -0.13284094               -0.46890721                0.59067012                0.19886184                6.96506472               12.75661425
              87.81807013               22.96184784               93.67584765                0.44427635               -3.50048087                0.21994046                0.20874552                7.23145216              124.29918013              -11.93819021
              88.74938893               17.90225678               93.45035076                0.43580770               -4.72115382               -2.14322145                4.26353052                7.44353083              231.19786559              -10.01389148
              89.72364706               13.02177931               92.84994828                0.43691875                0.59644645               -3.94362296                2.71389002                9.52182169              206.58597064               -9.61743309
              90.76131786                8.25847471               91.92884187                0.43769335                6.17982769               -4.03708367               -1.48114652               10.06347316              186.85316443               -9.12741882
              91.84724361                3.55946638               90.68798016                0.43738284                9.85655767               -2.63421346               -7.24300907                9.72468803              166.62161250               -9.27212308
              92.95844901               -1.11073081               89.10377107                0.43678806               11.66386628                0.51854660              -15.25342416                9.06048369              141.74915773              -10.21148722
              94.08052094               -5.77544383               87.13341167                0.43576104               13.19919071                5.76291622              -27.82535908                8.30096723              109.51423954              -11.95333805
              95.22243282              -10.44844258               84.73571952                0.43487970               17.06816623               13.50468386              -48.64868452                7.55011911               70.81027670              -14.40151221
              96.42188426              -15.13800152               81.90855278                0.43476136               25.09690734               23.91561407              -80.93978104                7.10136704               32.31214601              -17.40562669
              97.72437097              -19.84573574               78.72141498                0.71742170               30.24867079               37.11860416             -121.94789591                8.16485852               15.89651992              -22.52756898
              35.53364862               18.59565011              100.36270825                0.73388335                0.34576797                0.35434901                0.53971744                0.34840050               -6.29431606                6.71771904
              36.53710630               13.42740288               99.35115181                0.46503588                3.33900973               -0.77771528                0.49151315                3.92003964               -6.56131077               -5.70911060
              37.60042882                8.35367567               98.32915265                0.45668682                4.90270182                0.42770391                0.74184505                0.24365981               -3.44433372               -0.25018296
              38.63516034                3.39694659               97.35358229                0.44820942                2.53204651                0.29893804                0.73149211                0.46452549               -0.45774915               -0.29387594
              39.65106975               -1.50102382               96.38374192                0.44594262                0.96290569                0.34000721                0.77013454                0.29284430               -0.00976771               -0.05928743
              40.65441845               -6.37450278               95.41538833                0.44398172               -0.04592329                0.35733043                0.84631613                0.15302314               -0.18178776                0.05031343
              41.65015128              -11.24722039               94.44290617                0.44276133               -0.62339114                0.38539626                0.95375463                0.01847125               -0.93346543                0.12136497
              42.64195063              -16.13477283               93.46188289                0.44083536               -0.86564613                0.42978097                1.08494432               -0.11048232               -2.13097271                0.13944951
              43.63283836              -21.04592386               92.46920402                0.43971748               -0.86365125                0.47648730                1.25205299               -0.22864446               -3.71860838                0.06688565
              44.62467761              -25.98380126               91.46124440                0.43990215               -0.75095171                0.51348952                1.55385731               -0.21497014               -4.57257396                0.24859498
              45.61781933              -30.94711168               90.45643786                0.72072238               -0.68582797                0.39338103                1.71680609                1.24040788               -4.59329989               -2.91227084
              40.70537986               19.59919360               99.96776180                0.48131138               -0.80859368                3.90556782                0.99252838                4.72436589                5.61750886               12.84936066
              41.69729392               14.41962573               98.95258607                0.07718471               -4.36431472               -4.94735141                0.86980218               10.52820715               12.67026049              -11.39597116
              42.61809356                9.35795271               98.08061990                0.04334287               -6.50692917                8.72693259               -0.10503914               29.67884888               16.31933110               -3.47434191
              43.56715534                4.39993597               97.17773001                0.02716294               -3.91853456               10.50548618               -0.67891037               41.52249999               13.74942558               -5.15592854
              44.53972287               -0.49762375               96.27560434                0.02125480               -1.90541861               10.26410374               -1.23265844               49.37715487               13.00215294              -11.24683205
              45.52904697               -5.37092947               95.36971604                0.01777252               -0.46259256                9.19979969               -1.88737489               54.25662448               12.24056593              -20.13240807
              46.53047102              -10.24336642               94.45840332                0.01545566                0.55752897                7.45351516               -2.61109702               55.87584186               11.47769326              -31.94853965
              47.54019755              -15.13047502               93.53941660                0.01370589                1.22975543                4.44736010               -3.43139865               54.17373810               10.60388862              -48.34699496
              48.55506613              -20.04115899               92.61064578                0.01270269                1.64621329               -1.45617142               -4.32591195               50.10307335                9.61799569              -71.83267587
              49.57312181              -24.97866637               91.67202333                0.01178665                1.92338437              -13.16016327               -5.32374260               48.08544089                7.54036319             -104.34439826
              50.59353382              -29.94317787               90.70387450                0.44120589                2.04120065              -49.09006605               -5.88684194               62.48199666                5.82005975             -144.14156620
              45.98727169               20.67376147               99.68894202                0.48362582                0.16396543                5.82209435                1.12785490                0.57581685               -1.65418737               19.83241148
              46.98891134               15.32845585               98.44264124                0.04503941               11.32119354               -7.57725729                0.81661550               28.23969977               26.81857882              -17.91697422
              48.21369556               10.52821432               97.76247508                0.00010000               16.61377262                8.73691249                4.56956508               69.73765577               56.70384628               -5.66294522
              49.32118679                5.60705631               96.90254836                0.00010000                9.78913633               14.39959644                2.09684084               80.69907745               50.64295319              -10.03912002
              50.40947829                0.70425825               95.94312851                0.00010000                8.20534105               15.34206243               -0.33243353               94.66209444               51.35070485              -22.20771235
              51.48529362               -4.19050679               94.92138550                0.00010000                5.88676913               14.52781553               -0.54521844              104.11786593               52.19228979              -39.54651819
              52.52721367               -9.09815008               93.83480944                0.00010000                1.89621715               12.26956779                0.31505138              107.51308994               49.34268730              -62.51671593
              53.52321796              -14.04582563               92.65061840                0.00010000               -2.20612480                7.47882379                1.15316545              103.76436940               39.69615929              -94.14029681
              54.48309117              -19.07504729               91.31830399                0.00010000               -1.74063290               -2.60948548               -0.71845662               92.81418568               21.21667519             -139.35739691
              55.48840530              -24.24700453               89.79586325                0.00010000               15.66955417              -24.82886481              -11.29172919               63.80565129               -0.78469584             -203.84213749
              56.79648226              -29.92891300               88.13351506                0.43383179               30.80769548              -69.62009996              -34.42281684               49.46594041               -4.90372220             -300.09864201
              51.40750743               21.71563549               99.38814361                0.47470037                0.01276410                2.81388715                1.40189028                0.65815761               -0.15009431               20.49722909
              52.40763507               16.26808058               97.96344172                0.03190092               16.33693990               -4.50576782                0.31561361               36.20906762               40.78119119              -18.00715038
              53.73424622               11.53269096               97.35499829                0.00010000               29.87289427               -2.16722596                4.76658917               73.76086793               84.62781309              -12.57797324
              55.00509295                6.68792789               96.49733062                0.00010000               24.81408155                3.29112168                1.18621139               79.12661782               80.36250725              -16.88631967
              56.23052786                1.80921750               95.47633568                0.00010000               20.43598335                6.21793003               -2.08062217               89.04812308               82.55154788              -27.62481760
              57.41381262               -3.08037316               94.34029672                0.00010000               15.27619054                7.55060299               -2.70536138               97.39640381               83.88081695              -43.17270203
              58.53605167               -7.99797507               93.08079457                0.00010000                8.92847610                7.49174497               -2.21527360              101.16309130               79.24578028              -64.22930169
              59.59238214              -12.98089855               91.64803573                0.00010000                3.82385380                5.23904946               -2.57462065               98.52330381               65.05511776              -92.99974809
              60.61252874              -18.09334870               89.97182670                0.00010000                5.53592014               -0.99519639               -8.08718549               85.39845274               40.18907827             -133.34262832
              61.70310055              -23.47524367               88.00558871                0.00010000               16.70704112              -13.72730386              -27.00050203               54.06945930               14.04841921             -192.47799774
              62.94666956              -29.33557987               85.84075509                0.43393153               24.35690197              -20.26100534              -64.70116998               27.01468875                4.53024137             -280.62829277
              56.89554465               22.73003921               99.10133183                0.47356308                0.04925755                0.38448074                1.70702364                0.46849877                0.23930423               21.41536220
              57.89603723               17.23834050               97.47676467                0.02744846               18.67604767               -1.79705102               -0.28562473               37.39967371               52.68787179              -18.46254176
              59.26906561               12.48486980               96.89879446                0.00010000               36.55776898               -5.51880748                3.38868911               74.34364392              108.10966157              -17.17860640
              60.62719261                7.67287874               96.02519406                0.00010000               34.48380995               -4.09962444               -0.45795052               76.30876387              103.49936561              -20.94882662
              61.95874181                2.82861685               94.94864531                0.00010000               30.66108250               -1.37139794               -3.95072117               81.90701667              105.92871146              -29.13629606
              63.24041426               -2.03949473               93.71117080                0.00010000               24.61295361                0.96398554               -5.09114964               87.09004183              106.61131070              -41.76250376
              64.45100088               -6.94831518               92.29691552                0.00010000               17.43217045                2.48815828               -5.61097163               88.80950677              100.27454316              -59.56013649
              65.58905767              -11.94104464               90.64628895                0.00010000               11.72022333                2.79308180               -7.97626362               84.00956015               83.34720337              -84.34071827
              66.68540534              -17.09495122               88.68038433                0.00010000               11.14839935                1.73669300              -17.37551274               68.79726001               55.30852044             -119.67518303
              67.81202565              -22.52155061               86.35394371                0.00010000               18.60215447                2.35579372              -42.83643410               39.18032489               23.72760205             -171.33233286
              69.05744843              -28.33413311               83.74364722                0.43416017               24.54227796               12.21156724              -90.58669531               20.31291052               10.13554530             -246.07803235
              62.40027483               23.72332510               98.81549618                0.47105598                0.05231226               -1.31754358                1.87295458                0.36699093                0.48889327               20.80321516
              63.40079795               18.23213956               96.99356956                0.02389045               19.31530131                0.14323243               -0.71539296               34.43499600               63.11157133              -17.62486500
              64.78658086               13.42231481               96.42193719                0.00010000               39.33616110               -6.60268797                2.10868261               68.35990769              128.25010169              -19.57468764
              66.18752118                8.60593541               95.53543952                0.00010000               39.72303993               -8.23652357               -1.73477357               70.32941502              122.81382930              -22.71737345
              67.58104166                3.78178954               94.41768990                0.00010000               37.25121586               -6.96925007               -5.18149974               73.39446218              124.13152638              -28.52944998
              68.93254549               -1.06109345               93.10123539                0.00010000               31.63750309               -4.59873136               -6.71642150               75.52407466              123.33699772              -37.97479805
              70.21379172               -5.94821190               91.56165820                0.00010000               24.33319436               -2.01983300               -8.18692805               74.43062373              115.02877373              -52.08402357
              71.41920938              -10.92503691               89.73278535                0.00010000               17.75940945                0.71629157              -12.28781067               67.51711713               95.63942173              -72.45851268
              72.56897991              -16.05861484               87.53150674                0.00010000               15.33397746                4.81285534              -24.51208990               52.21265655               64.29650728             -101.86030049
              73.72588893              -21.42812779               84.90935847                0.00010000               20.45564328               13.20946918              -54.13808282               28.26231097               28.32211302             -144.26515572
              74.97809277              -27.09134852               81.94490218                0.43436471               25.22038432               30.03749334             -107.12546369               14.56983017               12.33095445             -202.25459625
              67.88525555               24.70368834               98.52489752                0.46731797                0.04918919               -2.19531710                1.85677302                0.30218855                0.64317335               19.44751573
              68.88574745               19.24120515               96.51693917                0.02072136               18.86061813                1.25384207               -0.92151643               28.99826919               72.74723752              -16.33107910
              70.26246792               14.35281604               95.94920064                0.00010000               39.42793641               -7.29152671                1.14766106               58.09489152              146.94855397              -20.02447793
              71.67430617                9.50814827               95.06192830                0.00010000               41.55959953              -10.73765739               -2.55844393               61.37477700              140.70560626              -22.60051746
              73.09365991                4.68923185               93.92457178                0.00010000               40.32955091              -10.61016951               -5.89593537               63.56747737              140.38726197              -26.31142820
              74.48089719               -0.13146935               92.55718234                0.00010000               35.49484514               -8.49827157               -7.75892415               63.58081628              137.52147586              -32.79092310
              75.80355681               -4.98871184               90.92727026                0.00010000               28.44528774               -5.25092238              -10.01264287               60.34367683              126.88371977              -43.26930926
              77.04980295               -9.92671881               88.96401591                0.00010000               21.45962719               -0.66693732              -15.38784610               52.44003186              104.81631913              -59.08708523
              78.23274935              -14.99869411               86.58157760                0.00010000               18.01013042                6.59496765              -29.40902798               38.85051856               70.27488937              -82.20006393
              79.41000556              -20.25736122               83.73144941                0.00010000               22.12685723               18.78018339              -61.27490550               20.32695620               30.81206310             -114.95583691
              80.67528650              -25.73338324               80.49958565                0.43461832               26.52809430               37.85937704             -116.47743737               10.76062944               13.36348517             -158.31282057
              73.33128499               25.67941876               98.22663927                0.46257912                0.03506460               -2.30757958                1.59260520                0.24733575                0.65716717               17.77368529
              74.33163564               20.25721640               96.04700013                0.01742753               17.51252855                1.59466619               -0.84309945               22.30003212               82.20746891              -15.00782650
              75.68153556               15.27648427               95.49682635                0.00010000               37.34826330               -8.11498758                0.71196207               45.37377485              165.51844780              -19.26053222
              77.07860090               10.39118226               94.63026936                0.00010000               40.52366319              -12.21998245               -2.80731464               50.43275568              158.55385018              -20.86935661
              78.49200883                5.56958615               93.49981073                0.00010000               40.17523051              -12.47263567               -6.07158565               52.45489587              156.25815624              -22.60057079
              79.88210551                0.76894112               92.11231503                0.00010000               36.19529429              -10.46557840               -8.28047592               51.18064089              150.89172149              -26.39579675
              81.21591471               -4.05323035               90.42855050                0.00010000               29.79433862               -6.85408228              -11.21233540               46.78947195              137.60160610              -33.47169708
              82.47799229               -8.93837566               88.37489728                0.00010000               23.03589892               -1.28143850              -17.52663002               39.09000969              112.75796217              -44.85094444
              83.67663269              -13.92671549               85.86432737                0.00010000               19.45624470                7.47643348              -32.65959557               28.02173021               75.23297191              -61.76745447
              84.86711718              -19.05252412               82.84950144                0.00010000               23.43583510               21.02364389              -65.62605466               14.43677725               32.85370507              -85.61044506
              86.14534939              -24.33416098               79.42306032                0.43424040               27.82322125               40.30226095             -121.52001424                7.87327509               14.20657463             -116.94568032
              78.73460699               26.65753675               97.91880640                0.45735263                0.00755936               -1.78324244                1.07950179                0.23643018                0.66315043               16.36242906
              79.73468258               21.27309847               95.58266169                0.01497526               15.06852876                1.27983530               -0.45611823               15.29023575               92.33078212              -14.22860290
              81.03597756               16.19051629               95.07865376                0.00010000               32.75884157               -8.92182958                0.85302667               31.43283722              185.38308915              -17.29895047
              82.38985941               11.26374862               94.26412323                0.00010000               36.45107034              -12.50010040               -2.48447694               37.87745062              177.36222902              -17.32708046
              83.76499897                6.43977914               93.17014655                0.00010000               36.87335495              -12.55160981               -5.79543039               39.51432407              172.46770953              -17.28524816
              85.12732651                1.65921908               91.79299341                0.00010000               34.08320277              -10.62732439               -8.46690955               37.44215963              164.13348347              -18.73628895
              86.44666302               -3.12579349               90.09080137                0.00010000               28.88808844               -6.99956619              -12.07525811               32.89550597              148.04943631              -22.76912822
              87.70508828               -7.95234758               87.98929539                0.00010000               23.03347001               -1.16148602              -19.16783067               26.42245732              120.52437610              -29.98055130
              88.90733242              -12.84916544               85.40118923                0.00010000               20.05491587                7.95792399              -35.06410279               18.41609168               80.30856560              -40.99025288
              90.10618660              -17.83688835               82.27961208                0.00010000               24.43466469               21.63262366              -68.55112568                9.46615651               35.23530752              -56.57820532
              91.39602572              -22.92733802               78.71933580                0.43438545               28.98391212               40.48566710             -124.36294034                5.46623910               15.27669133              -77.50214021
              84.10489016               27.64375391               97.60621460                0.45058225               -0.04293412               -0.89097039                0.30878852                0.22620105               -0.12079748               13.62729290
              85.10446081               22.28281311               95.11623313                0.01147593               10.73260004                0.53283172                0.32337939                8.96651398              104.49334264              -12.41299397
              86.31954216               17.09804768               94.71766988                0.00010000               24.12131264               -8.02352811                1.38204069               16.19641535              208.67726810              -11.64615610
              87.58688707               12.14118025               93.99392654                0.00010000               28.36413476              -10.51653326               -1.85763364               21.95375517              197.59843713              -11.04460485
              88.88682485                7.31855395               92.96085012                0.00010000               30.48171340              -10.73439551               -5.46133785               22.64831240              188.60849824               -9.88825198
              90.19652134                2.55639463               91.61989834                0.00010000               29.92833208               -9.30752532               -8.77546518               20.68182568              177.08042188               -9.84406545
              91.48539149               -2.19322167               89.93099688                0.00010000               26.66460262               -6.05603929              -13.10290728               17.44571518              158.44781318              -11.44882987
              92.72981339               -6.96160538               87.82169337                0.00010000               22.20518988               -0.40206637              -20.89752381               13.45260347              128.65616206              -14.88798352
              93.92949529              -11.76755701               85.20458423                0.00010000               20.23997508                8.56069086              -37.41666328                9.09309747               86.10708397              -20.32276162
              95.13461289              -16.61987165               82.03137851                0.00010000               25.30391173               21.87351189              -71.26865310                4.69391995               38.53925264              -27.99139625
              96.43557353              -21.52444764               78.39447317                0.43440352               30.09606360               40.16550125             -126.62721753                3.19786830               17.05682588              -38.72733651
              89.46101261               28.63971734               97.25104612                0.72486600               -0.12935213               -0.40365723               -0.03926189                0.01602210                6.32796318               11.51931926
              90.45971909               23.28375510               94.68212409                0.44145482                2.02630577                0.09419938                0.95204132                5.04224706              125.11390108              -10.86180650
              91.50153873               18.03004573               94.48839271                0.43553092                7.43545746               -6.80019541                2.01911668                6.68279987              237.19995357              -10.63771439
              92.60842824               13.05341796               93.86445135                0.43660087               15.06060549               -8.77622934               -1.68494946               11.90639255              215.92978776               -9.55725111
              93.80275084                8.22509123               92.90025055                0.43734793               22.21552045               -9.34627249               -6.03181684               12.57512956              202.27017252               -8.62076511
              95.05273865                3.47306857               91.60844370                0.43720722               25.54132474               -8.33260544              -10.19445526               12.02145637              188.29660556               -8.46573825
              96.31357733               -1.24691427               89.95723642                0.43658760               24.78685157               -5.36926015              -15.22721500               11.14570999              168.34042020               -9.34934800
              97.54847568               -5.96038891               87.87660380                0.43542132               21.69416555                0.12164708              -23.58512412               10.31436191              137.27041047              -11.11010257
              98.74746064              -10.67795163               85.27714251                0.43445115               20.42399730                8.96053814              -40.66685823                9.84507539               92.76792954              -13.52568595
              99.95695563              -15.39941811               82.10542072                0.43404085               26.08372091               22.04535421              -75.15172242                9.93045538               42.19927074              -16.24331726
             101.26913506              -20.12402800               78.44669781                0.71695938               31.21794345               40.04196441             -130.53816169               10.89516499               18.37172295              -18.33233714
              36.48463817               19.05362035              101.36480978                0.73082190                0.60161880                0.71767012               -0.09964267                0.59303243               -5.62032304                6.00244114
              37.49065436               13.76855402              100.35448298                0.46542653                4.07337481               -0.92770365                0.24396202                5.09605787               -5.89755366               -5.13894058
              38.56610566                8.60461188               99.33563389                0.45748574                5.62443163                0.73140075                0.37357519                0.44953021               -3.55591680               -0.04907915
              39.60314299                3.57821567               98.35980387                0.44647457                2.67721520                0.41097039                0.34473304                0.72403926               -0.93941770               -0.24250136
              40.61964997               -1.38263042               97.39047487                0.44381847                0.99115409                0.37470029                0.46844255                0.43471750               -0.40965652               -0.04449216
              41.62296607               -6.31403738               96.42327917                0.44165660               -0.07309381                0.30546971                0.62898269                0.30520571               -0.41774924                0.06498626
              42.61818809              -11.24299315               95.45231531                0.43998631               -0.70115009                0.26987592                0.80602138                0.16663023               -0.97161988                0.15873937
              43.60894307              -16.18743400               94.47310221                0.43850805               -0.99534121                0.25768315                0.99528581                0.02322113               -1.91121211                0.19434053
              44.59828127              -21.15758440               93.48274337                0.43770392               -1.02871540                0.26704784                1.22118965               -0.14013068               -3.14493864                0.13263456
              45.58836876              -26.15684875               92.47864502                0.43678338               -0.88993983                0.27660529                1.62009073               -0.18464383               -3.75130986                0.21848170
              46.58048247              -31.18175618               91.47618037                0.71867094               -0.78862894                0.06454102                1.88297386                1.09497849               -3.60029905               -2.28070555
              41.77563482               20.06079705              100.97624048                0.48857269               -0.95156494                5.37642777                0.60745814                6.52619727                4.96368740               12.00437824
              42.76611917               14.75927699               99.96133001                0.09398653               -5.49323378               -6.39920631                0.99109377               14.09698334               11.52696061              -11.22071652
              43.66577015                9.61192589               99.07968253                0.04601449               -8.10573207               12.16657283                0.23833758               41.79997025               15.05218917               -0.45195474
              44.60400453                4.58232537               98.17258224                0.02494434               -4.78232401               14.30561251               -0.07011502               59.62382110               12.48077035               -4.01561687
              45.57012367               -0.37888342               97.26599670                0.01656641               -2.39025178               14.40609339               -0.57985234               73.97950950               11.48330788              -11.29777711
              46.55619949               -5.31098268               96.35422353                0.01235214               -0.67854795               13.67076058               -1.16045296               83.64944473               10.59362260              -19.34594137
              47.55655271              -10.24029439               95.43641593                0.01009222                0.51357042               12.46210536               -1.77903909               88.77824012                9.85337839              -29.52385116
              48.56647090              -15.18485717               94.51011756                0.00846028                1.25173151                9.97411569               -2.41191970               89.12571076                9.02878410              -43.86741472
              49.58158734              -20.15491392               93.57308747                0.00718237                1.60686532                3.77888907               -3.09215931               84.56126155                8.04751191              -66.18166912
              50.59860821              -25.15408270               92.62479749                0.00600150                1.73761711              -11.16226580               -3.92134496               78.89446705                6.13393107             -102.62749124
              51.61633968              -30.18111077               91.65121018                0.43771469                1.77314689              -64.78946061               -4.43146659               94.10296123                4.51691342             -155.49080725
              47.21820225               21.16114891              100.69850636                0.49460412                0.32629442                7.70170319                0.29939628                1.00973215               -1.85638582               20.05469630
              48.22146519               15.64056990               99.45119038                0.06159281               18.04272205               -9.60967640                1.31134876               37.95118682               28.51855408              -19.26823721
              49.57905669               10.84794334               98.80870732                0.00010000               28.24817614               11.90361129                2.72339254               95.76473415               63.35448362               -1.01537683
              50.78642871                5.86432792               97.90733315                0.00010000               20.67457609               19.96322312               -6.43657829              114.39175677               66.49412830               -6.97613148
              51.99254821                0.90549145               96.91574703                0.00010000               18.54686149               22.13219463               -7.80363264              139.46228333               74.49770826              -20.04057678
              53.15736594               -4.04062217               95.89815873                0.00010000               13.75395873               22.45427670               -6.91283146              157.61311199               80.56204999              -35.23878472
              54.26762738               -8.99375105               94.82943623                0.00010000                7.43554340               21.45050910               -4.67025065              167.67089807               81.67488976              -54.51856472
              55.30607681              -13.98795169               93.66949301                0.00010000               -0.44476778               17.75588050               -1.30980567              167.64046889               75.59325269              -81.50234060
              56.25873203              -19.08200662               92.34127015                0.00010000               -5.68109334                7.29506661                2.08217158              154.63318780               55.84452748             -123.28906838
              57.19245494              -24.38009407               90.71835939                0.00010000               12.89328988              -21.26264765               -2.04082773              107.17934201               19.59823261             -192.84848605
              58.51659783              -30.47754539               88.76892993                0.43349222               32.41428814              -85.71091645              -37.62105984               78.19607560                0.32757951             -326.85390073
              52.83698748               22.21483112              100.40026601                0.47820247                0.13609963                3.47759473                0.79722343                0.98309805               -0.04391362               21.30669609
              53.83834848               16.56708346               98.96674738                0.04011379               26.01596631               -5.24990772                0.46853741               47.44079072               43.06972680              -19.84190502
              55.35730681               11.84999811               98.39300728                0.00010000               49.79715359               -2.83704766               -1.98922861               98.21085685               96.78425077              -10.35446333
              56.83429155                6.98158983               97.47444953                0.00010000               45.35063020                5.33696535              -11.87483187              108.23505674              105.24966162              -12.96630856
              58.26431941                2.06376048               96.41293065                0.00010000               38.67063384               10.06870546              -13.79601755              124.35538849              117.81280989              -21.86365532
              59.60770423               -2.86189715               95.27850253                0.00010000               29.64903871               12.90325771              -12.87858312              139.03627807              126.19249125              -34.78849102
              60.85730019               -7.81128421               94.03589811                0.00010000               19.99158120               14.13024665              -10.63383702              148.16907916              126.93243091              -52.24367085
              62.00753585              -12.82973956               92.61904338                0.00010000               10.45466421               12.83865358               -8.08166969              148.77136286              117.10327125              -76.75075197
              63.06639347              -18.00901259               90.91223197                0.00010000                6.50989823                6.44071952               -7.98351098              132.79953614               90.49687445             -113.30197976
              64.13773382              -23.57933565               88.75299790                0.00010000               15.43851774               -9.03258464              -22.77471305               86.26635593               48.24299374             -175.01846933
              65.37516383              -29.89532909               86.12906615                0.43338978               23.74300097              -13.36153476              -79.51114386               44.97202839               20.74069792             -287.24460926
              58.53335952               23.23070080              100.11698064                0.47489599                0.17544869                0.20655344                1.35754894                0.67726220                0.37790350               22.09295425
              59.53511401               17.53557174               98.47349932                0.03230238               29.77039640               -1.66678871               -0.34029366               48.23143496               54.68369415              -20.06079741
              61.12876745               12.79120238               97.91336961                0.00010000               60.11267367               -6.94553661               -4.79245118               96.47831272              119.40859255              -16.16583103
              62.73736748                7.97106722               96.97701964                0.00010000               59.71877533               -4.81298263              -14.37561383               99.92362010              127.73671021              -16.48873873
              64.32314296                3.10686556               95.85942778                0.00010000               53.78843547               -0.80386955              -16.00114458              108.42082714              140.70881878              -21.60293993
              65.81313619               -1.78255701               94.61976912                0.00010000               43.78542109                2.62699995              -15.18170037              117.51540404              148.83999485              -31.10776935
              67.19885138               -6.71114611               93.21363018                0.00010000               33.30481261                4.98529875              -13.46683606              123.03904743              148.32405825              -45.17568800
              68.47923245              -11.73117862               91.55970033                0.00010000               23.27337317                5.77642625              -12.39054129              120.05017164              136.01399788              -65.52272686
              69.66431884              -16.95319223               89.52246907                0.00010000               16.24330608                4.87399490              -15.91943677              101.23248304              106.21401464              -96.45432566
              70.80409857              -22.56074576               86.93049614                0.00010000               19.18532161                7.44147850              -37.90789154               59.07092520               57.68149132             -147.36626606
              72.04802528              -28.74477608               83.75032120                0.43370325               24.39267086               26.34589796             -105.59644573               31.36120565               26.44817849             -232.27984456
              64.24079085               24.21896219               99.83315866                0.47145762                0.16847537               -1.98486953                1.68157015                0.51375042                0.65435883               21.07514898
              65.24247560               18.53374769               97.98596152                0.02731180               30.52933695                0.73010202               -0.85030432               43.62953298               64.84650046              -18.74642127
              66.85137759               13.71108738               97.42007721                0.00010000               63.73125893               -8.35562626               -6.80132853               86.67445353              138.60417901              -18.28741311
              68.51710078                8.88533018               96.47235597                0.00010000               66.74913037              -10.70448273              -15.69257060               89.39042913              145.42712235              -18.00385031
              70.18636019                4.04768309               95.31627580                0.00010000               62.94616011               -9.33134283              -17.04594073               93.65277606              156.82257601              -20.58849200
              71.77602398               -0.80935715               93.99495715                0.00010000               54.01712741               -6.66129170              -16.36704108               97.99385807              163.42839188              -26.95512348
              73.26670274               -5.71157824               92.45535621                0.00010000               43.72807100               -3.92356744              -15.26786560               99.10471149              161.23657195              -37.50819985
              74.65058540              -10.71421104               90.60709367                0.00010000               32.69537687               -1.17760400              -15.48447580               92.67860161              146.83175136              -53.62685679
              75.92061028              -15.91153269               88.30694567                0.00010000               23.00753872                3.46043184              -21.34954096               73.66746245              113.90145688              -78.40034252
              77.11073618              -21.43050608               85.37785105                0.00010000               22.49191520               15.02642540              -46.79527919               40.68856718               60.84980894             -117.75394025
              78.37044858              -27.36841114               81.79215711                0.43388096               25.97124068               40.40226637             -118.11359421               21.53497198               27.67761371             -178.39860121
              69.91406354               25.19100341               99.54280691                0.46709668                0.15159424               -3.09221342                1.77777698                0.37585515                0.77121606               19.19452190
              70.91557948               19.55017378               97.50726977                0.02301110               29.83052470                2.04877135               -1.09266374               36.09002754               74.08649837              -16.88523150
              72.51067403               14.62408986               96.93582010                0.00010000               63.65004422               -9.18530723               -7.82623081               72.36955958              156.10918455              -18.37578745
              74.18858036                9.75697757               95.99085414                0.00010000               69.01058894              -14.24617015              -16.01988738               76.50838444              161.41812028              -17.87402724
              75.89088581                4.92023870               94.81791949                0.00010000               67.18471583              -14.85878907              -17.23638339               79.36953720              170.60568068              -18.77459997
              77.53227468                0.08421715               93.44306552                0.00010000               59.74568448              -13.11258360              -16.81694334               80.55862515              175.04689438              -22.66021636
              79.08579950               -4.78961746               91.80619272                0.00010000               50.02421271              -10.18892479              -16.30644015               78.33743908              170.81843500              -30.15889601
              80.53275893               -9.75473070               89.81200806                0.00010000               38.40818216               -5.80724232              -17.45534505               70.09766798              154.15794121              -42.34409242
              81.85396314              -14.88398359               87.31438876                0.00010000               27.09947108                2.09447066              -24.60823276               53.34467891              118.41359362              -61.25072903
              83.07474835              -20.26021725               84.13743818                0.00010000               25.02858396               17.22433580              -51.46439682               28.43496445               62.30148032              -90.33158373
              84.35453482              -25.93673076               80.26632720                0.43350684               27.97864656               42.84207485             -123.79108463               15.26012509               28.09303390             -133.09127835
              75.52996721               26.15711792               99.24189152                0.45999160                0.12225002               -3.21398978                1.57127781                0.30256729                0.80225066               16.90183744
              76.53118971               20.57472311               97.03842687                0.01820888               28.09988932                2.39943639               -1.01277022               27.01917818               83.11008854              -14.88950465
              78.09196499               15.52738124               96.47923829                0.00010000               60.99649586              -10.49176001               -7.92658779               55.23657074              173.32506826              -17.17197319
              79.75111962               10.60040678               95.55904661                0.00010000               67.72731797              -16.65952278              -15.37684224               61.65701769              177.08194759              -16.24176079
              81.44651135                5.75050730               94.39490112                0.00010000               67.29665120              -18.02209825              -16.66184936               64.32287187              183.76627700              -15.78674800
              83.09705265                0.92839118               92.99651207                0.00010000               61.29440103              -16.68381756              -16.66602140               63.62251787              185.66445932              -17.70659472
              84.67239937               -3.91535673               91.29940523                0.00010000               52.49261214              -13.64812932              -16.77035214               59.47703204              179.10888135              -22.60634558
              86.14690489               -8.83035588               89.20632227                0.00010000               41.02955204               -8.40521632              -18.63427737               51.10923488              160.12511177              -31.24906811
              87.49299041              -13.86964328               86.57092126                0.00010000               29.26388687                0.93152526              -26.51905436               37.65176786              121.88453016              -44.84422961
              88.73218263              -19.08601937               83.22045321                0.00010000               26.78438370               17.00913315              -53.90848226               19.76151501               63.40854530              -65.39098535
              90.02867809              -24.51156964               79.15074729                0.43363593               29.64954597               41.41414561             -126.17759086               10.75499632               28.36527748              -94.98912743
              81.08490449               27.12672362               98.92856436                0.45294222                0.07952313               -2.44012296                1.04673415                0.31975370                0.79058846               14.79946726
              82.08569972               21.59816251               96.57856467                0.01361290               25.24086434                1.86015244               -0.57367083               17.49883923               92.66421326              -13.30591868
              83.58972178               16.41425466               96.06440261                0.00010000               55.64474616              -12.31771548               -7.07837589               36.72154614              191.64724300              -14.89838742
              85.19859465               11.42378711               95.20041396                0.00010000               62.98185314              -18.02057293              -13.80242733               45.48743769              193.39664124              -13.11805765
              86.84935884                6.55979674               94.07278802                0.00010000               63.59972131              -18.97653978              -15.41411702               47.79835762              197.02012641              -11.61241193
              88.47058907                1.75054080               92.67946881                0.00010000               59.23641787              -17.74571320              -16.09187088               45.87131080              195.97349366              -11.97791526
              90.03408720               -3.06258005               90.95707325                0.00010000               51.93205511              -14.79855968              -16.90843686               41.08875524              186.97358248              -14.72020331
              91.50923018               -7.92283502               88.80883260                0.00010000               41.42873916               -9.38925925              -19.42689173               33.92566754              165.75606079              -20.23249428
              92.86266198              -12.86535309               86.08917269                0.00010000               30.13374191                0.18726747              -27.82664323               24.39596714              125.33468942              -29.05726952
              94.11190501              -17.92003459               82.62791149                0.00010000               27.90366527               16.16125693              -55.44525858               12.89213681               64.80768691              -42.25614388
              95.42073529              -23.10844784               78.42684824                0.43346234               30.88302746               39.63695601             -127.28044735                7.22153855               28.86755057              -61.32383608
              86.59348449               28.10831546               98.60696541                0.44552087                0.01509610               -1.13400150                0.05764373                0.30593954                0.04172815               11.74255691
              87.59363545               22.61192616               96.12143880                0.00867549               20.36434123                0.73336448                0.43507959                8.50066557              103.93609291              -10.93301740
              89.00077132               17.28102693               95.71232920                0.00010000               46.08454236              -13.30989153               -5.44030351               17.47040537              213.11626620               -9.59363541
              90.51532630               12.23999532               94.94191907                0.00010000               53.74767503              -16.71012291              -11.48939365               26.08699545              211.08266621               -8.23455583
              92.07572482                7.37097651               93.87227017                0.00010000               56.07646751              -17.62690907              -13.92416182               27.34258587              210.18932678               -6.27031212
              93.63685565                2.57347692               92.50756458                0.00010000               54.59127436              -16.87399520              -15.57383076               25.16481718              206.05988306               -5.81539483
              95.16755030               -2.21132793               90.79109593                0.00010000               49.56678154              -14.38083977              -17.19120487               21.56960661              194.91935468               -6.91397299
              96.62819128               -7.01814107               88.62856741                0.00010000               40.52795108               -9.23158519              -20.29284444               17.11114399              171.85023990               -9.65512339
              97.97810932              -11.86589793               85.87471896                0.00010000               30.24644207                0.06401129              -29.15074646               12.08296727              129.50984704              -14.10236384
              99.23312012              -16.76279423               82.35884143                0.00010000               28.59130196               15.45411531              -56.90133083                6.57383873               66.93593803              -20.53093392
             100.54993536              -21.71883052               78.08380158                0.43304098               31.68152428               39.58080413             -128.48507644                3.82216924               29.83371315              -30.06556560
              92.08380188               29.10404359               98.24752038                0.72229555               -0.08003105               -0.42718725               -0.46969758               -0.08963965                5.29996973                9.61366627
              93.08300157               23.61282980               95.69488848                0.43933184               11.36294254                0.09036402                1.27607510                1.13727369              122.80818378               -9.17072958
              94.31106073               18.14805683               95.49073309                0.43535329               27.36917023              -13.29700995               -3.81945626                4.86668413              240.73392725              -10.28650094
              95.63038497               13.08958465               94.81624929                0.43657734               37.58341160              -15.04106635              -10.05851149               14.46595388              227.19758852               -8.75383689
              97.06272896                8.20725855               93.80820553                0.43725505               46.29024394              -16.37179537              -13.66476129               14.87422680              221.39432798               -7.25503006
              98.55618985                3.41306090               92.48409106                0.43705405               49.71841761              -16.04160175              -16.31575921               14.06065040              215.27072684               -7.12504993
             100.05709731               -1.35019684               90.79922677                0.43647284               47.49166025              -13.88689169              -18.52182684               12.92831988              203.43993023               -8.17505318
             101.50602306               -6.10746673               88.66170918                0.43544508               39.59385876               -8.93256599              -21.78118656               12.08937692              179.49672252              -10.26904823
             102.84897449              -10.86407286               85.92238235                0.43414896               29.51456595                0.18250685              -30.60206223               11.91223859              135.22892174              -12.85256486
             104.09631438              -15.61095228               82.40551833                0.43329554               28.01383810               15.18419437              -58.50325023               13.68148054               69.90015317              -15.53941369
             105.40925125              -20.31683176               78.11065175                0.71670646               31.29368751               40.19987571             -129.88665559               15.34364116               30.94367285              -18.13882261
              37.44189578               19.49283755              102.36071540                0.72418550                0.64353478                1.27470368               -0.44974757                1.06712082               -3.76628529                4.04365411
              38.44833113               14.11093000              101.35603105                0.46001788                4.10469033               -1.24260016                0.06407725                6.19395740               -4.61834411               -3.53972041
              39.52398959                8.86459679              100.33662415                0.45705551                5.65999358                1.12433826               -0.55446289                1.17004364               -4.18503663               -0.03125241
              40.56153100                3.76653981               99.36047695                0.44450489                2.77058658                0.55545325               -0.26949038                1.01485102               -1.77430191               -0.21757006
              41.57940132               -1.25295733               98.39311077                0.43925049                1.13460137                0.41058776                0.00732035                0.75306280               -1.08452543               -0.06762228
              42.58422303               -6.23509178               97.42796799                0.43826811                0.07472626                0.23639166                0.26428490                0.66324166               -0.95885035                0.06797600
              43.58089584              -11.21224683               96.45902659                0.43691376               -0.54623472                0.12824706                0.45683706                0.58362425               -1.27529507                0.14591828
              44.57329833              -16.20491672               95.48178861                0.43614721               -0.82495319                0.07026038                0.61010413                0.49470786               -1.85166591                0.18549784
              45.56439678              -21.22395938               94.49362782                0.43571581               -0.85419596                0.06402268                0.75666802                0.35297335               -2.52966171                0.15042193
              46.55621441              -26.27173658               93.49364621                0.43521546               -0.68270631                0.08060062                1.04309723                0.20502899               -2.65664649                0.13279149
              47.55074265              -31.34278542               92.49409734                0.71750917               -0.54717596               -0.29581521                1.27700256                0.92552083               -2.29225087               -1.52327652
              42.83447454               20.50558459              101.97991097                0.50411110               -1.00834588                7.89961541               -0.09705876                9.43594956                3.38623317                9.36297281
              43.82439108               15.09850400              100.97240794                0.11539571               -6.32947114               -8.66281327                1.39148438               18.55029648                9.27302726               -9.66821378
              44.70788512                9.87584018              100.08538666                0.04560466               -9.69672540               16.49926178                1.62276780               58.71216085               12.44852181               -0.35300508
              45.63045657                4.77209435               99.17632771                0.02082278               -6.00686871               19.95632903                0.90779131               92.89035099                9.74249214              -10.98046724
              46.58774774               -0.24885145               98.26400729                0.01000271               -2.99781893               20.47350487                0.17198916              116.21916748                8.58681875              -17.40557369
              47.57050019               -5.23272786               97.34650698                0.00576889               -0.80515912               20.77651478               -0.49709382              131.82547437                7.85789367              -24.07562505
              48.57164456              -10.21096436               96.42282253                0.00448892                0.68007456               21.21216345               -1.08124941              141.84975378                7.38949612              -32.23353708
              49.58410168              -15.20421412               95.49117820                0.00392128                1.48459399               21.00592317               -1.54320376              146.87979840                6.90866878              -43.78039962
              50.60133644              -20.22331915               94.54880259                0.00304587                1.67880200               17.19931134               -1.91955090              146.00010557                6.19418219              -62.20779562
              51.61767772              -25.27093057               93.59359643                0.00166877                1.48551343                1.97809592               -2.32335102              138.70356701                4.60680364              -96.84947334
              52.63104671              -30.34574357               92.61524517                0.43440382                1.33689832              -80.05307803               -2.49931024              150.07620604                3.14186363             -169.44228708
              48.44477595               21.65082986              101.69492994                0.50990286                0.43055189               10.88552742               -1.98328819                0.64398109               -1.46043918               17.90398101
              49.44908147               15.93767374              100.46886821                0.08195984               28.99332531              -12.47852306                2.84844181               49.78247124               27.41026976              -18.13428424
              51.02464246               11.19458203               99.81694293                0.00010000               54.74740904               17.25496105              -24.01610386              134.11683218              117.19212156                6.00871591
              52.54402965                6.16566640               98.77381680                0.00010000               44.19822097               29.34104444              -24.31850586              171.08184895              131.21167270               -7.74197433
              53.90860687                1.15651277               97.78705586                0.00010000               31.94078863               33.85575499              -23.49006271              210.48777147              146.34322454              -17.51289058
              55.18284542               -3.81956148               96.78312887                0.00010000               24.03851518               36.74872401              -22.41826513              239.98392322              153.13680006              -27.62310687
              56.38937718               -8.78800356               95.74140443                0.00010000               17.02018351               39.19609591              -21.35742581              259.86390504              156.87738716              -39.68570140
              57.52324909              -13.78479826               94.62442228                0.00010000                8.08690812               39.90466064              -19.37165358              269.10212211              156.78024835              -56.47126846
              58.55111534              -18.87997315               93.35994742                0.00010000               -3.52694578               34.13659683              -15.05178626              261.98994381              145.73954784              -83.55183214
              59.45271018              -24.23217466               91.75504670                0.00010000                7.53887212                4.15903838               -9.22019208              188.47873400              101.66470406             -133.34187000
              60.70189278              -30.94384698               89.38109386                0.43304393               24.91826073              -85.80598744              -29.96143388              127.74778313               55.21409728             -290.21599676
              54.27366641               22.72329514              101.40408807                0.47901452                0.26219244                4.40878955               -0.15726178               -0.17168931                0.15315852               19.83216192
              55.27628833               16.84893354               99.97281247                0.04562099               44.42813449               -5.98816605                0.82859939               62.09424669               39.10768085              -19.33595203
              57.16222910               12.22093940               99.31521372                0.00010000               90.69372401               -3.00493895              -30.23808396              131.95281911              137.26130759               -8.80561024
              59.09016281                7.35891524               98.25983398                0.00010000               81.02509740                8.97655620              -29.86379440              144.95816234              159.91916066               -7.92116826
              60.78273105                2.42826365               97.20041533                0.00010000               61.22660861               16.83500707              -27.82514937              168.24466035              178.72289742              -13.64265751
              62.31469499               -2.49775338               96.08272505                0.00010000               47.57141960               22.07283767              -25.60149302              191.24301193              187.59834583              -21.54524981
              63.73415944               -7.42704244               94.86811783                0.00010000               37.17093652               25.83582594              -23.51289122              208.99030641              191.09867885              -32.12894814
              65.05811372              -12.40612091               93.48640233                0.00010000               27.71761366               27.26243960              -21.00783642              218.18524383              188.11881702              -47.18832851
              66.28851171              -17.54058721               91.81215648                0.00010000               19.65062596               23.06108563              -18.58127988              205.30727952              170.02535335              -70.36626075
              67.45112624              -23.18774980               89.55009445                0.00010000               16.04176541                6.92227897              -20.87991960              138.19085344              121.02768179             -114.30854455
              68.60934702              -30.06186332               86.25053221                0.43317330               15.82207850               15.05130121              -76.17638599               74.83210372               79.76606752             -224.13725380
              60.19006536               23.73900565              101.12848281                0.47137536                0.32567796               -0.21466628                0.85170844               -0.40502974                0.44282720               20.28434684
              61.19332214               17.81791041               99.46995879                0.03264340               48.18258896               -1.27464272               -0.30881579               61.49993401               50.27675137              -19.22901844
              63.15371714               13.13448325               98.80294544                0.00010000              102.12732532               -9.34116696              -33.59498694              121.86639953              154.35614124              -12.37286608
              65.23586865                8.34519752               97.73768178                0.00010000               98.82257790               -6.34456702              -32.42544603              123.42159384              175.02019987               -9.30473835
              67.13016870                3.49321291               96.62862241                0.00010000               81.35715513               -0.83678309              -29.79065591              134.44293552              193.73207224              -11.06230043
              68.86301175               -1.37810473               95.40753679                0.00010000               67.36910682                3.71305276              -27.06400079              149.14189910              202.30059655              -16.16211585
              70.47755083               -6.27128704               94.02757880                0.00010000               56.87434961                6.80520051              -24.81055316              161.53912293              205.01677186              -24.02748090
              72.00049874              -11.23954947               92.39847812                0.00010000               48.06694962                7.81195634              -22.94326685              164.93384190              200.23646016              -35.65310169
              73.43888983              -16.41875144               90.36199560                0.00010000               36.86523059                6.10229168              -22.55378154              146.67801716              179.85200755              -54.35756035
              74.73780335              -22.09372908               87.59578588                0.00010000               25.39360367                9.88005824              -31.02636812               89.12389576              125.63287058              -88.37718599
              75.94676190              -28.64282096               83.63171831                0.43323345               20.89585467               44.32683870              -92.23395303               49.77510707               82.28033793             -162.59320980
              66.10775629               24.71900181              100.84912758                0.46734745                0.30531256               -3.00798662                1.49168850               -0.47167322                0.67766268               18.89705673
              67.11080941               18.82344068               98.97656347                0.02697937               48.22568485                1.65623742               -1.04940745               54.81281693               59.99737374              -17.60490399
              69.07226998               14.03411606               98.28591062                0.00010000              104.45278102              -10.41720186              -34.35491920              107.79666568              168.32466980              -13.86227300
              71.19986503                9.23202390               97.22158811                0.00010000              106.13110099              -14.06102130              -33.17492375              108.10562329              187.00539290              -10.38673433
              73.19489200                4.41152799               96.07677108                0.00010000               93.10839429              -12.90491858              -30.37485307              113.39386117              203.57278218              -10.51659429
              75.06203292               -0.42349232               94.77389456                0.00010000               81.57473172              -10.40619372              -27.66677336              121.40418452              210.99055085              -13.43987078
              76.82638664               -5.29093843               93.25630089                0.00010000               72.11110157               -8.23258681              -25.64741244              127.35213409              212.65755242              -19.00676892
              78.50425495              -10.24988178               91.42309584                0.00010000               62.49325135               -6.66398977              -24.39307990              124.83320196              206.69234173              -27.92418133
              80.07625167              -15.41854138               89.10451592                0.00010000               47.67093599               -3.44664218              -25.41783591              104.82172122              184.43260303              -42.44699993
              81.45767367              -20.99014864               85.97345289                0.00010000               31.33906285                9.35670084              -35.74963322               60.47541016              127.33809016              -67.45668551
              82.70303292              -27.17532655               81.58263029                0.43292145               24.53592521               44.45109866              -97.74502121               33.11257134               82.89736635             -116.42502926
              71.97175415               25.67884592              100.56045306                0.46279007                0.27100793               -4.36518748                1.75793928               -0.45592498                0.76683223               16.76788916
              72.97446423               19.85103516               98.49508589                0.02272159               46.46565448                3.23453665               -1.41038973               44.64872625               69.10080884              -15.47957348
              74.90106724               14.92613921               97.79267602                0.00010000              102.30524774              -11.48268814              -33.42224195               88.40445711              181.18097102              -13.53291954
              77.02056919               10.06397709               96.74153055                0.00010000              107.62474499              -18.76183353              -32.51988196               90.68436585              197.66006252              -10.20582377
              79.05356214                5.23511454               95.57984411                0.00010000               98.64963354              -20.62726642              -30.01770182               94.23856031              211.88427449               -9.46921325
              80.99356186                0.41377140               94.22084347                0.00010000               89.87104152              -19.90508713              -27.68157598               97.89021775              217.74152016              -10.96931216
              82.85098297               -4.43593878               92.60114146                0.00010000               81.56019369              -18.26496827              -26.09863631               98.76474195              218.18356845              -14.75941879
              84.62476573               -9.37282926               90.61490901                0.00010000               71.23040682              -15.51498905              -25.40071832               92.64890185              210.94259586              -21.37595934
              86.27559111              -14.48768428               88.08941294                0.00010000               53.96654968               -8.99213161              -27.06831754               74.50874467              187.05367020              -32.24834575
              87.70409672              -19.90659506               84.70216147                0.00010000               35.18890214                6.96657497              -37.79223153               41.58368432              128.03020247              -50.17972606
              88.97936915              -25.75379898               80.02376395                0.43294686               27.52724264               39.04309866              -99.07277740               22.73130085               82.74593427              -83.39299419
              77.75425930               26.63169806              100.25806483                0.45692439                0.22313428               -4.51968551                1.68533402               -0.42346507                0.80427313               14.23317848
              78.75649064               20.88813142               98.02674473                0.01746460               43.65789482                3.64665021               -1.42246409               32.52143017               78.09709301              -13.14090592
              80.62741720               15.80446230               97.33829459                0.00010000               97.40431928              -13.33407911              -31.17375430               65.73308496              193.84901355              -12.38812547
              82.70457703               10.85678722               96.32273252                0.00010000              105.12258550              -22.27310457              -30.65498026               71.16789978              208.00901599               -8.98590611
              84.72986891                5.99898266               95.16657374                0.00010000               99.31567812              -25.24763472              -28.79325713               74.72016061              219.70483238               -7.69013359
              86.69089059                1.17840593               93.77899460                0.00010000               92.92066167              -25.25815670              -27.14231001               75.68644228              223.82757723               -8.23480140
              88.58828214               -3.65623780               92.09314346                0.00010000               85.90439505              -23.79747416              -26.15569159               73.36002079              222.84759311              -10.66813352
              90.40897849               -8.56018156               90.00221173                0.00010000               75.59551088              -20.32066728              -25.94935337               66.05990537              214.26566999              -15.35815469
              92.10019236              -13.59838401               87.33394628                0.00010000               57.32417843              -12.32121257              -27.93568347               51.43603207              188.91960881              -23.12695121
              93.55546206              -18.85081714               83.77133180                0.00010000               37.59372153                4.30978076              -38.57237775               28.22437491              128.49412116              -35.62333319
              94.85206679              -24.39446458               78.89950850                0.43313049               29.66047275               33.34649762              -98.93773114               15.44195992               82.60892504              -57.95732997
              83.45041814               27.58845221               99.93974108                0.44853376                0.17104590               -3.60245143                1.24754619               -0.32247285                0.80882219               11.72802283
              84.45212860               21.92396817               97.57118828                0.01134779               39.83274957                2.98487672               -1.04471635               19.61668325               87.65622756              -10.97224296
              86.24707313               16.65945763               96.93708625                0.00010000               89.86391105              -16.23089046              -27.63256789               41.42584249              207.40778218              -10.51851323
              88.24940682               11.61851500               95.98807468                0.00010000               98.96367566              -24.80667122              -27.64778042               50.73632982              218.69856105               -6.63911792
              90.22634664                6.73016184               94.86186421                0.00010000               95.65521679              -27.06262284              -26.85125006               54.25951190              227.51691651               -5.17545447
              92.16251116                1.90860826               93.47115599                0.00010000               91.52121181              -27.14707240              -26.18364993               53.29762707              229.62917696               -5.09148066
              94.05677088               -2.91188826               91.75263263                0.00010000               86.27994491              -25.87084256              -25.95678974               49.33213701              227.13461689               -6.51506890
              95.88811005               -7.77924261               89.60075755                0.00010000               76.90882223              -22.37014333              -26.24291310               42.59981987              217.24918721               -9.59361505
              97.59494732              -12.73410853               86.84465636                0.00010000               58.82773651              -14.22149644              -28.44174746               32.40345097              190.62794848              -14.74278188
              99.06466478              -17.82039945               83.17070691                0.00010000               39.02779497                2.13599865              -38.95810653               17.80132369              129.04392045              -22.73125758
             100.37550322              -23.08686903               78.17372686                0.43277352               31.08384405               29.24510583              -98.57689839                9.86607678               82.66590597              -36.91493942
              89.07677792               28.55964903               99.60736747                0.44053055                0.10409579               -1.87857460                0.25207092               -0.08912480                0.29967325                8.51153997
              90.07781888               22.94782895               97.12493473                0.00497538               34.23046424                1.47364943               -0.04099559                7.03684557               98.73246901               -8.14633192
              91.76138721               17.47984449               96.60886381                0.00010000               78.53902652              -19.59748598              -22.49292851               18.03040907              223.19777729               -6.48806468
              93.64859941               12.36065380               95.76413866                0.00010000               88.17893358              -24.44171109              -23.77540956               28.16932319              230.50734385               -3.76131225
              95.52496588                7.45773020               94.68236689                0.00010000               87.51469113              -26.10209686              -24.49320765               30.56298368              235.10937463               -2.34984503
              97.39889324                2.63546449               93.30842173                0.00010000               86.89049355              -26.55468234              -25.20667122               28.66179759              235.25869490               -2.05538519
              99.26277575               -2.17365465               91.58717279                0.00010000               84.21509621              -25.73943703              -25.84162172               25.24690087              231.45958145               -2.68974111
             101.08319516               -7.00758443               89.41583648                0.00010000               76.33212302              -22.64054037              -26.56169794               20.89925999              220.35361418               -4.37532520
             102.78941821              -11.88281394               86.62156930                0.00010000               59.05269361              -14.81105855              -28.94270389               15.63849373              192.76581032               -7.11030434
             104.26424903              -16.80809716               82.89335189                0.00010000               39.64546416                0.84196368              -39.36927023                8.76379954              130.03283880              -10.98954354
             105.58232750              -21.80956246               77.82477164                0.43300988               31.80784637               27.31821196              -98.60911538                4.96539292               82.86064042              -18.16909949
              94.67227581               29.55088072               99.24165217                0.71924831                0.03942480               -0.87683168               -0.36225937               -0.19416779                3.48538824                6.43691898
              95.67267006               23.95344116               96.70764559                0.43689226               26.12903275                0.56122045                0.79280931               -4.68352286              115.54644608               -6.25367901
              97.19485646               18.26750791               96.41200358                0.43518034               58.11187573              -21.23365746              -17.05372536                2.15890658              246.32001629              -10.23042192
              98.83490757               13.12968078               95.66328112                0.43571716               68.39695854              -23.09730202              -19.80643587               15.66141540              241.85661011               -6.45712601
             100.56279563                8.20811991               94.62695532                0.43612301               76.61121926              -24.96102947              -22.89791744               16.17466707              242.21264897               -5.65618510
             102.36713196                3.37751462               93.28212851                0.43620274               82.09810885              -25.79498677              -25.04310751               15.08402659              241.39344478               -5.94981848
             104.20475781               -1.42667700               91.58679988                0.43572157               82.40612962              -25.30223546              -26.36247736               13.71980414              237.77100470               -7.35091488
             106.01525455               -6.23205342               89.44098006                0.43554326               75.17360632              -22.44689888              -26.96249109               13.02330370              226.58354173               -9.97434482
             107.70822994              -11.03032970               86.66510126                0.43443446               57.57173720              -14.75157625              -28.68298153               13.30583462              197.33105966              -13.98517424
             109.16668929              -15.80356017               82.93535571                0.43330028               38.47558676                0.45369922              -39.32672924               14.73527155              132.31889700              -15.77992666
             110.47774167              -20.54050479               77.84896470                0.71667416               31.10523802               26.90576658              -98.61635658               15.84695554               84.26568821              -19.53464277
              38.41868115               19.89610230              103.35581483                1.00000000                0.36975682                1.77396705               -0.49005644                0.85879209               -2.32649386                2.17492125
              39.42237872               14.46500584              102.35576452                1.00000000                2.96389403               -1.19302839               -0.02665312                2.89050690               -4.15875083               -1.25289878
              40.47795903                9.10646182              101.32454463                1.00000000                4.43958050                1.80851820               -1.20795215               -2.85597662               -4.67057812                2.94582831
              41.51117033                3.94216274              100.35441406                1.00000000                2.62546947                0.72134337               -0.60628865               -0.70554590               -1.73223421                1.19469338
              42.53046842               -1.12577591               99.39062128                1.00000000                1.33514538                0.48359273               -0.24894897               -0.47469501               -1.18574920                0.59966282
              43.53787324               -6.14975585               98.42856487                1.00000000                0.41965741                0.20997795                0.05968822               -0.42764926               -1.09343994                0.10527137
              44.53886157              -11.16766667               97.46145206                1.00000000               -0.02823551                0.03236982                0.24254617               -0.55638617               -1.36645585               -0.20809526
              45.53730853              -16.20250324               96.48530429                1.00000000               -0.15155727               -0.05955994                0.35156889               -0.72737250               -1.77774655               -0.36373270
              46.53583043              -21.26492551               95.49787673                1.00000000               -0.12711104               -0.04639332                0.42489153               -0.85727191               -2.14650187               -0.41464070
              47.53476631              -26.35409335               94.49950696                1.00000000               -0.10476098                0.16206940                0.58607504               -0.52605289               -1.95262614               -0.35332642
              48.53373521              -31.45451736               93.50172042                1.00000000               -0.10311019               -0.24356711                0.76230788                0.17202496               -1.47939946               -1.22283805
              43.85836553               20.91384197              102.97429930                1.00000000               -1.22615058                9.94745631               -0.56116660               15.04514693                3.87513928                5.97702616
              44.84610403               15.45307555              101.98915970                1.00000000               -7.37723604               -9.37630757                1.67517558               21.79919542                9.06322417               -6.92311021
              45.71082081               10.12454700              101.11213789                1.00000000              -11.29351456               31.59143874                2.67512312              131.81460626               10.37248834              -24.93728687
              46.62023374                4.94937618              100.19073807                1.00000000               -6.95700221               34.19097087                1.44103581              184.19459616                6.84264661              -28.94436848
              47.57168077               -0.12093998               99.26943649                1.00000000               -3.28458057               37.23007549                0.54291961              214.12999773                6.07048214              -34.44262811
              48.55454213               -5.14765607               98.34428166                1.00000000               -0.60046816               41.02267368               -0.22253264              234.07385756                5.67191599              -40.43139317
              49.55967141              -10.16734297               97.41479094                1.00000000                1.20610490               46.74531475               -0.80315922              248.47886865                5.55127630              -48.59607837
              50.57866422              -15.20309884               96.47925349                1.00000000                2.16906765               54.49510281               -1.19247173              259.38918915                5.45152964              -60.05068991
              51.60305276              -20.26538944               95.53469646                1.00000000                2.28187407               62.42641772               -1.41061337              267.88471666                5.12548125              -77.08914453
              52.62430171              -25.35247265               94.57833047                1.00000000                1.64133559               67.53319264               -1.52659540              273.91363431                3.98877419             -106.43177896
              53.63587947              -30.45695303               93.60122398                1.00000000                1.15777654              -23.13175025               -1.40211893              281.30447382                2.77262683             -177.72190436
              49.64111692               22.09505142              102.65884060                1.00000000                0.65406734               13.20397606               -3.60893417               10.45464247                4.56595838               15.56323000
              50.64765759               16.27747968              101.50815921                1.00000000               98.84168062              -13.69008562                3.92909989               75.32558003                3.33484482              -16.31142139
              53.61795053               11.73829059              100.32838524                1.00000000              139.64458222               28.16682013              -48.85576904              222.65965591              154.97099900              -11.82375780
              55.44054924                6.62598216               99.42096303                1.00000000               64.60750455               45.49626545              -35.28537635              270.38872104              195.52998581              -19.64664503
              56.91010062                1.61882560               98.44594578                1.00000000               41.26020697               53.51403786              -34.11100837              324.44604918              201.59089455              -24.41915780
              58.26575338               -3.32930238               97.44979343                1.00000000               32.68905459               61.52230044              -33.33354484              364.29202707              206.10789236              -29.86453867
              59.56388172               -8.23276037               96.40228771                1.00000000               27.86927026               71.36527115              -33.91167174              396.63131350              209.06377963              -36.93321393
              60.82313878              -13.11260119               95.28205994                1.00000000               23.95084270               82.77684378              -34.23623432              423.17862707              211.88630486              -46.79863450
              62.04289857              -18.01639716               94.04023442                1.00000000               19.07319006               92.35017310              -31.97129998              445.46636776              211.77310354              -63.34690480
              63.20460258              -23.00342949               92.53395555                1.00000000               16.29434364               82.31134630              -22.10911470              379.74274043              181.66258218              -89.27203203
              64.36878544              -29.91715237               90.16970125                1.00000000               16.41828583               -8.58727910              -21.13926157              305.31422220              130.26383557             -247.11481585
              55.70260186               23.17792149              102.39712078                1.00000000                0.67745972                4.81484042               -0.69672975               11.04259433                1.51340466               19.22134545
              56.70937646               17.17927384              100.98331937                1.00000000              105.64547979               -6.51196545                1.05069008               86.42453676               12.86505367              -19.00778024
              59.81551146               12.68788340               99.78824560                1.00000000              171.90483480               -8.26212167              -52.69681120              150.51222021              160.02094890               -7.65136796
              62.14747315                7.85930149               98.87717364                1.00000000              110.01874170                9.86180835              -38.26603414              161.65013180              209.14013709               -4.58399084
              64.01588629                2.94934077               97.85642767                1.00000000               77.22477444               19.52190971              -34.39876618              192.06586101              217.78047596               -7.00884328
              65.69196864               -1.91721006               96.76647267                1.00000000               62.98550986               26.61667682              -31.62523811              225.25300185              223.18799666              -10.51088408
              67.27559649               -6.74003755               95.56564029                1.00000000               56.69524524               32.64407942              -30.24775443              255.70059338              225.76440365              -15.54294018
              68.82587355              -11.54756197               94.19888665                1.00000000               56.38059680               36.58335164              -28.75156830              282.40288176              225.52428689              -23.20535329
              70.40320842              -16.41838598               92.54060637                1.00000000               64.70190900               34.18471427              -27.15501145              293.12344506              218.29531382              -36.22192594
              72.11991173              -21.70624573               90.33539951                1.00000000               58.32006190               12.58907888              -21.46949450              231.60590247              170.12515219              -63.04893113
              73.56960966              -28.62869862               86.60553843                1.00000000               44.96979344               29.42070019              -64.49937803              170.40379813              123.04015638             -169.88648493
              61.85926410               24.19134823              102.13401481                1.00000000                0.69223085               -0.64942093                0.55319965               10.43273772                0.25069414               18.52784057
              62.86618641               18.14724037              100.46732300                1.00000000              104.44515933               -1.13756654               -0.26357885               83.89817590               22.65918056              -17.98430402
              65.94816729               13.57304816               99.24146987                1.00000000              177.29540460              -12.18860358              -56.14755645              141.66564219              172.50440086               -8.90684794
              68.41209450                8.82321833               98.32851072                1.00000000              128.98810504               -9.27773813              -40.91710611              137.75453248              218.72982524               -5.61372614
              70.52792939                4.00926379               97.26361466                1.00000000              102.40486164               -3.16056354              -36.50077544              153.47179629              227.27498890               -5.77735788
              72.46019174               -0.79696884               96.07848911                1.00000000               89.01580487                1.28744089              -32.90476843              176.75969868              232.40822198               -8.12896083
              74.30824549               -5.57987879               94.71741912                1.00000000               84.46765568                3.73806358              -31.01596802              200.55453585              234.18675997              -12.02079063
              76.14954485              -10.38093415               93.10083500                1.00000000               87.79028717                2.92182075              -29.76431249              217.87597895              232.60332687              -18.12119763
              78.06405123              -15.33270287               91.07139344                1.00000000               94.87442087               -3.47520258              -29.06021616              214.24915520              222.97282996              -28.49601388
              80.04703327              -20.75164792               88.30996878                1.00000000               77.88579749               -8.98848288              -28.58171014              153.17181906              172.63542655              -49.41894008
              81.62176718              -27.32873836               83.90564214                1.00000000               57.47339134               26.98706257              -72.60761736              104.31252700              127.06786370             -107.00582777
              67.99947232               25.16493307              101.86299243                1.00000000                0.61677198               -3.69621396                1.38648449                9.20246502               -0.63030208               16.79067027
              69.00564004               19.15652251               99.96497337                1.00000000               98.66870110                2.15803420               -1.15901015               73.91822724               32.98238301              -16.10486876
              71.97284635               14.44411133               98.73297883                1.00000000              173.03540625              -13.60003359              -55.29317896              122.84528577              182.25184265               -7.70520342
              74.46634817                9.67374672               97.80885750                1.00000000              136.63315178              -18.57508224              -41.27306089              119.22685964              225.43830925               -5.23042798
              76.70550938                4.88612950               96.70877874                1.00000000              117.49785130              -18.41060058              -36.79923449              127.80605088              232.69994685               -4.84230844
              78.81630519                0.10853876               95.44162168                1.00000000              108.25715678              -17.16501440              -33.22728832              142.71051062              237.10868885               -6.24964705
              80.87065252               -4.66527628               93.94240796                1.00000000              105.99560070              -17.08848116              -31.38929239              157.47477655              238.30710736               -9.09374106
              82.93621721               -9.48912555               92.11923207                1.00000000              109.41263861              -19.02158142              -30.38637673              164.55903818              236.00527530              -13.76644202
              85.05890529              -14.48789003               89.79858895                1.00000000              112.15831959              -21.28390014              -30.59269629              152.34215069              225.44667817              -21.85341661
              87.17938360              -19.88601538               86.66285838                1.00000000               87.55679019              -15.50213848              -31.05945035              102.64503955              174.10437970              -36.00543620
              88.81004109              -26.08895736               81.83725669                1.00000000               63.06574928               20.36347598              -74.53736089               66.92987038              128.14064742              -72.40160582
              74.06013453               26.11742395              101.57796570                1.00000000                0.52381681               -5.12198003                1.75126335                7.75873816               -1.05233426               14.48809182
              75.06537269               20.19040106               99.47906198                1.00000000               91.38571327                3.96400495               -1.60239110               59.54426485               43.56132434              -13.81319934
              77.88784879               15.30104749               98.26737526                1.00000000              164.46204165              -15.44514135              -52.53007674               98.07133758              191.74788125               -6.36995377
              80.35461353               10.45171668               97.34045650                1.00000000              138.07047923              -24.98010999              -40.10740456               97.83384617              230.91394409               -4.37156596
              82.64925838                5.64105178               96.21756546                1.00000000              125.55971016              -28.57224873              -36.22786546              104.34253630              237.01849861               -3.89341377
              84.86580773                0.85973087               94.88943400                1.00000000              120.30734760              -29.75780635              -33.14094664              113.40145429              240.55731416               -4.80184314
              87.05540533               -3.92164841               93.28421999                1.00000000              119.87658204              -30.74671487              -31.69214711              120.71924651              241.17022038               -6.87679147
              89.26333937               -8.76136578               91.30399370                1.00000000              122.61893759              -31.71209840              -31.09153116              120.92328983              238.29748499              -10.44849514
              91.50778408              -13.75838087               88.77302241                1.00000000              121.88310103              -29.97678475              -31.63905325              107.15161666              227.09929006              -16.38872717
              93.70100139              -19.06169069               85.38159355                1.00000000               92.92322343              -19.05080390              -32.05679205               69.70156313              175.28292892              -26.20219894
              95.36624855              -24.92146884               80.28487165                1.00000000               66.52471568               13.41391118              -73.88923025               44.74528889              129.01574949              -50.03018693
              80.00869287               27.06249347              101.27559820                1.00000000                0.42089317               -5.27212602                1.75333708                6.23351505               -1.11870359               11.85702008
              81.01290180               21.23580261               99.00997759                1.00000000               83.21323013                4.50632985               -1.67671368               42.44107292               54.64936623              -11.30246278
              83.67295747               16.13520851               97.85576320                1.00000000              153.50594980              -18.38661546              -48.25313920               68.57420732              201.35249840               -4.70657941
              86.08302080               11.17414452               96.94594700                1.00000000              135.56942220              -30.10590363              -37.67855169               73.63251982              236.00801582               -2.91417775
              88.38434592                6.31468453               95.81903597                1.00000000              128.20068365              -35.02786423              -34.75377645               80.32977950              240.83364465               -2.51993446
              90.64703447                1.51338263               94.45366587                1.00000000              126.08940920              -37.02234040              -32.53287320               85.58506807              243.47715938               -3.18423992
              92.90613410               -3.28021057               92.77629140                1.00000000              127.21904984              -38.26311722              -31.68520630               87.75112504              243.46866309               -4.71140440
              95.19141547               -8.12336752               90.68733520                1.00000000              129.80642126              -38.34831450              -31.48765308               84.58178311              240.03950756               -7.31956363
              97.50226253              -13.08742573               88.01220759                1.00000000              127.25436827              -34.47254340              -32.17386906               72.69117880              228.29053968              -11.53840465
              99.73650283              -18.26703146               84.44900565                1.00000000               96.11203295              -21.74945761              -32.23261427               46.47290637              176.09333124              -18.26364221
             101.42450319              -23.82067914               79.17199267                1.00000000               68.80003519                7.47295351              -72.75158336               29.72348028              129.54234100              -34.09952523
              85.83818655               28.01198143              100.95351529                1.00000000                0.32925659               -4.29291477                1.37742015                4.63715149               -0.80765339                9.17335346
              86.84147911               22.28052766               98.55767034                1.00000000               74.14022363                3.83698031               -1.35179355               23.76102223               66.84684983               -8.81198609
              89.32099102               16.93331518               97.51175125                1.00000000              140.31543926              -22.94301060              -42.53349948               36.08182020              211.88118947               -2.27887403
              91.64778790               11.84959861               96.64745835                1.00000000              129.78124192              -34.22909468              -34.06163287               48.80643066              241.03869666               -0.86844517
              93.91661586                6.94049450               95.53576302                1.00000000              126.23081472              -37.78980151              -32.61011903               55.94843913              244.44379463               -0.79823217
              96.17240419                2.11928406               94.15579581                1.00000000              126.52810590              -39.59929688              -31.53601798               58.13919627              246.09802560               -1.44415569
              98.44717798               -2.68691075               92.43793746                1.00000000              129.48929961              -40.95397129              -31.46951744               56.77884683              245.44963617               -2.60364398
             100.76219019               -7.52833207               90.28397434                1.00000000              132.90468109              -41.12512814              -31.67832107               52.42652981              241.52802761               -4.40903377
             103.10527160              -12.44783174               87.52033774                1.00000000              130.07613727              -37.05615936              -32.43186210               44.26499130              229.27117837               -7.18945613
             105.36371293              -17.49667984               83.84874936                1.00000000               98.13709548              -24.01012224              -32.19575455               28.49468435              176.65344139              -11.50552065
             107.06801351              -22.77200977               78.45531028                1.00000000               70.43005771                3.16143961              -71.84165799               18.45728109              129.90711995              -21.53274386
              91.56434345               28.97663517              100.61200682                1.00000000                0.24450483               -2.38844300                0.46393516                2.75751708               -0.38224076                6.03660941
              92.56678850               23.31254221               98.12061889                1.00000000               63.05897369                2.09034201               -0.43158344                4.09065418               81.42015168               -5.87495750
              94.82552292               17.67634829               97.26247063                1.00000000              124.25907980              -29.80731736              -34.63931806                6.89274581              223.70317102                1.54574743
              97.05197009               12.48956263               96.46641088                1.00000000              120.40531612              -34.37206985              -29.77277806               24.36588711              246.33383795                1.52399411
              99.23362925                7.55888850               95.38240602                1.00000000              119.26267771              -36.77682573              -29.99608666               30.16763776              247.71735014                0.84003796
             101.43722365                2.72139669               94.00343115                1.00000000              122.78489645              -38.63165556              -30.49905705               29.68157481              248.42591529               -0.03512460
             103.68932718               -2.09929000               92.27426350                1.00000000              128.18217017              -40.47792898              -31.29092858               26.96105528              247.35025733               -0.86154709
             106.00086705               -6.94587008               90.09733345                1.00000000              133.32914722              -41.44543575              -31.85030277               23.39717048              242.84725837               -1.90431442
             108.35591012              -11.82854891               87.29586488                1.00000000              131.48537511              -39.15042680              -32.57044149               19.72923035              230.35531939               -3.15424842
             110.63057455              -16.74723391               83.57145603                1.00000000               99.41992792              -25.69393110              -32.18958661               13.31072591              177.42027164               -5.40195524
             112.34430868              -21.75745035               78.11161927                1.00000000               71.37341240                0.80495232              -71.31523699                8.94503317              130.21444261              -10.63807174
              97.22152281               29.96421257              100.24027519                1.00000000                0.20562681               -1.24226022               -0.13769767                1.53012846                1.97164754                4.16002243
              98.22357908               24.32233450               97.71074467                1.00000000               53.01513558                0.97922828                0.30990794              -15.67312901              100.56007180               -4.09808825
             100.28182552               18.33716883               97.14965859                1.00000000              101.44931799              -33.91794611              -26.23449978              -12.37860445              244.16570122               -4.31511195
             102.25256544               13.16215721               96.42012058                1.00000000              100.31545158              -32.74054166              -24.31605484               13.44899179              251.79521670               -1.38138743
             104.28813455                8.20495798               95.35024719                1.00000000              108.58243758              -35.39305156              -27.67081365               14.67521764              250.68930854               -3.53207577
             106.42421419                3.34665095               93.98322891                1.00000000              118.27656524              -37.47457388              -29.88996054               13.62768821              251.79472502               -5.10659114
             108.65366586               -1.49646933               92.27197722                1.00000000              126.75891611              -39.71793333              -31.48226623               11.23928118              251.85232751               -7.20786115
             110.95939251               -6.35724079               90.12245936                1.00000000              132.37770874              -41.13707049              -31.85207008                9.13399870              248.25107140              -10.00614620
             113.30122003              -11.23084028               87.34872272                1.00000000              129.97181863              -40.22913621              -31.63785423               11.86510756              234.12522853              -14.76527342
             115.55882888              -16.01055846               83.61898374                1.00000000               98.30635105              -26.33245527              -31.63719722               16.57191041              178.69405412              -15.94705732
             117.26734705              -20.75591073               78.13832462                1.00000000               70.85181697                0.15396211              -71.06400766               17.76861083              130.89462584              -18.87005852
         1          2         13         12        122        123        134        133  
         2          3         14         13        123        124        135        134  
         3          4         15         14        124        125        136        135  
         4          5         16         15        125        126        137        136  
         5          6         17         16        126        127        138        137  
         6          7         18         17        127        128        139        138  
         7          8         19         18        128        129        140        139  
         8          9         20         19        129        130        141        140  
         9         10         21         20        130        131        142        141  
        10         11         22         21        131        132        143        142  
        12         13         24         23        133        134        145        144  
        13         14         25         24        134        135        146        145  
        14         15         26         25        135        136        147        146  
        15         16         27         26        136        137        148        147  
        16         17         28         27        137        138        149        148  
        17         18         29         28        138        139        150        149  
        18         19         30         29        139        140        151        150  
        19         20         31         30        140        141        152        151  
        20         21         32         31        141        142        153        152  
        21         22         33         32        142        143        154        153  
        23         24         35         34        144        145        156        155  
        24         25         36         35        145        146        157        156  
        25         26         37         36        146        147        158        157  
        26         27         38         37        147        148        159        158  
        27         28         39         38        148        149        160        159  
        28         29         40         39        149        150        161        160  
        29         30         41         40        150        151        162        161  
        30         31         42         41        151        152        163        162  
        31         32         43         42        152        153        164        163  
        32         33         44         43        153        154        165        164  
        34         35         46         45        155        156        167        166  
        35         36         47         46        156        157        168        167  
        36         37         48         47        157        158        169        168  
        37         38         49         48        158        159        170        169  
        38         39         50         49        159        160        171        170  
        39         40         51         50        160        161        172        171  
        40         41         52         51        161        162        173        172  
        41         42         53         52        162        163        174        173  
        42         43         54         53        163        164        175        174  
        43         44         55         54        164        165        176        175  
        45         46         57         56        166        167        178        177  
        46         47         58         57        167        168        179        178  
        47         48         59         58        168        169        180        179  
        48         49         60         59        169        170        181        180  
        49         50         61         60        170        171        182        181  
        50         51         62         61        171        172        183        182  
        51         52         63         62        172        173        184        183  
        52         53         64         63        173        174        185        184  
        53         54         65         64        174        175        186        185  
        54         55         66         65        175        176        187        186  
        56         57         68         67        177        178        189        188  
        57         58         69         68        178        179        190        189  
        58         59         70         69        179        180        191        190  
        59         60         71         70        180        181        192        191  
        60         61         72         71        181        182        193        192  
        61         62         73         72        182        183        194        193  
        62         63         74         73        183        184        195        194  
        63         64         75         74        184        185        196        195  
        64         65         76         75        185        186        197        196  
        65         66         77         76        186        187        198        197  
        67         68         79         78        188        189        200        199  
        68         69         80         79        189        190        201        200  
        69         70         81         80        190        191        202        201  
        70         71         82         81        191        192        203        202  
        71         72         83         82        192        193        204        203  
        72         73         84         83        193        194        205        204  
        73         74         85         84        194        195        206        205  
        74         75         86         85        195        196        207        206  
        75         76         87         86        196        197        208        207  
        76         77         88         87        197        198        209        208  
        78         79         90         89        199        200        211        210  
        79         80         91         90        200        201        212        211  
        80         81         92         91        201        202        213        212  
        81         82         93         92        202        203        214        213  
        82         83         94         93        203        204        215        214  
        83         84         95         94        204        205        216        215  
        84         85         96         95        205        206        217        216  
        85         86         97         96        206        207        218        217  
        86         87         98         97        207        208        219        218  
        87         88         99         98        208        209        220        219  
        89         90        101        100        210        211        222        221  
        90         91        102        101        211        212        223        222  
        91         92        103        102        212        213        224        223  
        92         93        104        103        213        214        225        224  
        93         94        105        104        214        215        226        225  
        94         95        106        105        215        216        227        226  
        95         96        107        106        216        217        228        227  
        96         97        108        107        217        218        229        228  
        97         98        109        108        218        219        230        229  
        98         99        110        109        219        220        231        230  
       100        101        112        111        221        222        233        232  
       101        102        113        112        222        223        234        233  
       102        103        114        113        223        224        235        234  
       103        104        115        114        224        225        236        235  
       104        105        116        115        225        226        237        236  
       105        106        117        116        226        227        238        237  
       106        107        118        117        227        228        239        238  
       107        108        119        118        228        229        240        239  
       108        109        120        119        229        230        241        240  
       109        110        121        120        230        231        242        241  
       122        123        134        133        243        244        255        254  
       123        124        135        134        244        245        256        255  
       124        125        136        135        245        246        257        256  
       125        126        137        136        246        247        258        257  
       126        127        138        137        247        248        259        258  
       127        128        139        138        248        249        260        259  
       128        129        140        139        249        250        261        260  
       129        130        141        140        250        251        262        261  
       130        131        142        141        251        252        263        262  
       131        132        143        142        252        253        264        263  
       133        134        145        144        254        255        266        265  
       134        135        146        145        255        256        267        266  
       135        136        147        146        256        257        268        267  
       136        137        148        147        257        258        269        268  
       137        138        149        148        258        259        270        269  
       138        139        150        149        259        260        271        270  
       139        140        151        150        260        261        272        271  
       140        141        152        151        261        262        273        272  
       141        142        153        152        262        263        274        273  
       142        143        154        153        263        264        275        274  
       144        145        156        155        265        266        277        276  
       145        146        157        156        266        267        278        277  
       146        147        158        157        267        268        279        278  
       147        148        159        158        268        269        280        279  
       148        149        160        159        269        270        281        280  
       149        150        161        160        270        271        282        281  
       150        151        162        161        271        272        283        282  
       151        152        163        162        272        273        284        283  
       152        153        164        163        273        274        285        284  
       153        154        165        164        274        275        286        285  
       155        156        167        166        276        277        288        287  
       156        157        168        167        277        278        289        288  
       157        158        169        168        278        279        290        289  
       158        159        170        169        279        280        291        290  
       159        160        171        170        280        281        292        291  
       160        161        172        171        281        282        293        292  
       161        162        173        172        282        283        294        293  
       162        163        174        173        283        284        295        294  
       163        164        175        174        284        285        296        295  
       164        165        176        175        285        286        297        296  
       166        167        178        177        287        288        299        298  
       167        168        179        178        288        289        300        299  
       168        169        180        179        289        290        301        300  
       169        170        181        180        290        291        302        301  
       170        171        182        181        291        292        303        302  
       171        172        183        182        292        293        304        303  
       172        173        184        183        293        294        305        304  
       173        174        185        184        294        295        306        305  
       174        175        186        185        295        296        307        306  
       175        176        187        186        296        297        308        307  
       177        178        189        188        298        299        310        309  
       178        179        190        189        299        300        311        310  
       179        180        191        190        300        301        312        311  
       180        181        192        191        301        302        313        312  
       181        182        193        192        302        303        314        313  
       182        183        194        193        303        304        315        314  
       183        184        195        194        304        305        316        315  
       184        185        196        195        305        306        317        316  
       185        186        197        196        306        307        318        317  
       186        187        198        197        307        308        319        318  
       188        189        200        199        309        310        321        320  
       189        190        201        200        310        311        322        321  
       190        191        202        201        311        312        323        322  
       191        192        203        202        312        313        324        323  
       192        193        204        203        313        314        325        324  
       193        194        205        204        314        315        326        325  
       194        195        206        205        315        316        327        326  
       195        196        207        206        316        317        328        327  
       196        197        208        207        317        318        329        328  
       197        198        209        208        318        319        330        329  
       199        200        211        210        320        321        332        331  
       200        201        212        211        321        322        333        332  
       201        202        213        212        322        323        334        333  
       202        203        214        213        323        324        335        334  
       203        204        215        214        324        325        336        335  
       204        205        216        215        325        326        337        336  
       205        206        217        216        326        327        338        337  
       206        207        218        217        327        328        339        338  
       207        208        219        218        328        329        340        339  
       208        209        220        219        329        330        341        340  
       210        211        222        221        331        332        343        342  
       211        212        223        222        332        333        344        343  
       212        213        224        223        333        334        345        344  
       213        214        225        224        334        335        346        345  
       214        215        226        225        335        336        347        346  
       215        216        227        226        336        337        348        347  
       216        217        228        227        337        338        349        348  
       217        218        229        228        338        339        350        349  
       218        219        230        229        339        340        351        350  
       219        220        231        230        340        341        352        351  
       221        222        233        232        342        343        354        353  
       222        223        234        233        343        344        355        354  
       223        224        235        234        344        345        356        355  
       224        225        236        235        345        346        357        356  
       225        226        237        236        346        347        358        357  
       226        227        238        237        347        348        359        358  
       227        228        239        238        348        349        360        359  
       228        229        240        239        349        350        361        360  
       229        230        241        240        350        351        362        361  
       230        231        242        241        351        352        363        362  
       243        244        255        254        364        365        376        375  
       244        245        256        255        365        366        377        376  
       245        246        257        256        366        367        378        377  
       246        247        258        257        367        368        379        378  
       247        248        259        258        368        369        380        379  
       248        249        260        259        369        370        381        380  
       249        250        261        260        370        371        382        381  
       250        251        262        261        371        372        383        382  
       251        252        263        262        372        373        384        383  
       252        253        264        263        373        374        385        384  
       254        255        266        265        375        376        387        386  
       255        256        267        266        376        377        388        387  
       256        257        268        267        377        378        389        388  
       257        258        269        268        378        379        390        389  
       258        259        270        269        379        380        391        390  
       259        260        271        270        380        381        392        391  
       260        261        272        271        381        382        393        392  
       261        262        273        272        382        383        394        393  
       262        263        274        273        383        384        395        394  
       263        264        275        274        384        385        396        395  
       265        266        277        276        386        387        398        397  
       266        267        278        277        387        388        399        398  
       267        268        279        278        388        389        400        399  
       268        269        280        279        389        390        401        400  
       269        270        281        280        390        391        402        401  
       270        271        282        281        391        392        403        402  
       271        272        283        282        392        393        404        403  
       272        273        284        283        393        394        405        404  
       273        274        285        284        394        395        406        405  
       274        275        286        285        395        396        407        406  
       276        277        288        287        397        398        409        408  
       277        278        289        288        398        399        410        409  
       278        279        290        289        399        400        411        410  
       279        280        291        290        400        401        412        411  
       280        281        292        291        401        402        413        412  
       281        282        293        292        402        403        414        413  
       282        283        294        293        403        404        415        414  
       283        284        295        294        404        405        416        415  
       284        285        296        295        405        406        417        416  
       285        286        297        296        406        407        418        417  
       287        288        299        298        408        409        420        419  
       288        289        300        299        409        410        421        420  
       289        290        301        300        410        411        422        421  
       290        291        302        301        411        412        423        422  
       291        292        303        302        412        413        424        423  
       292        293        304        303        413        414        425        424  
       293        294        305        304        414        415        426        425  
       294        295        306        305        415        416        427        426  
       295        296        307        306        416        417        428        427  
       296        297        308        307        417        418        429        428  
       298        299        310        309        419        420        431        430  
       299        300        311        310        420        421        432        431  
       300        301        312        311        421        422        433        432  
       301        302        313        312        422        423        434        433  
       302        303        314        313        423        424        435        434  
       303        304        315        314        424        425        436        435  
       304        305        316        315        425        426        437        436  
       305        306        317        316        426        427        438        437  
       306        307        318        317        427        428        439        438  
       307        308        319        318        428        429        440        439  
       309        310        321        320        430        431        442        441  
       310        311        322        321        431        432        443        442  
       311        312        323        322        432        433        444        443  
       312        313        324        323        433        434        445        444  
       313        314        325        324        434        435        446        445  
       314        315        326        325        435        436        447        446  
       315        316        327        326        436        437        448        447  
       316        317        328        327        437        438        449        448  
       317        318        329        328        438        439        450        449  
       318        319        330        329        439        440        451        450  
       320        321        332        331        441        442        453        452  
       321        322        333        332        442        443        454        453  
       322        323        334        333        443        444        455        454  
       323        324        335        334        444        445        456        455  
       324        325        336        335        445        446        457        456  
       325        326        337        336        446        447        458        457  
       326        327        338        337        447        448        459        458  
       327        328        339        338        448        449        460        459  
       328        329        340        339        449        450        461        460  
       329        330        341        340        450        451        462        461  
       331        332        343        342        452        453        464        463  
       332        333        344        343        453        454        465        464  
       333        334        345        344        454        455        466        465  
       334        335        346        345        455        456        467        466  
       335        336        347        346        456        457        468        467  
       336        337        348        347        457        458        469        468  
       337        338        349        348        458        459        470        469  
       338        339        350        349        459        460        471        470  
       339        340        351        350        460        461        472        471  
       340        341        352        351        461        462        473        472  
       342        343        354        353        463        464        475        474  
       343        344        355        354        464        465        476        475  
       344        345        356        355        465        466        477        476  
       345        346        357        356        466        467        478        477  
       346        347        358        357        467        468        479        478  
       347        348        359        358        468        469        480        479  
       348        349        360        359        469        470        481        480  
       349        350        361        360        470        471        482        481  
       350        351        362        361        471        472        483        482  
       351        352        363        362        472        473        484        483  
       364        365        376        375        485        486        497        496  
       365        366        377        376        486        487        498        497  
       366        367        378        377        487        488        499        498  
       367        368        379        378        488        489        500        499  
       368        369        380        379        489        490        501        500  
       369        370        381        380        490        491        502        501  
       370        371        382        381        491        492        503        502  
       371        372        383        382        492        493        504        503  
       372        373        384        383        493        494        505        504  
       373        374        385        384        494        495        506        505  
       375        376        387        386        496        497        508        507  
       376        377        388        387        497        498        509        508  
       377        378        389        388        498        499        510        509  
       378        379        390        389        499        500        511        510  
       379        380        391        390        500        501        512        511  
       380        381        392        391        501        502        513        512  
       381        382        393        392        502        503        514        513  
       382        383        394        393        503        504        515        514  
       383        384        395        394        504        505        516        515  
       384        385        396        395        505        506        517        516  
       386        387        398        397        507        508        519        518  
       387        388        399        398        508        509        520        519  
       388        389        400        399        509        510        521        520  
       389        390        401        400        510        511        522        521  
       390        391        402        401        511        512        523        522  
       391        392        403        402        512        513        524        523  
       392        393        404        403        513        514        525        524  
       393        394        405        404        514        515        526        525  
       394        395        406        405        515        516        527        526  
       395        396        407        406        516        517        528        527  
       397        398        409        408        518        519        530        529  
       398        399        410        409        519        520        531        530  
       399        400        411        410        520        521        532        531  
       400        401        412        411        521        522        533        532  
       401        402        413        412        522        523        534        533  
       402        403        414        413        523        524        535        534  
       403        404        415        414        524        525        536        535  
       404        405        416        415        525        526        537        536  
       405        406        417        416        526        527        538        537  
       406        407        418        417        527        528        539        538  
       408        409        420        419        529        530        541        540  
       409        410        421        420        530        531        542        541  
       410        411        422        421        531        532        543        542  
       411        412        423        422        532        533        544        543  
       412        413        424        423        533        534        545        544  
       413        414        425        424        534        535        546        545  
       414        415        426        425        535        536        547        546  
       415        416        427        426        536        537        548        547  
       416        417        428        427        537        538        549        548  
       417        418        429        428        538        539        550        549  
       419        420        431        430        540        541        552        551  
       420        421        432        431        541        542        553        552  
       421        422        433        432        542        543        554        553  
       422        423        434        433        543        544        555        554  
       423        424        435        434        544        545        556        555  
       424        425        436        435        545        546        557        556  
       425        426        437        436        546        547        558        557  
       426        427        438        437        547        548        559        558  
       427        428        439        438        548        549        560        559  
       428        429        440        439        549        550        561        560  
       430        431        442        441        551        552        563        562  
       431        432        443        442        552        553        564        563  
       432        433        444        443        553        554        565        564  
       433        434        445        444        554        555        566        565  
       434        435        446        445        555        556        567        566  
       435        436        447        446        556        557        568        567  
       436        437        448        447        557        558        569        568  
       437        438        449        448        558        559        570        569  
       438        439        450        449        559        560        571        570  
       439        440        451        450        560        561        572        571  
       441        442        453        452        562        563        574        573  
       442        443        454        453        563        564        575        574  
       443        444        455        454        564        565        576        575  
       444        445        456        455        565        566        577        576  
       445        446        457        456        566        567        578        577  
       446        447        458        457        567        568        579        578  
       447        448        459        458        568        569        580        579  
       448        449        460        459        569        570        581        580  
       449        450        461        460        570        571        582        581  
       450        451        462        461        571        572        583        582  
       452        453        464        463        573        574        585        584  
       453        454        465        464        574        575        586        585  
       454        455        466        465        575        576        587        586  
       455        456        467        466        576        577        588        587  
       456        457        468        467        577        578        589        588  
       457        458        469        468        578        579        590        589  
       458        459        470        469        579        580        591        590  
       459        460        471        470        580        581        592        591  
       460        461        472        471        581        582        593        592  
       461        462        473        472        582        583        594        593  
       463        464        475        474        584        585        596        595  
       464        465        476        475        585        586        597        596  
       465        466        477        476        586        587        598        597  
       466        467        478        477        587        588        599        598  
       467        468        479        478        588        589        600        599  
       468        469        480        479        589        590        601        600  
       469        470        481        480        590        591        602        601  
       470        471        482        481        591        592        603        602  
       471        472        483        482        592        593        604        603  
       472        473        484        483        593        594        605        604  
       485        486        497        496        606        607        618        617  
       486        487        498        497        607        608        619        618  
       487        488        499        498        608        609        620        619  
       488        489        500        499        609        610        621        620  
       489        490        501        500        610        611        622        621  
       490        491        502        501        611        612        623        622  
       491        492        503        502        612        613        624        623  
       492        493        504        503        613        614        625        624  
       493        494        505        504        614        615        626        625  
       494        495        506        505        615        616        627        626  
       496        497        508        507        617        618        629        628  
       497        498        509        508        618        619        630        629  
       498        499        510        509        619        620        631        630  
       499        500        511        510        620        621        632        631  
       500        501        512        511        621        622        633        632  
       501        502        513        512        622        623        634        633  
       502        503        514        513        623        624        635        634  
       503        504        515        514        624        625        636        635  
       504        505        516        515        625        626        637        636  
       505        506        517        516        626        627        638        637  
       507        508        519        518        628        629        640        639  
       508        509        520        519        629        630        641        640  
       509        510        521        520        630        631        642        641  
       510        511        522        521        631        632        643        642  
       511        512        523        522        632        633        644        643  
       512        513        524        523        633        634        645        644  
       513        514        525        524        634        635        646        645  
       514        515        526        525        635        636        647        646  
       515        516        527        526        636        637        648        647  
       516        517        528        527        637        638        649        648  
       518        519        530        529        639        640        651        650  
       519        520        531        530        640        641        652        651  
       520        521        532        531        641        642        653        652  
       521        522        533        532        642        643        654        653  
       522        523        534        533        643        644        655        654  
       523        524        535        534        644        645        656        655  
       524        525        536        535        645        646        657        656  
       525        526        537        536        646        647        658        657  
       526        527        538        537        647        648        659        658  
       527        528        539        538        648        649        660        659  
       529        530        541        540        650        651        662        661  
       530        531        542        541        651        652        663        662  
       531        532        543        542        652        653        664        663  
       532        533        544        543        653        654        665        664  
       533        534        545        544        654        655        666        665  
       534        535        546        545        655        656        667        666  
       535        536        547        546        656        657        668        667  
       536        537        548        547        657        658        669        668  
       537        538        549        548        658        659        670        669  
       538        539        550        549        659        660        671        670  
       540        541        552        551        661        662        673        672  
       541        542        553        552        662        663        674        673  
       542        543        554        553        663        664        675        674  
       543        544        555        554        664        665        676        675  
       544        545        556        555        665        666        677        676  
       545        546        557        556        666        667        678        677  
       546        547        558        557        667        668        679        678  
       547        548        559        558        668        669        680        679  
       548        549        560        559        669        670        681        680  
       549        550        561        560        670        671        682        681  
       551        552        563        562        672        673        684        683  
       552        553        564        563        673        674        685        684  
       553        554        565        564        674        675        686        685  
       554        555        566        565        675        676        687        686  
       555        556        567        566        676        677        688        687  
       556        557        568        567        677        678        689        688  
       557        558        569        568        678        679        690        689  
       558        559        570        569        679        680        691        690  
       559        560        571        570        680        681        692        691  
       560        561        572        571        681        682        693        692  
       562        563        574        573        683        684        695        694  
       563        564        575        574        684        685        696        695  
       564        565        576        575        685        686        697        696  
       565        566        577        576        686        687        698        697  
       566        567        578        577        687        688        699        698  
       567        568        579        578        688        689        700        699  
       568        569        580        579        689        690        701        700  
       569        570        581        580        690        691        702        701  
       570        571        582        581        691        692        703        702  
       571        572        583        582        692        693        704        703  
       573        574        585        584        694        695        706        705  
       574        575        586        585        695        696        707        706  
       575        576        587        586        696        697        708        707  
       576        577        588        587        697        698        709        708  
       577        578        589        588        698        699        710        709  
       578        579        590        589        699        700        711        710  
       579        580        591        590        700        701        712        711  
       580        581        592        591        701        702        713        712  
       581        582        593        592        702        703        714        713  
       582        583        594        593        703        704        715        714  
       584        585        596        595        705        706        717        716  
       585        586        597        596        706        707        718        717  
       586        587        598        597        707        708        719        718  
       587        588        599        598        708        709        720        719  
       588        589        600        599        709        710        721        720  
       589        590        601        600        710        711        722        721  
       590        591        602        601        711        712        723        722  
       591        592        603        602        712        713        724        723  
       592        593        604        603        713        714        725        724  
       593        594        605        604        714        715        726        725  
       606        607        618        617        727        728        739        738  
       607        608        619        618        728        729        740        739  
       608        609        620        619        729        730        741        740  
       609        610        621        620        730        731        742        741  
       610        611        622        621        731        732        743        742  
       611        612        623        622        732        733        744        743  
       612        613        624        623        733        734        745        744  
       613        614        625        624        734        735        746        745  
       614        615        626        625        735        736        747        746  
       615        616        627        626        736        737        748        747  
       617        618        629        628        738        739        750        749  
       618        619        630        629        739        740        751        750  
       619        620        631        630        740        741        752        751  
       620        621        632        631        741        742        753        752  
       621        622        633        632        742        743        754        753  
       622        623        634        633        743        744        755        754  
       623        624        635        634        744        745        756        755  
       624        625        636        635        745        746        757        756  
       625        626        637        636        746        747        758        757  
       626        627        638        637        747        748        759        758  
       628        629        640        639        749        750        761        760  
       629        630        641        640        750        751        762        761  
       630        631        642        641        751        752        763        762  
       631        632        643        642        752        753        764        763  
       632        633        644        643        753        754        765        764  
       633        634        645        644        754        755        766        765  
       634        635        646        645        755        756        767        766  
       635        636        647        646        756        757        768        767  
       636        637        648        647        757        758        769        768  
       637        638        649        648        758        759        770        769  
       639        640        651        650        760        761        772        771  
       640        641        652        651        761        762        773        772  
       641        642        653        652        762        763        774        773  
       642        643        654        653        763        764        775        774  
       643        644        655        654        764        765        776        775  
       644        645        656        655        765        766        777        776  
       645        646        657        656        766        767        778        777  
       646        647        658        657        767        768        779        778  
       647        648        659        658        768        769        780        779  
       648        649        660        659        769        770        781        780  
       650        651        662        661        771        772        783        782  
       651        652        663        662        772        773        784        783  
       652        653        664        663        773        774        785        784  
       653        654        665        664        774        775        786        785  
       654        655        666        665        775        776        787        786  
       655        656        667        666        776        777        788        787  
       656        657        668        667        777        778        789        788  
       657        658        669        668        778        779        790        789  
       658        659        670        669        779        780        791        790  
       659        660        671        670        780        781        792        791  
       661        662        673        672        782        783        794        793  
       662        663        674        673        783        784        795        794  
       663        664        675        674        784        785        796        795  
       664        665        676        675        785        786        797        796  
       665        666        677        676        786        787        798        797  
       666        667        678        677        787        788        799        798  
       667        668        679        678        788        789        800        799  
       668        669        680        679        789        790        801        800  
       669        670        681        680        790        791        802        801  
       670        671        682        681        791        792        803        802  
       672        673        684        683        793        794        805        804  
       673        674        685        684        794        795        806        805  
       674        675        686        685        795        796        807        806  
       675        676        687        686        796        797        808        807  
       676        677        688        687        797        798        809        808  
       677        678        689        688        798        799        810        809  
       678        679        690        689        799        800        811        810  
       679        680        691        690        800        801        812        811  
       680        681        692        691        801        802        813        812  
       681        682        693        692        802        803        814        813  
       683        684        695        694        804        805        816        815  
       684        685        696        695        805        806        817        816  
       685        686        697        696        806        807        818        817  
       686        687        698        697        807        808        819        818  
       687        688        699        698        808        809        820        819  
       688        689        700        699        809        810        821        820  
       689        690        701        700        810        811        822        821  
       690        691        702        701        811        812        823        822  
       691        692        703        702        812        813        824        823  
       692        693        704        703        813        814        825        824  
       694        695        706        705        815        816        827        826  
       695        696        707        706        816        817        828        827  
       696        697        708        707        817        818        829        828  
       697        698        709        708        818        819        830        829  
       698        699        710        709        819        820        831        830  
       699        700        711        710        820        821        832        831  
       700        701        712        711        821        822        833        832  
       701        702        713        712        822        823        834        833  
       702        703        714        713        823        824        835        834  
       703        704        715        714        824        825        836        835  
       705        706        717        716        826        827        838        837  
       706        707        718        717        827        828        839        838  
       707        708        719        718        828        829        840        839  
       708        709        720        719        829        830        841        840  
       709        710        721        720        830        831        842        841  
       710        711        722        721        831        832        843        842  
       711        712        723        722        832        833        844        843  
       712        713        724        723        833        834        845        844  
       713        714        725        724        834        835        846        845  
       714        715        726        725        835        836        847        846  
       727        728        739        738        848        849        860        859  
       728        729        740        739        849        850        861        860  
       729        730        741        740        850        851        862        861  
       730        731        742        741        851        852        863        862  
       731        732        743        742        852        853        864        863  
       732        733        744        743        853        854        865        864  
       733        734        745        744        854        855        866        865  
       734        735        746        745        855        856        867        866  
       735        736        747        746        856        857        868        867  
       736        737        748        747        857        858        869        868  
       738        739        750        749        859        860        871        870  
       739        740        751        750        860        861        872        871  
       740        741        752        751        861        862        873        872  
       741        742        753        752        862        863        874        873  
       742        743        754        753        863        864        875        874  
       743        744        755        754        864        865        876        875  
       744        745        756        755        865        866        877        876  
       745        746        757        756        866        867        878        877  
       746        747        758        757        867        868        879        878  
       747        748        759        758        868        869        880        879  
       749        750        761        760        870        871        882        881  
       750        751        762        761        871        872        883        882  
       751        752        763        762        872        873        884        883  
       752        753        764        763        873        874        885        884  
       753        754        765        764        874        875        886        885  
       754        755        766        765        875        876        887        886  
       755        756        767        766        876        877        888        887  
       756        757        768        767        877        878        889        888  
       757        758        769        768        878        879        890        889  
       758        759        770        769        879        880        891        890  
       760        761        772        771        881        882        893        892  
       761        762        773        772        882        883        894        893  
       762        763        774        773        883        884        895        894  
       763        764        775        774        884        885        896        895  
       764        765        776        775        885        886        897        896  
       765        766        777        776        886        887        898        897  
       766        767        778        777        887        888        899        898  
       767        768        779        778        888        889        900        899  
       768        769        780        779        889        890        901        900  
       769        770        781        780        890        891        902        901  
       771        772        783        782        892        893        904        903  
       772        773        784        783        893        894        905        904  
       773        774        785        784        894        895        906        905  
       774        775        786        785        895        896        907        906  
       775        776        787        786        896        897        908        907  
       776        777        788        787        897        898        909        908  
       777        778        789        788        898        899        910        909  
       778        779        790        789        899        900        911        910  
       779        780        791        790        900        901        912        911  
       780        781        792        791        901        902        913        912  
       782        783        794        793        903        904        915        914  
       783        784        795        794        904        905        916        915  
       784        785        796        795        905        906        917        916  
       785        786        797        796        906        907        918        917  
       786        787        798        797        907        908        919        918  
       787        788        799        798        908        909        920        919  
       788        789        800        799        909        910        921        920  
       789        790        801        800        910        911        922        921  
       790        791        802        801        911        912        923        922  
       791        792        803        802        912        913        924        923  
       793        794        805        804        914        915        926        925  
       794        795        806        805        915        916        927        926  
       795        796        807        806        916        917        928        927  
       796        797        808        807        917        918        929        928  
       797        798        809        808        918        919        930        929  
       798        799        810        809        919        920        931        930  
       799        800        811        810        920        921        932        931  
       800        801        812        811        921        922        933        932  
       801        802        813        812        922        923        934        933  
       802        803        814        813        923        924        935        934  
       804        805        816        815        925        926        937        936  
       805        806        817        816        926        927        938        937  
       806        807        818        817        927        928        939        938  
       807        808        819        818        928        929        940        939  
       808        809        820        819        929        930        941        940  
       809        810        821        820        930        931        942        941  
       810        811        822        821        931        932        943        942  
       811        812        823        822        932        933        944        943  
       812        813        824        823        933        934        945        944  
       813        814        825        824        934        935        946        945  
       815        816        827        826        936        937        948        947  
       816        817        828        827        937        938        949        948  
       817        818        829        828        938        939        950        949  
       818        819        830        829        939        940        951        950  
       819        820        831        830        940        941        952        951  
       820        821        832        831        941        942        953        952  
       821        822        833        832        942        943        954        953  
       822        823        834        833        943        944        955        954  
       823        824        835        834        944        945        956        955  
       824        825        836        835        945        946        957        956  
       826        827        838        837        947        948        959        958  
       827        828        839        838        948        949        960        959  
       828        829        840        839        949        950        961        960  
       829        830        841        840        950        951        962        961  
       830        831        842        841        951        952        963        962  
       831        832        843        842        952        953        964        963  
       832        833        844        843        953        954        965        964  
       833        834        845        844        954        955        966        965  
       834        835        846        845        955        956        967        966  
       835        836        847        846        956        957        968        967  
       848        849        860        859        969        970        981        980  
       849        850        861        860        970        971        982        981  
       850        851        862        861        971        972        983        982  
       851        852        863        862        972        973        984        983  
       852        853        864        863        973        974        985        984  
       853        854        865        864        974        975        986        985  
       854        855        866        865        975        976        987        986  
       855        856        867        866        976        977        988        987  
       856        857        868        867        977        978        989        988  
       857        858        869        868        978        979        990        989  
       859        860        871        870        980        981        992        991  
       860        861        872        871        981        982        993        992  
       861        862        873        872        982        983        994        993  
       862        863        874        873        983        984        995        994  
       863        864        875        874        984        985        996        995  
       864        865        876        875        985        986        997        996  
       865        866        877        876        986        987        998        997  
       866        867        878        877        987        988        999        998  
       867        868        879        878        988        989       1000        999  
       868        869        880        879        989        990       1001       1000  
       870        871        882        881        991        992       1003       1002  
       871        872        883        882        992        993       1004       1003  
       872        873        884        883        993        994       1005       1004  
       873        874        885        884        994        995       1006       1005  
       874        875        886        885        995        996       1007       1006  
       875        876        887        886        996        997       1008       1007  
       876        877        888        887        997        998       1009       1008  
       877        878        889        888        998        999       1010       1009  
       878        879        890        889        999       1000       1011       1010  
       879        880        891        890       1000       1001       1012       1011  
       881        882        893        892       1002       1003       1014       1013  
       882        883        894        893       1003       1004       1015       1014  
       883        884        895        894       1004       1005       1016       1015  
       884        885        896        895       1005       1006       1017       1016  
       885        886        897        896       1006       1007       1018       1017  
       886        887        898        897       1007       1008       1019       1018  
       887        888        899        898       1008       1009       1020       1019  
       888        889        900        899       1009       1010       1021       1020  
       889        890        901        900       1010       1011       1022       1021  
       890        891        902        901       1011       1012       1023       1022  
       892        893        904        903       1013       1014       1025       1024  
       893        894        905        904       1014       1015       1026       1025  
       894        895        906        905       1015       1016       1027       1026  
       895        896        907        906       1016       1017       1028       1027  
       896        897        908        907       1017       1018       1029       1028  
       897        898        909        908       1018       1019       1030       1029  
       898        899        910        909       1019       1020       1031       1030  
       899        900        911        910       1020       1021       1032       1031  
       900        901        912        911       1021       1022       1033       1032  
       901        902        913        912       1022       1023       1034       1033  
       903        904        915        914       1024       1025       1036       1035  
       904        905        916        915       1025       1026       1037       1036  
       905        906        917        916       1026       1027       1038       1037  
       906        907        918        917       1027       1028       1039       1038  
       907        908        919        918       1028       1029       1040       1039  
       908        909        920        919       1029       1030       1041       1040  
       909        910        921        920       1030       1031       1042       1041  
       910        911        922        921       1031       1032       1043       1042  
       911        912        923        922       1032       1033       1044       1043  
       912        913        924        923       1033       1034       1045       1044  
       914        915        926        925       1035       1036       1047       1046  
       915        916        927        926       1036       1037       1048       1047  
       916        917        928        927       1037       1038       1049       1048  
       917        918        929        928       1038       1039       1050       1049  
       918        919        930        929       1039       1040       1051       1050  
       919        920        931        930       1040       1041       1052       1051  
       920        921        932        931       1041       1042       1053       1052  
       921        922        933        932       1042       1043       1054       1053  
       922        923        934        933       1043       1044       1055       1054  
       923        924        935        934       1044       1045       1056       1055  
       925        926        937        936       1046       1047       1058       1057  
       926        927        938        937       1047       1048       1059       1058  
       927        928        939        938       1048       1049       1060       1059  
       928        929        940        939       1049       1050       1061       1060  
       929        930        941        940       1050       1051       1062       1061  
       930        931        942        941       1051       1052       1063       1062  
       931        932        943        942       1052       1053       1064       1063  
       932        933        944        943       1053       1054       1065       1064  
       933        934        945        944       1054       1055       1066       1065  
       934        935        946        945       1055       1056       1067       1066  
       936        937        948        947       1057       1058       1069       1068  
       937        938        949        948       1058       1059       1070       1069  
       938        939        950        949       1059       1060       1071       1070  
       939        940        951        950       1060       1061       1072       1071  
       940        941        952        951       1061       1062       1073       1072  
       941        942        953        952       1062       1063       1074       1073  
       942        943        954        953       1063       1064       1075       1074  
       943        944        955        954       1064       1065       1076       1075  
       944        945        956        955       1065       1066       1077       1076  
       945        946        957        956       1066       1067       1078       1077  
       947        948        959        958       1068       1069       1080       1079  
       948        949        960        959       1069       1070       1081       1080  
       949        950        961        960       1070       1071       1082       1081  
       950        951        962        961       1071       1072       1083       1082  
       951        952        963        962       1072       1073       1084       1083  
       952        953        964        963       1073       1074       1085       1084  
       953        954        965        964       1074       1075       1086       1085  
       954        955        966        965       1075       1076       1087       1086  
       955        956        967        966       1076       1077       1088       1087  
       956        957        968        967       1077       1078       1089       1088  
       969        970        981        980       1090       1091       1102       1101  
       970        971        982        981       1091       1092       1103       1102  
       971        972        983        982       1092       1093       1104       1103  
       972        973        984        983       1093       1094       1105       1104  
       973        974        985        984       1094       1095       1106       1105  
       974        975        986        985       1095       1096       1107       1106  
       975        976        987        986       1096       1097       1108       1107  
       976        977        988        987       1097       1098       1109       1108  
       977        978        989        988       1098       1099       1110       1109  
       978        979        990        989       1099       1100       1111       1110  
       980        981        992        991       1101       1102       1113       1112  
       981        982        993        992       1102       1103       1114       1113  
       982        983        994        993       1103       1104       1115       1114  
       983        984        995        994       1104       1105       1116       1115  
       984        985        996        995       1105       1106       1117       1116  
       985        986        997        996       1106       1107       1118       1117  
       986        987        998        997       1107       1108       1119       1118  
       987        988        999        998       1108       1109       1120       1119  
       988        989       1000        999       1109       1110       1121       1120  
       989        990       1001       1000       1110       1111       1122       1121  
       991        992       1003       1002       1112       1113       1124       1123  
       992        993       1004       1003       1113       1114       1125       1124  
       993        994       1005       1004       1114       1115       1126       1125  
       994        995       1006       1005       1115       1116       1127       1126  
       995        996       1007       1006       1116       1117       1128       1127  
       996        997       1008       1007       1117       1118       1129       1128  
       997        998       1009       1008       1118       1119       1130       1129  
       998        999       1010       1009       1119       1120       1131       1130  
       999       1000       1011       1010       1120       1121       1132       1131  
      1000       1001       1012       1011       1121       1122       1133       1132  
      1002       1003       1014       1013       1123       1124       1135       1134  
      1003       1004       1015       1014       1124       1125       1136       1135  
      1004       1005       1016       1015       1125       1126       1137       1136  
      1005       1006       1017       1016       1126       1127       1138       1137  
      1006       1007       1018       1017       1127       1128       1139       1138  
      1007       1008       1019       1018       1128       1129       1140       1139  
      1008       1009       1020       1019       1129       1130       1141       1140  
      1009       1010       1021       1020       1130       1131       1142       1141  
      1010       1011       1022       1021       1131       1132       1143       1142  
      1011       1012       1023       1022       1132       1133       1144       1143  
      1013       1014       1025       1024       1134       1135       1146       1145  
      1014       1015       1026       1025       1135       1136       1147       1146  
      1015       1016       1027       1026       1136       1137       1148       1147  
      1016       1017       1028       1027       1137       1138       1149       1148  
      1017       1018       1029       1028       1138       1139       1150       1149  
      1018       1019       1030       1029       1139       1140       1151       1150  
      1019       1020       1031       1030       1140       1141       1152       1151  
      1020       1021       1032       1031       1141       1142       1153       1152  
      1021       1022       1033       1032       1142       1143       1154       1153  
      1022       1023       1034       1033       1143       1144       1155       1154  
      1024       1025       1036       1035       1145       1146       1157       1156  
      1025       1026       1037       1036       1146       1147       1158       1157  
      1026       1027       1038       1037       1147       1148       1159       1158  
      1027       1028       1039       1038       1148       1149       1160       1159  
      1028       1029       1040       1039       1149       1150       1161       1160  
      1029       1030       1041       1040       1150       1151       1162       1161  
      1030       1031       1042       1041       1151       1152       1163       1162  
      1031       1032       1043       1042       1152       1153       1164       1163  
      1032       1033       1044       1043       1153       1154       1165       1164  
      1033       1034       1045       1044       1154       1155       1166       1165  
      1035       1036       1047       1046       1156       1157       1168       1167  
      1036       1037       1048       1047       1157       1158       1169       1168  
      1037       1038       1049       1048       1158       1159       1170       1169  
      1038       1039       1050       1049       1159       1160       1171       1170  
      1039       1040       1051       1050       1160       1161       1172       1171  
      1040       1041       1052       1051       1161       1162       1173       1172  
      1041       1042       1053       1052       1162       1163       1174       1173  
      1042       1043       1054       1053       1163       1164       1175       1174  
      1043       1044       1055       1054       1164       1165       1176       1175  
      1044       1045       1056       1055       1165       1166       1177       1176  
      1046       1047       1058       1057       1167       1168       1179       1178  
      1047       1048       1059       1058       1168       1169       1180       1179  
      1048       1049       1060       1059       1169       1170       1181       1180  
      1049       1050       1061       1060       1170       1171       1182       1181  
      1050       1051       1062       1061       1171       1172       1183       1182  
      1051       1052       1063       1062       1172       1173       1184       1183  
      1052       1053       1064       1063       1173       1174       1185       1184  
      1053       1054       1065       1064       1174       1175       1186       1185  
      1054       1055       1066       1065       1175       1176       1187       1186  
      1055       1056       1067       1066       1176       1177       1188       1187  
      1057       1058       1069       1068       1178       1179       1190       1189  
      1058       1059       1070       1069       1179       1180       1191       1190  
      1059       1060       1071       1070       1180       1181       1192       1191  
      1060       1061       1072       1071       1181       1182       1193       1192  
      1061       1062       1073       1072       1182       1183       1194       1193  
      1062       1063       1074       1073       1183       1184       1195       1194  
      1063       1064       1075       1074       1184       1185       1196       1195  
      1064       1065       1076       1075       1185       1186       1197       1196  
      1065       1066       1077       1076       1186       1187       1198       1197  
      1066       1067       1078       1077       1187       1188       1199       1198  
      1068       1069       1080       1079       1189       1190       1201       1200  
      1069       1070       1081       1080       1190       1191       1202       1201  
      1070       1071       1082       1081       1191       1192       1203       1202  
      1071       1072       1083       1082       1192       1193       1204       1203  
      1072       1073       1084       1083       1193       1194       1205       1204  
      1073       1074       1085       1084       1194       1195       1206       1205  
      1074       1075       1086       1085       1195       1196       1207       1206  
      1075       1076       1087       1086       1196       1197       1208       1207  
      1076       1077       1088       1087       1197       1198       1209       1208  
      1077       1078       1089       1088       1198       1199       1210       1209  
      1090       1091       1102       1101       1211       1212       1223       1222  
      1091       1092       1103       1102       1212       1213       1224       1223  
      1092       1093       1104       1103       1213       1214       1225       1224  
      1093       1094       1105       1104       1214       1215       1226       1225  
      1094       1095       1106       1105       1215       1216       1227       1226  
      1095       1096       1107       1106       1216       1217       1228       1227  
      1096       1097       1108       1107       1217       1218       1229       1228  
      1097       1098       1109       1108       1218       1219       1230       1229  
      1098       1099       1110       1109       1219       1220       1231       1230  
      1099       1100       1111       1110       1220       1221       1232       1231  
      1101       1102       1113       1112       1222       1223       1234       1233  
      1102       1103       1114       1113       1223       1224       1235       1234  
      1103       1104       1115       1114       1224       1225       1236       1235  
      1104       1105       1116       1115       1225       1226       1237       1236  
      1105       1106       1117       1116       1226       1227       1238       1237  
      1106       1107       1118       1117       1227       1228       1239       1238  
      1107       1108       1119       1118       1228       1229       1240       1239  
      1108       1109       1120       1119       1229       1230       1241       1240  
      1109       1110       1121       1120       1230       1231       1242       1241  
      1110       1111       1122       1121       1231       1232       1243       1242  
      1112       1113       1124       1123       1233       1234       1245       1244  
      1113       1114       1125       1124       1234       1235       1246       1245  
      1114       1115       1126       1125       1235       1236       1247       1246  
      1115       1116       1127       1126       1236       1237       1248       1247  
      1116       1117       1128       1127       1237       1238       1249       1248  
      1117       1118       1129       1128       1238       1239       1250       1249  
      1118       1119       1130       1129       1239       1240       1251       1250  
      1119       1120       1131       1130       1240       1241       1252       1251  
      1120       1121       1132       1131       1241       1242       1253       1252  
      1121       1122       1133       1132       1242       1243       1254       1253  
      1123       1124       1135       1134       1244       1245       1256       1255  
      1124       1125       1136       1135       1245       1246       1257       1256  
      1125       1126       1137       1136       1246       1247       1258       1257  
      1126       1127       1138       1137       1247       1248       1259       1258  
      1127       1128       1139       1138       1248       1249       1260       1259  
      1128       1129       1140       1139       1249       1250       1261       1260  
      1129       1130       1141       1140       1250       1251       1262       1261  
      1130       1131       1142       1141       1251       1252       1263       1262  
      1131       1132       1143       1142       1252       1253       1264       1263  
      1132       1133       1144       1143       1253       1254       1265       1264  
      1134       1135       1146       1145       1255       1256       1267       1266  
      1135       1136       1147       1146       1256       1257       1268       1267  
      1136       1137       1148       1147       1257       1258       1269       1268  
      1137       1138       1149       1148       1258       1259       1270       1269  
      1138       1139       1150       1149       1259       1260       1271       1270  
      1139       1140       1151       1150       1260       1261       1272       1271  
      1140       1141       1152       1151       1261       1262       1273       1272  
      1141       1142       1153       1152       1262       1263       1274       1273  
      1142       1143       1154       1153       1263       1264       1275       1274  
      1143       1144       1155       1154       1264       1265       1276       1275  
      1145       1146       1157       1156       1266       1267       1278       1277  
      1146       1147       1158       1157       1267       1268       1279       1278  
      1147       1148       1159       1158       1268       1269       1280       1279  
      1148       1149       1160       1159       1269       1270       1281       1280  
      1149       1150       1161       1160       1270       1271       1282       1281  
      1150       1151       1162       1161       1271       1272       1283       1282  
      1151       1152       1163       1162       1272       1273       1284       1283  
      1152       1153       1164       1163       1273       1274       1285       1284  
      1153       1154       1165       1164       1274       1275       1286       1285  
      1154       1155       1166       1165       1275       1276       1287       1286  
      1156       1157       1168       1167       1277       1278       1289       1288  
      1157       1158       1169       1168       1278       1279       1290       1289  
      1158       1159       1170       1169       1279       1280       1291       1290  
      1159       1160       1171       1170       1280       1281       1292       1291  
      1160       1161       1172       1171       1281       1282       1293       1292  
      1161       1162       1173       1172       1282       1283       1294       1293  
      1162       1163       1174       1173       1283       1284       1295       1294  
      1163       1164       1175       1174       1284       1285       1296       1295  
      1164       1165       1176       1175       1285       1286       1297       1296  
      1165       1166       1177       1176       1286       1287       1298       1297  
      1167       1168       1179       1178       1288       1289       1300       1299  
      1168       1169       1180       1179       1289       1290       1301       1300  
      1169       1170       1181       1180       1290       1291       1302       1301  
      1170       1171       1182       1181       1291       1292       1303       1302  
      1171       1172       1183       1182       1292       1293       1304       1303  
      1172       1173       1184       1183       1293       1294       1305       1304  
      1173       1174       1185       1184       1294       1295       1306       1305  
      1174       1175       1186       1185       1295       1296       1307       1306  
      1175       1176       1187       1186       1296       1297       1308       1307  
      1176       1177       1188       1187       1297       1298       1309       1308  
      1178       1179       1190       1189       1299       1300       1311       1310  
      1179       1180       1191       1190       1300       1301       1312       1311  
      1180       1181       1192       1191       1301       1302       1313       1312  
      1181       1182       1193       1192       1302       1303       1314       1313  
      1182       1183       1194       1193       1303       1304       1315       1314  
      1183       1184       1195       1194       1304       1305       1316       1315  
      1184       1185       1196       1195       1305       1306       1317       1316  
      1185       1186       1197       1196       1306       1307       1318       1317  
      1186       1187       1198       1197       1307       1308       1319       1318  
      1187       1188       1199       1198       1308       1309       1320       1319  
      1189       1190       1201       1200       1310       1311       1322       1321  
      1190       1191       1202       1201       1311       1312       1323       1322  
      1191       1192       1203       1202       1312       1313       1324       1323  
      1192       1193       1204       1203       1313       1314       1325       1324  
      1193       1194       1205       1204       1314       1315       1326       1325  
      1194       1195       1206       1205       1315       1316       1327       1326  
      1195       1196       1207       1206       1316       1317       1328       1327  
      1196       1197       1208       1207       1317       1318       1329       1328  
      1197       1198       1209       1208       1318       1319       1330       1329  
      1198       1199       1210       1209       1319       1320       1331       1330  
      1211       1212       1223       1222       1332       1333       1344       1343  
      1212       1213       1224       1223       1333       1334       1345       1344  
      1213       1214       1225       1224       1334       1335       1346       1345  
      1214       1215       1226       1225       1335       1336       1347       1346  
      1215       1216       1227       1226       1336       1337       1348       1347  
      1216       1217       1228       1227       1337       1338       1349       1348  
      1217       1218       1229       1228       1338       1339       1350       1349  
      1218       1219       1230       1229       1339       1340       1351       1350  
      1219       1220       1231       1230       1340       1341       1352       1351  
      1220       1221       1232       1231       1341       1342       1353       1352  
      1222       1223       1234       1233       1343       1344       1355       1354  
      1223       1224       1235       1234       1344       1345       1356       1355  
      1224       1225       1236       1235       1345       1346       1357       1356  
      1225       1226       1237       1236       1346       1347       1358       1357  
      1226       1227       1238       1237       1347       1348       1359       1358  
      1227       1228       1239       1238       1348       1349       1360       1359  
      1228       1229       1240       1239       1349       1350       1361       1360  
      1229       1230       1241       1240       1350       1351       1362       1361  
      1230       1231       1242       1241       1351       1352       1363       1362  
      1231       1232       1243       1242       1352       1353       1364       1363  
      1233       1234       1245       1244       1354       1355       1366       1365  
      1234       1235       1246       1245       1355       1356       1367       1366  
      1235       1236       1247       1246       1356       1357       1368       1367  
      1236       1237       1248       1247       1357       1358       1369       1368  
      1237       1238       1249       1248       1358       1359       1370       1369  
      1238       1239       1250       1249       1359       1360       1371       1370  
      1239       1240       1251       1250       1360       1361       1372       1371  
      1240       1241       1252       1251       1361       1362       1373       1372  
      1241       1242       1253       1252       1362       1363       1374       1373  
      1242       1243       1254       1253       1363       1364       1375       1374  
      1244       1245       1256       1255       1365       1366       1377       1376  
      1245       1246       1257       1256       1366       1367       1378       1377  
      1246       1247       1258       1257       1367       1368       1379       1378  
      1247       1248       1259       1258       1368       1369       1380       1379  
      1248       1249       1260       1259       1369       1370       1381       1380  
      1249       1250       1261       1260       1370       1371       1382       1381  
      1250       1251       1262       1261       1371       1372       1383       1382  
      1251       1252       1263       1262       1372       1373       1384       1383  
      1252       1253       1264       1263       1373       1374       1385       1384  
      1253       1254       1265       1264       1374       1375       1386       1385  
      1255       1256       1267       1266       1376       1377       1388       1387  
      1256       1257       1268       1267       1377       1378       1389       1388  
      1257       1258       1269       1268       1378       1379       1390       1389  
      1258       1259       1270       1269       1379       1380       1391       1390  
      1259       1260       1271       1270       1380       1381       1392       1391  
      1260       1261       1272       1271       1381       1382       1393       1392  
      1261       1262       1273       1272       1382       1383       1394       1393  
      1262       1263       1274       1273       1383       1384       1395       1394  
      1263       1264       1275       1274       1384       1385       1396       1395  
      1264       1265       1276       1275       1385       1386       1397       1396  
      1266       1267       1278       1277       1387       1388       1399       1398  
      1267       1268       1279       1278       1388       1389       1400       1399  
      1268       1269       1280       1279       1389       1390       1401       1400  
      1269       1270       1281       1280       1390       1391       1402       1401  
      1270       1271       1282       1281       1391       1392       1403       1402  
      1271       1272       1283       1282       1392       1393       1404       1403  
      1272       1273       1284       1283       1393       1394       1405       1404  
      1273       1274       1285       1284       1394       1395       1406       1405  
      1274       1275       1286       1285       1395       1396       1407       1406  
      1275       1276       1287       1286       1396       1397       1408       1407  
      1277       1278       1289       1288       1398       1399       1410       1409  
      1278       1279       1290       1289       1399       1400       1411       1410  
      1279       1280       1291       1290       1400       1401       1412       1411  
      1280       1281       1292       1291       1401       1402       1413       1412  
      1281       1282       1293       1292       1402       1403       1414       1413  
      1282       1283       1294       1293       1403       1404       1415       1414  
      1283       1284       1295       1294       1404       1405       1416       1415  
      1284       1285       1296       1295       1405       1406       1417       1416  
      1285       1286       1297       1296       1406       1407       1418       1417  
      1286       1287       1298       1297       1407       1408       1419       1418  
      1288       1289       1300       1299       1409       1410       1421       1420  
      1289       1290       1301       1300       1410       1411       1422       1421  
      1290       1291       1302       1301       1411       1412       1423       1422  
      1291       1292       1303       1302       1412       1413       1424       1423  
      1292       1293       1304       1303       1413       1414       1425       1424  
      1293       1294       1305       1304       1414       1415       1426       1425  
      1294       1295       1306       1305       1415       1416       1427       1426  
      1295       1296       1307       1306       1416       1417       1428       1427  
      1296       1297       1308       1307       1417       1418       1429       1428  
      1297       1298       1309       1308       1418       1419       1430       1429  
      1299       1300       1311       1310       1420       1421       1432       1431  
      1300       1301       1312       1311       1421       1422       1433       1432  
      1301       1302       1313       1312       1422       1423       1434       1433  
      1302       1303       1314       1313       1423       1424       1435       1434  
      1303       1304       1315       1314       1424       1425       1436       1435  
      1304       1305       1316       1315       1425       1426       1437       1436  
      1305       1306       1317       1316       1426       1427       1438       1437  
      1306       1307       1318       1317       1427       1428       1439       1438  
      1307       1308       1319       1318       1428       1429       1440       1439  
      1308       1309       1320       1319       1429       1430       1441       1440  
      1310       1311       1322       1321       1431       1432       1443       1442  
      1311       1312       1323       1322       1432       1433       1444       1443  
      1312       1313       1324       1323       1433       1434       1445       1444  
      1313       1314       1325       1324       1434       1435       1446       1445  
      1314       1315       1326       1325       1435       1436       1447       1446  
      1315       1316       1327       1326       1436       1437       1448       1447  
      1316       1317       1328       1327       1437       1438       1449       1448  
      1317       1318       1329       1328       1438       1439       1450       1449  
      1318       1319       1330       1329       1439       1440       1451       1450  
      1319       1320       1331       1330       1440       1441       1452       1451  
      1332       1333       1344       1343       1453       1454       1465       1464  
      1333       1334       1345       1344       1454       1455       1466       1465  
      1334       1335       1346       1345       1455       1456       1467       1466  
      1335       1336       1347       1346       1456       1457       1468       1467  
      1336       1337       1348       1347       1457       1458       1469       1468  
      1337       1338       1349       1348       1458       1459       1470       1469  
      1338       1339       1350       1349       1459       1460       1471       1470  
      1339       1340       1351       1350       1460       1461       1472       1471  
      1340       1341       1352       1351       1461       1462       1473       1472  
      1341       1342       1353       1352       1462       1463       1474       1473  
      1343       1344       1355       1354       1464       1465       1476       1475  
      1344       1345       1356       1355       1465       1466       1477       1476  
      1345       1346       1357       1356       1466       1467       1478       1477  
      1346       1347       1358       1357       1467       1468       1479       1478  
      1347       1348       1359       1358       1468       1469       1480       1479  
      1348       1349       1360       1359       1469       1470       1481       1480  
      1349       1350       1361       1360       1470       1471       1482       1481  
      1350       1351       1362       1361       1471       1472       1483       1482  
      1351       1352       1363       1362       1472       1473       1484       1483  
      1352       1353       1364       1363       1473       1474       1485       1484  
      1354       1355       1366       1365       1475       1476       1487       1486  
      1355       1356       1367       1366       1476       1477       1488       1487  
      1356       1357       1368       1367       1477       1478       1489       1488  
      1357       1358       1369       1368       1478       1479       1490       1489  
      1358       1359       1370       1369       1479       1480       1491       1490  
      1359       1360       1371       1370       1480       1481       1492       1491  
      1360       1361       1372       1371       1481       1482       1493       1492  
      1361       1362       1373       1372       1482       1483       1494       1493  
      1362       1363       1374       1373       1483       1484       1495       1494  
      1363       1364       1375       1374       1484       1485       1496       1495  
      1365       1366       1377       1376       1486       1487       1498       1497  
      1366       1367       1378       1377       1487       1488       1499       1498  
      1367       1368       1379       1378       1488       1489       1500       1499  
      1368       1369       1380       1379       1489       1490       1501       1500  
      1369       1370       1381       1380       1490       1491       1502       1501  
      1370       1371       1382       1381       1491       1492       1503       1502  
      1371       1372       1383       1382       1492       1493       1504       1503  
      1372       1373       1384       1383       1493       1494       1505       1504  
      1373       1374       1385       1384       1494       1495       1506       1505  
      1374       1375       1386       1385       1495       1496       1507       1506  
      1376       1377       1388       1387       1497       1498       1509       1508  
      1377       1378       1389       1388       1498       1499       1510       1509  
      1378       1379       1390       1389       1499       1500       1511       1510  
      1379       1380       1391       1390       1500       1501       1512       1511  
      1380       1381       1392       1391       1501       1502       1513       1512  
      1381       1382       1393       1392       1502       1503       1514       1513  
      1382       1383       1394       1393       1503       1504       1515       1514  
      1383       1384       1395       1394       1504       1505       1516       1515  
      1384       1385       1396       1395       1505       1506       1517       1516  
      1385       1386       1397       1396       1506       1507       1518       1517  
      1387       1388       1399       1398       1508       1509       1520       1519  
      1388       1389       1400       1399       1509       1510       1521       1520  
      1389       1390       1401       1400       1510       1511       1522       1521  
      1390       1391       1402       1401       1511       1512       1523       1522  
      1391       1392       1403       1402       1512       1513       1524       1523  
      1392       1393       1404       1403       1513       1514       1525       1524  
      1393       1394       1405       1404       1514       1515       1526       1525  
      1394       1395       1406       1405       1515       1516       1527       1526  
      1395       1396       1407       1406       1516       1517       1528       1527  
      1396       1397       1408       1407       1517       1518       1529       1528  
      1398       1399       1410       1409       1519       1520       1531       1530  
      1399       1400       1411       1410       1520       1521       1532       1531  
      1400       1401       1412       1411       1521       1522       1533       1532  
      1401       1402       1413       1412       1522       1523       1534       1533  
      1402       1403       1414       1413       1523       1524       1535       1534  
      1403       1404       1415       1414       1524       1525       1536       1535  
      1404       1405       1416       1415       1525       1526       1537       1536  
      1405       1406       1417       1416       1526       1527       1538       1537  
      1406       1407       1418       1417       1527       1528       1539       1538  
      1407       1408       1419       1418       1528       1529       1540       1539  
      1409       1410       1421       1420       1530       1531       1542       1541  
      1410       1411       1422       1421       1531       1532       1543       1542  
      1411       1412       1423       1422       1532       1533       1544       1543  
      1412       1413       1424       1423       1533       1534       1545       1544  
      1413       1414       1425       1424       1534       1535       1546       1545  
      1414       1415       1426       1425       1535       1536       1547       1546  
      1415       1416       1427       1426       1536       1537       1548       1547  
      1416       1417       1428       1427       1537       1538       1549       1548  
      1417       1418       1429       1428       1538       1539       1550       1549  
      1418       1419       1430       1429       1539       1540       1551       1550  
      1420       1421       1432       1431       1541       1542       1553       1552  
      1421       1422       1433       1432       1542       1543       1554       1553  
      1422       1423       1434       1433       1543       1544       1555       1554  
      1423       1424       1435       1434       1544       1545       1556       1555  
      1424       1425       1436       1435       1545       1546       1557       1556  
      1425       1426       1437       1436       1546       1547       1558       1557  
      1426       1427       1438       1437       1547       1548       1559       1558  
      1427       1428       1439       1438       1548       1549       1560       1559  
      1428       1429       1440       1439       1549       1550       1561       1560  
      1429       1430       1441       1440       1550       1551       1562       1561  
      1431       1432       1443       1442       1552       1553       1564       1563  
      1432       1433       1444       1443       1553       1554       1565       1564  
      1433       1434       1445       1444       1554       1555       1566       1565  
      1434       1435       1446       1445       1555       1556       1567       1566  
      1435       1436       1447       1446       1556       1557       1568       1567  
      1436       1437       1448       1447       1557       1558       1569       1568  
      1437       1438       1449       1448       1558       1559       1570       1569  
      1438       1439       1450       1449       1559       1560       1571       1570  
      1439       1440       1451       1450       1560       1561       1572       1571  
      1440       1441       1452       1451       1561       1562       1573       1572  
      1453       1454       1465       1464       1574       1575       1586       1585  
      1454       1455       1466       1465       1575       1576       1587       1586  
      1455       1456       1467       1466       1576       1577       1588       1587  
      1456       1457       1468       1467       1577       1578       1589       1588  
      1457       1458       1469       1468       1578       1579       1590       1589  
      1458       1459       1470       1469       1579       1580       1591       1590  
      1459       1460       1471       1470       1580       1581       1592       1591  
      1460       1461       1472       1471       1581       1582       1593       1592  
      1461       1462       1473       1472       1582       1583       1594       1593  
      1462       1463       1474       1473       1583       1584       1595       1594  
      1464       1465       1476       1475       1585       1586       1597       1596  
      1465       1466       1477       1476       1586       1587       1598       1597  
      1466       1467       1478       1477       1587       1588       1599       1598  
      1467       1468       1479       1478       1588       1589       1600       1599  
      1468       1469       1480       1479       1589       1590       1601       1600  
      1469       1470       1481       1480       1590       1591       1602       1601  
      1470       1471       1482       1481       1591       1592       1603       1602  
      1471       1472       1483       1482       1592       1593       1604       1603  
      1472       1473       1484       1483       1593       1594       1605       1604  
      1473       1474       1485       1484       1594       1595       1606       1605  
      1475       1476       1487       1486       1596       1597       1608       1607  
      1476       1477       1488       1487       1597       1598       1609       1608  
      1477       1478       1489       1488       1598       1599       1610       1609  
      1478       1479       1490       1489       1599       1600       1611       1610  
      1479       1480       1491       1490       1600       1601       1612       1611  
      1480       1481       1492       1491       1601       1602       1613       1612  
      1481       1482       1493       1492       1602       1603       1614       1613  
      1482       1483       1494       1493       1603       1604       1615       1614  
      1483       1484       1495       1494       1604       1605       1616       1615  
      1484       1485       1496       1495       1605       1606       1617       1616  
      1486       1487       1498       1497       1607       1608       1619       1618  
      1487       1488       1499       1498       1608       1609       1620       1619  
      1488       1489       1500       1499       1609       1610       1621       1620  
      1489       1490       1501       1500       1610       1611       1622       1621  
      1490       1491       1502       1501       1611       1612       1623       1622  
      1491       1492       1503       1502       1612       1613       1624       1623  
      1492       1493       1504       1503       1613       1614       1625       1624  
      1493       1494       1505       1504       1614       1615       1626       1625  
      1494       1495       1506       1505       1615       1616       1627       1626  
      1495       1496       1507       1506       1616       1617       1628       1627  
      1497       1498       1509       1508       1618       1619       1630       1629  
      1498       1499       1510       1509       1619       1620       1631       1630  
      1499       1500       1511       1510       1620       1621       1632       1631  
      1500       1501       1512       1511       1621       1622       1633       1632  
      1501       1502       1513       1512       1622       1623       1634       1633  
      1502       1503       1514       1513       1623       1624       1635       1634  
      1503       1504       1515       1514       1624       1625       1636       1635  
      1504       1505       1516       1515       1625       1626       1637       1636  
      1505       1506       1517       1516       1626       1627       1638       1637  
      1506       1507       1518       1517       1627       1628       1639       1638  
      1508       1509       1520       1519       1629       1630       1641       1640  
      1509       1510       1521       1520       1630       1631       1642       1641  
      1510       1511       1522       1521       1631       1632       1643       1642  
      1511       1512       1523       1522       1632       1633       1644       1643  
      1512       1513       1524       1523       1633       1634       1645       1644  
      1513       1514       1525       1524       1634       1635       1646       1645  
      1514       1515       1526       1525       1635       1636       1647       1646  
      1515       1516       1527       1526       1636       1637       1648       1647  
      1516       1517       1528       1527       1637       1638       1649       1648  
      1517       1518       1529       1528       1638       1639       1650       1649  
      1519       1520       1531       1530       1640       1641       1652       1651  
      1520       1521       1532       1531       1641       1642       1653       1652  
      1521       1522       1533       1532       1642       1643       1654       1653  
      1522       1523       1534       1533       1643       1644       1655       1654  
      1523       1524       1535       1534       1644       1645       1656       1655  
      1524       1525       1536       1535       1645       1646       1657       1656  
      1525       1526       1537       1536       1646       1647       1658       1657  
      1526       1527       1538       1537       1647       1648       1659       1658  
      1527       1528       1539       1538       1648       1649       1660       1659  
      1528       1529       1540       1539       1649       1650       1661       1660  
      1530       1531       1542       1541       1651       1652       1663       1662  
      1531       1532       1543       1542       1652       1653       1664       1663  
      1532       1533       1544       1543       1653       1654       1665       1664  
      1533       1534       1545       1544       1654       1655       1666       1665  
      1534       1535       1546       1545       1655       1656       1667       1666  
      1535       1536       1547       1546       1656       1657       1668       1667  
      1536       1537       1548       1547       1657       1658       1669       1668  
      1537       1538       1549       1548       1658       1659       1670       1669  
      1538       1539       1550       1549       1659       1660       1671       1670  
      1539       1540       1551       1550       1660       1661       1672       1671  
      1541       1542       1553       1552       1662       1663       1674       1673  
      1542       1543       1554       1553       1663       1664       1675       1674  
      1543       1544       1555       1554       1664       1665       1676       1675  
      1544       1545       1556       1555       1665       1666       1677       1676  
      1545       1546       1557       1556       1666       1667       1678       1677  
      1546       1547       1558       1557       1667       1668       1679       1678  
      1547       1548       1559       1558       1668       1669       1680       1679  
      1548       1549       1560       1559       1669       1670       1681       1680  
      1549       1550       1561       1560       1670       1671       1682       1681  
      1550       1551       1562       1561       1671       1672       1683       1682  
      1552       1553       1564       1563       1673       1674       1685       1684  
      1553       1554       1565       1564       1674       1675       1686       1685  
      1554       1555       1566       1565       1675       1676       1687       1686  
      1555       1556       1567       1566       1676       1677       1688       1687  
      1556       1557       1568       1567       1677       1678       1689       1688  
      1557       1558       1569       1568       1678       1679       1690       1689  
      1558       1559       1570       1569       1679       1680       1691       1690  
      1559       1560       1571       1570       1680       1681       1692       1691  
      1560       1561       1572       1571       1681       1682       1693       1692  
      1561       1562       1573       1572       1682       1683       1694       1693  
      1574       1575       1586       1585       1695       1696       1707       1706  
      1575       1576       1587       1586       1696       1697       1708       1707  
      1576       1577       1588       1587       1697       1698       1709       1708  
      1577       1578       1589       1588       1698       1699       1710       1709  
      1578       1579       1590       1589       1699       1700       1711       1710  
      1579       1580       1591       1590       1700       1701       1712       1711  
      1580       1581       1592       1591       1701       1702       1713       1712  
      1581       1582       1593       1592       1702       1703       1714       1713  
      1582       1583       1594       1593       1703       1704       1715       1714  
      1583       1584       1595       1594       1704       1705       1716       1715  
      1585       1586       1597       1596       1706       1707       1718       1717  
      1586       1587       1598       1597       1707       1708       1719       1718  
      1587       1588       1599       1598       1708       1709       1720       1719  
      1588       1589       1600       1599       1709       1710       1721       1720  
      1589       1590       1601       1600       1710       1711       1722       1721  
      1590       1591       1602       1601       1711       1712       1723       1722  
      1591       1592       1603       1602       1712       1713       1724       1723  
      1592       1593       1604       1603       1713       1714       1725       1724  
      1593       1594       1605       1604       1714       1715       1726       1725  
      1594       1595       1606       1605       1715       1716       1727       1726  
      1596       1597       1608       1607       1717       1718       1729       1728  
      1597       1598       1609       1608       1718       1719       1730       1729  
      1598       1599       1610       1609       1719       1720       1731       1730  
      1599       1600       1611       1610       1720       1721       1732       1731  
      1600       1601       1612       1611       1721       1722       1733       1732  
      1601       1602       1613       1612       1722       1723       1734       1733  
      1602       1603       1614       1613       1723       1724       1735       1734  
      1603       1604       1615       1614       1724       1725       1736       1735  
      1604       1605       1616       1615       1725       1726       1737       1736  
      1605       1606       1617       1616       1726       1727       1738       1737  
      1607       1608       1619       1618       1728       1729       1740       1739  
      1608       1609       1620       1619       1729       1730       1741       1740  
      1609       1610       1621       1620       1730       1731       1742       1741  
      1610       1611       1622       1621       1731       1732       1743       1742  
      1611       1612       1623       1622       1732       1733       1744       1743  
      1612       1613       1624       1623       1733       1734       1745       1744  
      1613       1614       1625       1624       1734       1735       1746       1745  
      1614       1615       1626       1625       1735       1736       1747       1746  
      1615       1616       1627       1626       1736       1737       1748       1747  
      1616       1617       1628       1627       1737       1738       1749       1748  
      1618       1619       1630       1629       1739       1740       1751       1750  
      1619       1620       1631       1630       1740       1741       1752       1751  
      1620       1621       1632       1631       1741       1742       1753       1752  
      1621       1622       1633       1632       1742       1743       1754       1753  
      1622       1623       1634       1633       1743       1744       1755       1754  
      1623       1624       1635       1634       1744       1745       1756       1755  
      1624       1625       1636       1635       1745       1746       1757       1756  
      1625       1626       1637       1636       1746       1747       1758       1757  
      1626       1627       1638       1637       1747       1748       1759       1758  
      1627       1628       1639       1638       1748       1749       1760       1759  
      1629       1630       1641       1640       1750       1751       1762       1761  
      1630       1631       1642       1641       1751       1752       1763       1762  
      1631       1632       1643       1642       1752       1753       1764       1763  
      1632       1633       1644       1643       1753       1754       1765       1764  
      1633       1634       1645       1644       1754       1755       1766       1765  
      1634       1635       1646       1645       1755       1756       1767       1766  
      1635       1636       1647       1646       1756       1757       1768       1767  
      1636       1637       1648       1647       1757       1758       1769       1768  
      1637       1638       1649       1648       1758       1759       1770       1769  
      1638       1639       1650       1649       1759       1760       1771       1770  
      1640       1641       1652       1651       1761       1762       1773       1772  
      1641       1642       1653       1652       1762       1763       1774       1773  
      1642       1643       1654       1653       1763       1764       1775       1774  
      1643       1644       1655       1654       1764       1765       1776       1775  
      1644       1645       1656       1655       1765       1766       1777       1776  
      1645       1646       1657       1656       1766       1767       1778       1777  
      1646       1647       1658       1657       1767       1768       1779       1778  
      1647       1648       1659       1658       1768       1769       1780       1779  
      1648       1649       1660       1659       1769       1770       1781       1780  
      1649       1650       1661       1660       1770       1771       1782       1781  
      1651       1652       1663       1662       1772       1773       1784       1783  
      1652       1653       1664       1663       1773       1774       1785       1784  
      1653       1654       1665       1664       1774       1775       1786       1785  
      1654       1655       1666       1665       1775       1776       1787       1786  
      1655       1656       1667       1666       1776       1777       1788       1787  
      1656       1657       1668       1667       1777       1778       1789       1788  
      1657       1658       1669       1668       1778       1779       1790       1789  
      1658       1659       1670       1669       1779       1780       1791       1790  
      1659       1660       1671       1670       1780       1781       1792       1791  
      1660       1661       1672       1671       1781       1782       1793       1792  
      1662       1663       1674       1673       1783       1784       1795       1794  
      1663       1664       1675       1674       1784       1785       1796       1795  
      1664       1665       1676       1675       1785       1786       1797       1796  
      1665       1666       1677       1676       1786       1787       1798       1797  
      1666       1667       1678       1677       1787       1788       1799       1798  
      1667       1668       1679       1678       1788       1789       1800       1799  
      1668       1669       1680       1679       1789       1790       1801       1800  
      1669       1670       1681       1680       1790       1791       1802       1801  
      1670       1671       1682       1681       1791       1792       1803       1802  
      1671       1672       1683       1682       1792       1793       1804       1803  
      1673       1674       1685       1684       1794       1795       1806       1805  
      1674       1675       1686       1685       1795       1796       1807       1806  
      1675       1676       1687       1686       1796       1797       1808       1807  
      1676       1677       1688       1687       1797       1798       1809       1808  
      1677       1678       1689       1688       1798       1799       1810       1809  
      1678       1679       1690       1689       1799       1800       1811       1810  
      1679       1680       1691       1690       1800       1801       1812       1811  
      1680       1681       1692       1691       1801       1802       1813       1812  
      1681       1682       1693       1692       1802       1803       1814       1813  
      1682       1683       1694       1693       1803       1804       1815       1814  
      1695       1696       1707       1706       1816       1817       1828       1827  
      1696       1697       1708       1707       1817       1818       1829       1828  
      1697       1698       1709       1708       1818       1819       1830       1829  
      1698       1699       1710       1709       1819       1820       1831       1830  
      1699       1700       1711       1710       1820       1821       1832       1831  
      1700       1701       1712       1711       1821       1822       1833       1832  
      1701       1702       1713       1712       1822       1823       1834       1833  
      1702       1703       1714       1713       1823       1824       1835       1834  
      1703       1704       1715       1714       1824       1825       1836       1835  
      1704       1705       1716       1715       1825       1826       1837       1836  
      1706       1707       1718       1717       1827       1828       1839       1838  
      1707       1708       1719       1718       1828       1829       1840       1839  
      1708       1709       1720       1719       1829       1830       1841       1840  
      1709       1710       1721       1720       1830       1831       1842       1841  
      1710       1711       1722       1721       1831       1832       1843       1842  
      1711       1712       1723       1722       1832       1833       1844       1843  
      1712       1713       1724       1723       1833       1834       1845       1844  
      1713       1714       1725       1724       1834       1835       1846       1845  
      1714       1715       1726       1725       1835       1836       1847       1846  
      1715       1716       1727       1726       1836       1837       1848       1847  
      1717       1718       1729       1728       1838       1839       1850       1849  
      1718       1719       1730       1729       1839       1840       1851       1850  
      1719       1720       1731       1730       1840       1841       1852       1851  
      1720       1721       1732       1731       1841       1842       1853       1852  
      1721       1722       1733       1732       1842       1843       1854       1853  
      1722       1723       1734       1733       1843       1844       1855       1854  
      1723       1724       1735       1734       1844       1845       1856       1855  
      1724       1725       1736       1735       1845       1846       1857       1856  
      1725       1726       1737       1736       1846       1847       1858       1857  
      1726       1727       1738       1737       1847       1848       1859       1858  
      1728       1729       1740       1739       1849       1850       1861       1860  
      1729       1730       1741       1740       1850       1851       1862       1861  
      1730       1731       1742       1741       1851       1852       1863       1862  
      1731       1732       1743       1742       1852       1853       1864       1863  
      1732       1733       1744       1743       1853       1854       1865       1864  
      1733       1734       1745       1744       1854       1855       1866       1865  
      1734       1735       1746       1745       1855       1856       1867       1866  
      1735       1736       1747       1746       1856       1857       1868       1867  
      1736       1737       1748       1747       1857       1858       1869       1868  
      1737       1738       1749       1748       1858       1859       1870       1869  
      1739       1740       1751       1750       1860       1861       1872       1871  
      1740       1741       1752       1751       1861       1862       1873       1872  
      1741       1742       1753       1752       1862       1863       1874       1873  
      1742       1743       1754       1753       1863       1864       1875       1874  
      1743       1744       1755       1754       1864       1865       1876       1875  
      1744       1745       1756       1755       1865       1866       1877       1876  
      1745       1746       1757       1756       1866       1867       1878       1877  
      1746       1747       1758       1757       1867       1868       1879       1878  
      1747       1748       1759       1758       1868       1869       1880       1879  
      1748       1749       1760       1759       1869       1870       1881       1880  
      1750       1751       1762       1761       1871       1872       1883       1882  
      1751       1752       1763       1762       1872       1873       1884       1883  
      1752       1753       1764       1763       1873       1874       1885       1884  
      1753       1754       1765       1764       1874       1875       1886       1885  
      1754       1755       1766       1765       1875       1876       1887       1886  
      1755       1756       1767       1766       1876       1877       1888       1887  
      1756       1757       1768       1767       1877       1878       1889       1888  
      1757       1758       1769       1768       1878       1879       1890       1889  
      1758       1759       1770       1769       1879       1880       1891       1890  
      1759       1760       1771       1770       1880       1881       1892       1891  
      1761       1762       1773       1772       1882       1883       1894       1893  
      1762       1763       1774       1773       1883       1884       1895       1894  
      1763       1764       1775       1774       1884       1885       1896       1895  
      1764       1765       1776       1775       1885       1886       1897       1896  
      1765       1766       1777       1776       1886       1887       1898       1897  
      1766       1767       1778       1777       1887       1888       1899       1898  
      1767       1768       1779       1778       1888       1889       1900       1899  
      1768       1769       1780       1779       1889       1890       1901       1900  
      1769       1770       1781       1780       1890       1891       1902       1901  
      1770       1771       1782       1781       1891       1892       1903       1902  
      1772       1773       1784       1783       1893       1894       1905       1904  
      1773       1774       1785       1784       1894       1895       1906       1905  
      1774       1775       1786       1785       1895       1896       1907       1906  
      1775       1776       1787       1786       1896       1897       1908       1907  
      1776       1777       1788       1787       1897       1898       1909       1908  
      1777       1778       1789       1788       1898       1899       1910       1909  
      1778       1779       1790       1789       1899       1900       1911       1910  
      1779       1780       1791       1790       1900       1901       1912       1911  
      1780       1781       1792       1791       1901       1902       1913       1912  
      1781       1782       1793       1792       1902       1903       1914       1913  
      1783       1784       1795       1794       1904       1905       1916       1915  
      1784       1785       1796       1795       1905       1906       1917       1916  
      1785       1786       1797       1796       1906       1907       1918       1917  
      1786       1787       1798       1797       1907       1908       1919       1918  
      1787       1788       1799       1798       1908       1909       1920       1919  
      1788       1789       1800       1799       1909       1910       1921       1920  
      1789       1790       1801       1800       1910       1911       1922       1921  
      1790       1791       1802       1801       1911       1912       1923       1922  
      1791       1792       1803       1802       1912       1913       1924       1923  
      1792       1793       1804       1803       1913       1914       1925       1924  
      1794       1795       1806       1805       1915       1916       1927       1926  
      1795       1796       1807       1806       1916       1917       1928       1927  
      1796       1797       1808       1807       1917       1918       1929       1928  
      1797       1798       1809       1808       1918       1919       1930       1929  
      1798       1799       1810       1809       1919       1920       1931       1930  
      1799       1800       1811       1810       1920       1921       1932       1931  
      1800       1801       1812       1811       1921       1922       1933       1932  
      1801       1802       1813       1812       1922       1923       1934       1933  
      1802       1803       1814       1813       1923       1924       1935       1934  
      1803       1804       1815       1814       1924       1925       1936       1935  
      1816       1817       1828       1827       1937       1938       1949       1948  
      1817       1818       1829       1828       1938       1939       1950       1949  
      1818       1819       1830       1829       1939       1940       1951       1950  
      1819       1820       1831       1830       1940       1941       1952       1951  
      1820       1821       1832       1831       1941       1942       1953       1952  
      1821       1822       1833       1832       1942       1943       1954       1953  
      1822       1823       1834       1833       1943       1944       1955       1954  
      1823       1824       1835       1834       1944       1945       1956       1955  
      1824       1825       1836       1835       1945       1946       1957       1956  
      1825       1826       1837       1836       1946       1947       1958       1957  
      1827       1828       1839       1838       1948       1949       1960       1959  
      1828       1829       1840       1839       1949       1950       1961       1960  
      1829       1830       1841       1840       1950       1951       1962       1961  
      1830       1831       1842       1841       1951       1952       1963       1962  
      1831       1832       1843       1842       1952       1953       1964       1963  
      1832       1833       1844       1843       1953       1954       1965       1964  
      1833       1834       1845       1844       1954       1955       1966       1965  
      1834       1835       1846       1845       1955       1956       1967       1966  
      1835       1836       1847       1846       1956       1957       1968       1967  
      1836       1837       1848       1847       1957       1958       1969       1968  
      1838       1839       1850       1849       1959       1960       1971       1970  
      1839       1840       1851       1850       1960       1961       1972       1971  
      1840       1841       1852       1851       1961       1962       1973       1972  
      1841       1842       1853       1852       1962       1963       1974       1973  
      1842       1843       1854       1853       1963       1964       1975       1974  
      1843       1844       1855       1854       1964       1965       1976       1975  
      1844       1845       1856       1855       1965       1966       1977       1976  
      1845       1846       1857       1856       1966       1967       1978       1977  
      1846       1847       1858       1857       1967       1968       1979       1978  
      1847       1848       1859       1858       1968       1969       1980       1979  
      1849       1850       1861       1860       1970       1971       1982       1981  
      1850       1851       1862       1861       1971       1972       1983       1982  
      1851       1852       1863       1862       1972       1973       1984       1983  
      1852       1853       1864       1863       1973       1974       1985       1984  
      1853       1854       1865       1864       1974       1975       1986       1985  
      1854       1855       1866       1865       1975       1976       1987       1986  
      1855       1856       1867       1866       1976       1977       1988       1987  
      1856       1857       1868       1867       1977       1978       1989       1988  
      1857       1858       1869       1868       1978       1979       1990       1989  
      1858       1859       1870       1869       1979       1980       1991       1990  
      1860       1861       1872       1871       1981       1982       1993       1992  
      1861       1862       1873       1872       1982       1983       1994       1993  
      1862       1863       1874       1873       1983       1984       1995       1994  
      1863       1864       1875       1874       1984       1985       1996       1995  
      1864       1865       1876       1875       1985       1986       1997       1996  
      1865       1866       1877       1876       1986       1987       1998       1997  
      1866       1867       1878       1877       1987       1988       1999       1998  
      1867       1868       1879       1878       1988       1989       2000       1999  
      1868       1869       1880       1879       1989       1990       2001       2000  
      1869       1870       1881       1880       1990       1991       2002       2001  
      1871       1872       1883       1882       1992       1993       2004       2003  
      1872       1873       1884       1883       1993       1994       2005       2004  
      1873       1874       1885       1884       1994       1995       2006       2005  
      1874       1875       1886       1885       1995       1996       2007       2006  
      1875       1876       1887       1886       1996       1997       2008       2007  
      1876       1877       1888       1887       1997       1998       2009       2008  
      1877       1878       1889       1888       1998       1999       2010       2009  
      1878       1879       1890       1889       1999       2000       2011       2010  
      1879       1880       1891       1890       2000       2001       2012       2011  
      1880       1881       1892       1891       2001       2002       2013       2012  
      1882       1883       1894       1893       2003       2004       2015       2014  
      1883       1884       1895       1894       2004       2005       2016       2015  
      1884       1885       1896       1895       2005       2006       2017       2016  
      1885       1886       1897       1896       2006       2007       2018       2017  
      1886       1887       1898       1897       2007       2008       2019       2018  
      1887       1888       1899       1898       2008       2009       2020       2019  
      1888       1889       1900       1899       2009       2010       2021       2020  
      1889       1890       1901       1900       2010       2011       2022       2021  
      1890       1891       1902       1901       2011       2012       2023       2022  
      1891       1892       1903       1902       2012       2013       2024       2023  
      1893       1894       1905       1904       2014       2015       2026       2025  
      1894       1895       1906       1905       2015       2016       2027       2026  
      1895       1896       1907       1906       2016       2017       2028       2027  
      1896       1897       1908       1907       2017       2018       2029       2028  
      1897       1898       1909       1908       2018       2019       2030       2029  
      1898       1899       1910       1909       2019       2020       2031       2030  
      1899       1900       1911       1910       2020       2021       2032       2031  
      1900       1901       1912       1911       2021       2022       2033       2032  
      1901       1902       1913       1912       2022       2023       2034       2033  
      1902       1903       1914       1913       2023       2024       2035       2034  
      1904       1905       1916       1915       2025       2026       2037       2036  
      1905       1906       1917       1916       2026       2027       2038       2037  
      1906       1907       1918       1917       2027       2028       2039       2038  
      1907       1908       1919       1918       2028       2029       2040       2039  
      1908       1909       1920       1919       2029       2030       2041       2040  
      1909       1910       1921       1920       2030       2031       2042       2041  
      1910       1911       1922       1921       2031       2032       2043       2042  
      1911       1912       1923       1922       2032       2033       2044       2043  
      1912       1913       1924       1923       2033       2034       2045       2044  
      1913       1914       1925       1924       2034       2035       2046       2045  
      1915       1916       1927       1926       2036       2037       2048       2047  
      1916       1917       1928       1927       2037       2038       2049       2048  
      1917       1918       1929       1928       2038       2039       2050       2049  
      1918       1919       1930       1929       2039       2040       2051       2050  
      1919       1920       1931       1930       2040       2041       2052       2051  
      1920       1921       1932       1931       2041       2042       2053       2052  
      1921       1922       1933       1932       2042       2043       2054       2053  
      1922       1923       1934       1933       2043       2044       2055       2054  
      1923       1924       1935       1934       2044       2045       2056       2055  
      1924       1925       1936       1935       2045       2046       2057       2056  
      1937       1938       1949       1948       2058       2059       2070       2069  
      1938       1939       1950       1949       2059       2060       2071       2070  
      1939       1940       1951       1950       2060       2061       2072       2071  
      1940       1941       1952       1951       2061       2062       2073       2072  
      1941       1942       1953       1952       2062       2063       2074       2073  
      1942       1943       1954       1953       2063       2064       2075       2074  
      1943       1944       1955       1954       2064       2065       2076       2075  
      1944       1945       1956       1955       2065       2066       2077       2076  
      1945       1946       1957       1956       2066       2067       2078       2077  
      1946       1947       1958       1957       2067       2068       2079       2078  
      1948       1949       1960       1959       2069       2070       2081       2080  
      1949       1950       1961       1960       2070       2071       2082       2081  
      1950       1951       1962       1961       2071       2072       2083       2082  
      1951       1952       1963       1962       2072       2073       2084       2083  
      1952       1953       1964       1963       2073       2074       2085       2084  
      1953       1954       1965       1964       2074       2075       2086       2085  
      1954       1955       1966       1965       2075       2076       2087       2086  
      1955       1956       1967       1966       2076       2077       2088       2087  
      1956       1957       1968       1967       2077       2078       2089       2088  
      1957       1958       1969       1968       2078       2079       2090       2089  
      1959       1960       1971       1970       2080       2081       2092       2091  
      1960       1961       1972       1971       2081       2082       2093       2092  
      1961       1962       1973       1972       2082       2083       2094       2093  
      1962       1963       1974       1973       2083       2084       2095       2094  
      1963       1964       1975       1974       2084       2085       2096       2095  
      1964       1965       1976       1975       2085       2086       2097       2096  
      1965       1966       1977       1976       2086       2087       2098       2097  
      1966       1967       1978       1977       2087       2088       2099       2098  
      1967       1968       1979       1978       2088       2089       2100       2099  
      1968       1969       1980       1979       2089       2090       2101       2100  
      1970       1971       1982       1981       2091       2092       2103       2102  
      1971       1972       1983       1982       2092       2093       2104       2103  
      1972       1973       1984       1983       2093       2094       2105       2104  
      1973       1974       1985       1984       2094       2095       2106       2105  
      1974       1975       1986       1985       2095       2096       2107       2106  
      1975       1976       1987       1986       2096       2097       2108       2107  
      1976       1977       1988       1987       2097       2098       2109       2108  
      1977       1978       1989       1988       2098       2099       2110       2109  
      1978       1979       1990       1989       2099       2100       2111       2110  
      1979       1980       1991       1990       2100       2101       2112       2111  
      1981       1982       1993       1992       2102       2103       2114       2113  
      1982       1983       1994       1993       2103       2104       2115       2114  
      1983       1984       1995       1994       2104       2105       2116       2115  
      1984       1985       1996       1995       2105       2106       2117       2116  
      1985       1986       1997       1996       2106       2107       2118       2117  
      1986       1987       1998       1997       2107       2108       2119       2118  
      1987       1988       1999       1998       2108       2109       2120       2119  
      1988       1989       2000       1999       2109       2110       2121       2120  
      1989       1990       2001       2000       2110       2111       2122       2121  
      1990       1991       2002       2001       2111       2112       2123       2122  
      1992       1993       2004       2003       2113       2114       2125       2124  
      1993       1994       2005       2004       2114       2115       2126       2125  
      1994       1995       2006       2005       2115       2116       2127       2126  
      1995       1996       2007       2006       2116       2117       2128       2127  
      1996       1997       2008       2007       2117       2118       2129       2128  
      1997       1998       2009       2008       2118       2119       2130       2129  
      1998       1999       2010       2009       2119       2120       2131       2130  
      1999       2000       2011       2010       2120       2121       2132       2131  
      2000       2001       2012       2011       2121       2122       2133       2132  
      2001       2002       2013       2012       2122       2123       2134       2133  
      2003       2004       2015       2014       2124       2125       2136       2135  
      2004       2005       2016       2015       2125       2126       2137       2136  
      2005       2006       2017       2016       2126       2127       2138       2137  
      2006       2007       2018       2017       2127       2128       2139       2138  
      2007       2008       2019       2018       2128       2129       2140       2139  
      2008       2009       2020       2019       2129       2130       2141       2140  
      2009       2010       2021       2020       2130       2131       2142       2141  
      2010       2011       2022       2021       2131       2132       2143       2142  
      2011       2012       2023       2022       2132       2133       2144       2143  
      2012       2013       2024       2023       2133       2134       2145       2144  
      2014       2015       2026       2025       2135       2136       2147       2146  
      2015       2016       2027       2026       2136       2137       2148       2147  
      2016       2017       2028       2027       2137       2138       2149       2148  
      2017       2018       2029       2028       2138       2139       2150       2149  
      2018       2019       2030       2029       2139       2140       2151       2150  
      2019       2020       2031       2030       2140       2141       2152       2151  
      2020       2021       2032       2031       2141       2142       2153       2152  
      2021       2022       2033       2032       2142       2143       2154       2153  
      2022       2023       2034       2033       2143       2144       2155       2154  
      2023       2024       2035       2034       2144       2145       2156       2155  
      2025       2026       2037       2036       2146       2147       2158       2157  
      2026       2027       2038       2037       2147       2148       2159       2158  
      2027       2028       2039       2038       2148       2149       2160       2159  
      2028       2029       2040       2039       2149       2150       2161       2160  
      2029       2030       2041       2040       2150       2151       2162       2161  
      2030       2031       2042       2041       2151       2152       2163       2162  
      2031       2032       2043       2042       2152       2153       2164       2163  
      2032       2033       2044       2043       2153       2154       2165       2164  
      2033       2034       2045       2044       2154       2155       2166       2165  
      2034       2035       2046       2045       2155       2156       2167       2166  
      2036       2037       2048       2047       2157       2158       2169       2168  
      2037       2038       2049       2048       2158       2159       2170       2169  
      2038       2039       2050       2049       2159       2160       2171       2170  
      2039       2040       2051       2050       2160       2161       2172       2171  
      2040       2041       2052       2051       2161       2162       2173       2172  
      2041       2042       2053       2052       2162       2163       2174       2173  
      2042       2043       2054       2053       2163       2164       2175       2174  
      2043       2044       2055       2054       2164       2165       2176       2175  
      2044       2045       2056       2055       2165       2166       2177       2176  
      2045       2046       2057       2056       2166       2167       2178       2177  
      2058       2059       2070       2069       2179       2180       2191       2190  
      2059       2060       2071       2070       2180       2181       2192       2191  
      2060       2061       2072       2071       2181       2182       2193       2192  
      2061       2062       2073       2072       2182       2183       2194       2193  
      2062       2063       2074       2073       2183       2184       2195       2194  
      2063       2064       2075       2074       2184       2185       2196       2195  
      2064       2065       2076       2075       2185       2186       2197       2196  
      2065       2066       2077       2076       2186       2187       2198       2197  
      2066       2067       2078       2077       2187       2188       2199       2198  
      2067       2068       2079       2078       2188       2189       2200       2199  
      2069       2070       2081       2080       2190       2191       2202       2201  
      2070       2071       2082       2081       2191       2192       2203       2202  
      2071       2072       2083       2082       2192       2193       2204       2203  
      2072       2073       2084       2083       2193       2194       2205       2204  
      2073       2074       2085       2084       2194       2195       2206       2205  
      2074       2075       2086       2085       2195       2196       2207       2206  
      2075       2076       2087       2086       2196       2197       2208       2207  
      2076       2077       2088       2087       2197       2198       2209       2208  
      2077       2078       2089       2088       2198       2199       2210       2209  
      2078       2079       2090       2089       2199       2200       2211       2210  
      2080       2081       2092       2091       2201       2202       2213       2212  
      2081       2082       2093       2092       2202       2203       2214       2213  
      2082       2083       2094       2093       2203       2204       2215       2214  
      2083       2084       2095       2094       2204       2205       2216       2215  
      2084       2085       2096       2095       2205       2206       2217       2216  
      2085       2086       2097       2096       2206       2207       2218       2217  
      2086       2087       2098       2097       2207       2208       2219       2218  
      2087       2088       2099       2098       2208       2209       2220       2219  
      2088       2089       2100       2099       2209       2210       2221       2220  
      2089       2090       2101       2100       2210       2211       2222       2221  
      2091       2092       2103       2102       2212       2213       2224       2223  
      2092       2093       2104       2103       2213       2214       2225       2224  
      2093       2094       2105       2104       2214       2215       2226       2225  
      2094       2095       2106       2105       2215       2216       2227       2226  
      2095       2096       2107       2106       2216       2217       2228       2227  
      2096       2097       2108       2107       2217       2218       2229       2228  
      2097       2098       2109       2108       2218       2219       2230       2229  
      2098       2099       2110       2109       2219       2220       2231       2230  
      2099       2100       2111       2110       2220       2221       2232       2231  
      2100       2101       2112       2111       2221       2222       2233       2232  
      2102       2103       2114       2113       2223       2224       2235       2234  
      2103       2104       2115       2114       2224       2225       2236       2235  
      2104       2105       2116       2115       2225       2226       2237       2236  
      2105       2106       2117       2116       2226       2227       2238       2237  
      2106       2107       2118       2117       2227       2228       2239       2238  
      2107       2108       2119       2118       2228       2229       2240       2239  
      2108       2109       2120       2119       2229       2230       2241       2240  
      2109       2110       2121       2120       2230       2231       2242       2241  
      2110       2111       2122       2121       2231       2232       2243       2242  
      2111       2112       2123       2122       2232       2233       2244       2243  
      2113       2114       2125       2124       2234       2235       2246       2245  
      2114       2115       2126       2125       2235       2236       2247       2246  
      2115       2116       2127       2126       2236       2237       2248       2247  
      2116       2117       2128       2127       2237       2238       2249       2248  
      2117       2118       2129       2128       2238       2239       2250       2249  
      2118       2119       2130       2129       2239       2240       2251       2250  
      2119       2120       2131       2130       2240       2241       2252       2251  
      2120       2121       2132       2131       2241       2242       2253       2252  
      2121       2122       2133       2132       2242       2243       2254       2253  
      2122       2123       2134       2133       2243       2244       2255       2254  
      2124       2125       2136       2135       2245       2246       2257       2256  
      2125       2126       2137       2136       2246       2247       2258       2257  
      2126       2127       2138       2137       2247       2248       2259       2258  
      2127       2128       2139       2138       2248       2249       2260       2259  
      2128       2129       2140       2139       2249       2250       2261       2260  
      2129       2130       2141       2140       2250       2251       2262       2261  
      2130       2131       2142       2141       2251       2252       2263       2262  
      2131       2132       2143       2142       2252       2253       2264       2263  
      2132       2133       2144       2143       2253       2254       2265       2264  
      2133       2134       2145       2144       2254       2255       2266       2265  
      2135       2136       2147       2146       2256       2257       2268       2267  
      2136       2137       2148       2147       2257       2258       2269       2268  
      2137       2138       2149       2148       2258       2259       2270       2269  
      2138       2139       2150       2149       2259       2260       2271       2270  
      2139       2140       2151       2150       2260       2261       2272       2271  
      2140       2141       2152       2151       2261       2262       2273       2272  
      2141       2142       2153       2152       2262       2263       2274       2273  
      2142       2143       2154       2153       2263       2264       2275       2274  
      2143       2144       2155       2154       2264       2265       2276       2275  
      2144       2145       2156       2155       2265       2266       2277       2276  
      2146       2147       2158       2157       2267       2268       2279       2278  
      2147       2148       2159       2158       2268       2269       2280       2279  
      2148       2149       2160       2159       2269       2270       2281       2280  
      2149       2150       2161       2160       2270       2271       2282       2281  
      2150       2151       2162       2161       2271       2272       2283       2282  
      2151       2152       2163       2162       2272       2273       2284       2283  
      2152       2153       2164       2163       2273       2274       2285       2284  
      2153       2154       2165       2164       2274       2275       2286       2285  
      2154       2155       2166       2165       2275       2276       2287       2286  
      2155       2156       2167       2166       2276       2277       2288       2287  
      2157       2158       2169       2168       2278       2279       2290       2289  
      2158       2159       2170       2169       2279       2280       2291       2290  
      2159       2160       2171       2170       2280       2281       2292       2291  
      2160       2161       2172       2171       2281       2282       2293       2292  
      2161       2162       2173       2172       2282       2283       2294       2293  
      2162       2163       2174       2173       2283       2284       2295       2294  
      2163       2164       2175       2174       2284       2285       2296       2295  
      2164       2165       2176       2175       2285       2286       2297       2296  
      2165       2166       2177       2176       2286       2287       2298       2297  
      2166       2167       2178       2177       2287       2288       2299       2298  
      2179       2180       2191       2190       2300       2301       2312       2311  
      2180       2181       2192       2191       2301       2302       2313       2312  
      2181       2182       2193       2192       2302       2303       2314       2313  
      2182       2183       2194       2193       2303       2304       2315       2314  
      2183       2184       2195       2194       2304       2305       2316       2315  
      2184       2185       2196       2195       2305       2306       2317       2316  
      2185       2186       2197       2196       2306       2307       2318       2317  
      2186       2187       2198       2197       2307       2308       2319       2318  
      2187       2188       2199       2198       2308       2309       2320       2319  
      2188       2189       2200       2199       2309       2310       2321       2320  
      2190       2191       2202       2201       2311       2312       2323       2322  
      2191       2192       2203       2202       2312       2313       2324       2323  
      2192       2193       2204       2203       2313       2314       2325       2324  
      2193       2194       2205       2204       2314       2315       2326       2325  
      2194       2195       2206       2205       2315       2316       2327       2326  
      2195       2196       2207       2206       2316       2317       2328       2327  
      2196       2197       2208       2207       2317       2318       2329       2328  
      2197       2198       2209       2208       2318       2319       2330       2329  
      2198       2199       2210       2209       2319       2320       2331       2330  
      2199       2200       2211       2210       2320       2321       2332       2331  
      2201       2202       2213       2212       2322       2323       2334       2333  
      2202       2203       2214       2213       2323       2324       2335       2334  
      2203       2204       2215       2214       2324       2325       2336       2335  
      2204       2205       2216       2215       2325       2326       2337       2336  
      2205       2206       2217       2216       2326       2327       2338       2337  
      2206       2207       2218       2217       2327       2328       2339       2338  
      2207       2208       2219       2218       2328       2329       2340       2339  
      2208       2209       2220       2219       2329       2330       2341       2340  
      2209       2210       2221       2220       2330       2331       2342       2341  
      2210       2211       2222       2221       2331       2332       2343       2342  
      2212       2213       2224       2223       2333       2334       2345       2344  
      2213       2214       2225       2224       2334       2335       2346       2345  
      2214       2215       2226       2225       2335       2336       2347       2346  
      2215       2216       2227       2226       2336       2337       2348       2347  
      2216       2217       2228       2227       2337       2338       2349       2348  
      2217       2218       2229       2228       2338       2339       2350       2349  
      2218       2219       2230       2229       2339       2340       2351       2350  
      2219       2220       2231       2230       2340       2341       2352       2351  
      2220       2221       2232       2231       2341       2342       2353       2352  
      2221       2222       2233       2232       2342       2343       2354       2353  
      2223       2224       2235       2234       2344       2345       2356       2355  
      2224       2225       2236       2235       2345       2346       2357       2356  
      2225       2226       2237       2236       2346       2347       2358       2357  
      2226       2227       2238       2237       2347       2348       2359       2358  
      2227       2228       2239       2238       2348       2349       2360       2359  
      2228       2229       2240       2239       2349       2350       2361       2360  
      2229       2230       2241       2240       2350       2351       2362       2361  
      2230       2231       2242       2241       2351       2352       2363       2362  
      2231       2232       2243       2242       2352       2353       2364       2363  
      2232       2233       2244       2243       2353       2354       2365       2364  
      2234       2235       2246       2245       2355       2356       2367       2366  
      2235       2236       2247       2246       2356       2357       2368       2367  
      2236       2237       2248       2247       2357       2358       2369       2368  
      2237       2238       2249       2248       2358       2359       2370       2369  
      2238       2239       2250       2249       2359       2360       2371       2370  
      2239       2240       2251       2250       2360       2361       2372       2371  
      2240       2241       2252       2251       2361       2362       2373       2372  
      2241       2242       2253       2252       2362       2363       2374       2373  
      2242       2243       2254       2253       2363       2364       2375       2374  
      2243       2244       2255       2254       2364       2365       2376       2375  
      2245       2246       2257       2256       2366       2367       2378       2377  
      2246       2247       2258       2257       2367       2368       2379       2378  
      2247       2248       2259       2258       2368       2369       2380       2379  
      2248       2249       2260       2259       2369       2370       2381       2380  
      2249       2250       2261       2260       2370       2371       2382       2381  
      2250       2251       2262       2261       2371       2372       2383       2382  
      2251       2252       2263       2262       2372       2373       2384       2383  
      2252       2253       2264       2263       2373       2374       2385       2384  
      2253       2254       2265       2264       2374       2375       2386       2385  
      2254       2255       2266       2265       2375       2376       2387       2386  
      2256       2257       2268       2267       2377       2378       2389       2388  
      2257       2258       2269       2268       2378       2379       2390       2389  
      2258       2259       2270       2269       2379       2380       2391       2390  
      2259       2260       2271       2270       2380       2381       2392       2391  
      2260       2261       2272       2271       2381       2382       2393       2392  
      2261       2262       2273       2272       2382       2383       2394       2393  
      2262       2263       2274       2273       2383       2384       2395       2394  
      2263       2264       2275       2274       2384       2385       2396       2395  
      2264       2265       2276       2275       2385       2386       2397       2396  
      2265       2266       2277       2276       2386       2387       2398       2397  
      2267       2268       2279       2278       2388       2389       2400       2399  
      2268       2269       2280       2279       2389       2390       2401       2400  
      2269       2270       2281       2280       2390       2391       2402       2401  
      2270       2271       2282       2281       2391       2392       2403       2402  
      2271       2272       2283       2282       2392       2393       2404       2403  
      2272       2273       2284       2283       2393       2394       2405       2404  
      2273       2274       2285       2284       2394       2395       2406       2405  
      2274       2275       2286       2285       2395       2396       2407       2406  
      2275       2276       2287       2286       2396       2397       2408       2407  
      2276       2277       2288       2287       2397       2398       2409       2408  
      2278       2279       2290       2289       2399       2400       2411       2410  
      2279       2280       2291       2290       2400       2401       2412       2411  
      2280       2281       2292       2291       2401       2402       2413       2412  
      2281       2282       2293       2292       2402       2403       2414       2413  
      2282       2283       2294       2293       2403       2404       2415       2414  
      2283       2284       2295       2294       2404       2405       2416       2415  
      2284       2285       2296       2295       2405       2406       2417       2416  
      2285       2286       2297       2296       2406       2407       2418       2417  
      2286       2287       2298       2297       2407       2408       2419       2418  
      2287       2288       2299       2298       2408       2409       2420       2419  
      2300       2301       2312       2311       2421       2422       2433       2432  
      2301       2302       2313       2312       2422       2423       2434       2433  
      2302       2303       2314       2313       2423       2424       2435       2434  
      2303       2304       2315       2314       2424       2425       2436       2435  
      2304       2305       2316       2315       2425       2426       2437       2436  
      2305       2306       2317       2316       2426       2427       2438       2437  
      2306       2307       2318       2317       2427       2428       2439       2438  
      2307       2308       2319       2318       2428       2429       2440       2439  
      2308       2309       2320       2319       2429       2430       2441       2440  
      2309       2310       2321       2320       2430       2431       2442       2441  
      2311       2312       2323       2322       2432       2433       2444       2443  
      2312       2313       2324       2323       2433       2434       2445       2444  
      2313       2314       2325       2324       2434       2435       2446       2445  
      2314       2315       2326       2325       2435       2436       2447       2446  
      2315       2316       2327       2326       2436       2437       2448       2447  
      2316       2317       2328       2327       2437       2438       2449       2448  
      2317       2318       2329       2328       2438       2439       2450       2449  
      2318       2319       2330       2329       2439       2440       2451       2450  
      2319       2320       2331       2330       2440       2441       2452       2451  
      2320       2321       2332       2331       2441       2442       2453       2452  
      2322       2323       2334       2333       2443       2444       2455       2454  
      2323       2324       2335       2334       2444       2445       2456       2455  
      2324       2325       2336       2335       2445       2446       2457       2456  
      2325       2326       2337       2336       2446       2447       2458       2457  
      2326       2327       2338       2337       2447       2448       2459       2458  
      2327       2328       2339       2338       2448       2449       2460       2459  
      2328       2329       2340       2339       2449       2450       2461       2460  
      2329       2330       2341       2340       2450       2451       2462       2461  
      2330       2331       2342       2341       2451       2452       2463       2462  
      2331       2332       2343       2342       2452       2453       2464       2463  
      2333       2334       2345       2344       2454       2455       2466       2465  
      2334       2335       2346       2345       2455       2456       2467       2466  
      2335       2336       2347       2346       2456       2457       2468       2467  
      2336       2337       2348       2347       2457       2458       2469       2468  
      2337       2338       2349       2348       2458       2459       2470       2469  
      2338       2339       2350       2349       2459       2460       2471       2470  
      2339       2340       2351       2350       2460       2461       2472       2471  
      2340       2341       2352       2351       2461       2462       2473       2472  
      2341       2342       2353       2352       2462       2463       2474       2473  
      2342       2343       2354       2353       2463       2464       2475       2474  
      2344       2345       2356       2355       2465       2466       2477       2476  
      2345       2346       2357       2356       2466       2467       2478       2477  
      2346       2347       2358       2357       2467       2468       2479       2478  
      2347       2348       2359       2358       2468       2469       2480       2479  
      2348       2349       2360       2359       2469       2470       2481       2480  
      2349       2350       2361       2360       2470       2471       2482       2481  
      2350       2351       2362       2361       2471       2472       2483       2482  
      2351       2352       2363       2362       2472       2473       2484       2483  
      2352       2353       2364       2363       2473       2474       2485       2484  
      2353       2354       2365       2364       2474       2475       2486       2485  
      2355       2356       2367       2366       2476       2477       2488       2487  
      2356       2357       2368       2367       2477       2478       2489       2488  
      2357       2358       2369       2368       2478       2479       2490       2489  
      2358       2359       2370       2369       2479       2480       2491       2490  
      2359       2360       2371       2370       2480       2481       2492       2491  
      2360       2361       2372       2371       2481       2482       2493       2492  
      2361       2362       2373       2372       2482       2483       2494       2493  
      2362       2363       2374       2373       2483       2484       2495       2494  
      2363       2364       2375       2374       2484       2485       2496       2495  
      2364       2365       2376       2375       2485       2486       2497       2496  
      2366       2367       2378       2377       2487       2488       2499       2498  
      2367       2368       2379       2378       2488       2489       2500       2499  
      2368       2369       2380       2379       2489       2490       2501       2500  
      2369       2370       2381       2380       2490       2491       2502       2501  
      2370       2371       2382       2381       2491       2492       2503       2502  
      2371       2372       2383       2382       2492       2493       2504       2503  
      2372       2373       2384       2383       2493       2494       2505       2504  
      2373       2374       2385       2384       2494       2495       2506       2505  
      2374       2375       2386       2385       2495       2496       2507       2506  
      2375       2376       2387       2386       2496       2497       2508       2507  
      2377       2378       2389       2388       2498       2499       2510       2509  
      2378       2379       2390       2389       2499       2500       2511       2510  
      2379       2380       2391       2390       2500       2501       2512       2511  
      2380       2381       2392       2391       2501       2502       2513       2512  
      2381       2382       2393       2392       2502       2503       2514       2513  
      2382       2383       2394       2393       2503       2504       2515       2514  
      2383       2384       2395       2394       2504       2505       2516       2515  
      2384       2385       2396       2395       2505       2506       2517       2516  
      2385       2386       2397       2396       2506       2507       2518       2517  
      2386       2387       2398       2397       2507       2508       2519       2518  
      2388       2389       2400       2399       2509       2510       2521       2520  
      2389       2390       2401       2400       2510       2511       2522       2521  
      2390       2391       2402       2401       2511       2512       2523       2522  
      2391       2392       2403       2402       2512       2513       2524       2523  
      2392       2393       2404       2403       2513       2514       2525       2524  
      2393       2394       2405       2404       2514       2515       2526       2525  
      2394       2395       2406       2405       2515       2516       2527       2526  
      2395       2396       2407       2406       2516       2517       2528       2527  
      2396       2397       2408       2407       2517       2518       2529       2528  
      2397       2398       2409       2408       2518       2519       2530       2529  
      2399       2400       2411       2410       2520       2521       2532       2531  
      2400       2401       2412       2411       2521       2522       2533       2532  
      2401       2402       2413       2412       2522       2523       2534       2533  
      2402       2403       2414       2413       2523       2524       2535       2534  
      2403       2404       2415       2414       2524       2525       2536       2535  
      2404       2405       2416       2415       2525       2526       2537       2536  
      2405       2406       2417       2416       2526       2527       2538       2537  
      2406       2407       2418       2417       2527       2528       2539       2538  
      2407       2408       2419       2418       2528       2529       2540       2539  
      2408       2409       2420       2419       2529       2530       2541       2540  
      2421       2422       2433       2432       2542       2543       2554       2553  
      2422       2423       2434       2433       2543       2544       2555       2554  
      2423       2424       2435       2434       2544       2545       2556       2555  
      2424       2425       2436       2435       2545       2546       2557       2556  
      2425       2426       2437       2436       2546       2547       2558       2557  
      2426       2427       2438       2437       2547       2548       2559       2558  
      2427       2428       2439       2438       2548       2549       2560       2559  
      2428       2429       2440       2439       2549       2550       2561       2560  
      2429       2430       2441       2440       2550       2551       2562       2561  
      2430       2431       2442       2441       2551       2552       2563       2562  
      2432       2433       2444       2443       2553       2554       2565       2564  
      2433       2434       2445       2444       2554       2555       2566       2565  
      2434       2435       2446       2445       2555       2556       2567       2566  
      2435       2436       2447       2446       2556       2557       2568       2567  
      2436       2437       2448       2447       2557       2558       2569       2568  
      2437       2438       2449       2448       2558       2559       2570       2569  
      2438       2439       2450       2449       2559       2560       2571       2570  
      2439       2440       2451       2450       2560       2561       2572       2571  
      2440       2441       2452       2451       2561       2562       2573       2572  
      2441       2442       2453       2452       2562       2563       2574       2573  
      2443       2444       2455       2454       2564       2565       2576       2575  
      2444       2445       2456       2455       2565       2566       2577       2576  
      2445       2446       2457       2456       2566       2567       2578       2577  
      2446       2447       2458       2457       2567       2568       2579       2578  
      2447       2448       2459       2458       2568       2569       2580       2579  
      2448       2449       2460       2459       2569       2570       2581       2580  
      2449       2450       2461       2460       2570       2571       2582       2581  
      2450       2451       2462       2461       2571       2572       2583       2582  
      2451       2452       2463       2462       2572       2573       2584       2583  
      2452       2453       2464       2463       2573       2574       2585       2584  
      2454       2455       2466       2465       2575       2576       2587       2586  
      2455       2456       2467       2466       2576       2577       2588       2587  
      2456       2457       2468       2467       2577       2578       2589       2588  
      2457       2458       2469       2468       2578       2579       2590       2589  
      2458       2459       2470       2469       2579       2580       2591       2590  
      2459       2460       2471       2470       2580       2581       2592       2591  
      2460       2461       2472       2471       2581       2582       2593       2592  
      2461       2462       2473       2472       2582       2583       2594       2593  
      2462       2463       2474       2473       2583       2584       2595       2594  
      2463       2464       2475       2474       2584       2585       2596       2595  
      2465       2466       2477       2476       2586       2587       2598       2597  
      2466       2467       2478       2477       2587       2588       2599       2598  
      2467       2468       2479       2478       2588       2589       2600       2599  
      2468       2469       2480       2479       2589       2590       2601       2600  
      2469       2470       2481       2480       2590       2591       2602       2601  
      2470       2471       2482       2481       2591       2592       2603       2602  
      2471       2472       2483       2482       2592       2593       2604       2603  
      2472       2473       2484       2483       2593       2594       2605       2604  
      2473       2474       2485       2484       2594       2595       2606       2605  
      2474       2475       2486       2485       2595       2596       2607       2606  
      2476       2477       2488       2487       2597       2598       2609       2608  
      2477       2478       2489       2488       2598       2599       2610       2609  
      2478       2479       2490       2489       2599       2600       2611       2610  
      2479       2480       2491       2490       2600       2601       2612       2611  
      2480       2481       2492       2491       2601       2602       2613       2612  
      2481       2482       2493       2492       2602       2603       2614       2613  
      2482       2483       2494       2493       2603       2604       2615       2614  
      2483       2484       2495       2494       2604       2605       2616       2615  
      2484       2485       2496       2495       2605       2606       2617       2616  
      2485       2486       2497       2496       2606       2607       2618       2617  
      2487       2488       2499       2498       2608       2609       2620       2619  
      2488       2489       2500       2499       2609       2610       2621       2620  
      2489       2490       2501       2500       2610       2611       2622       2621  
      2490       2491       2502       2501       2611       2612       2623       2622  
      2491       2492       2503       2502       2612       2613       2624       2623  
      2492       2493       2504       2503       2613       2614       2625       2624  
      2493       2494       2505       2504       2614       2615       2626       2625  
      2494       2495       2506       2505       2615       2616       2627       2626  
      2495       2496       2507       2506       2616       2617       2628       2627  
      2496       2497       2508       2507       2617       2618       2629       2628  
      2498       2499       2510       2509       2619       2620       2631       2630  
      2499       2500       2511       2510       2620       2621       2632       2631  
      2500       2501       2512       2511       2621       2622       2633       2632  
      2501       2502       2513       2512       2622       2623       2634       2633  
      2502       2503       2514       2513       2623       2624       2635       2634  
      2503       2504       2515       2514       2624       2625       2636       2635  
      2504       2505       2516       2515       2625       2626       2637       2636  
      2505       2506       2517       2516       2626       2627       2638       2637  
      2506       2507       2518       2517       2627       2628       2639       2638  
      2507       2508       2519       2518       2628       2629       2640       2639  
      2509       2510       2521       2520       2630       2631       2642       2641  
      2510       2511       2522       2521       2631       2632       2643       2642  
      2511       2512       2523       2522       2632       2633       2644       2643  
      2512       2513       2524       2523       2633       2634       2645       2644  
      2513       2514       2525       2524       2634       2635       2646       2645  
      2514       2515       2526       2525       2635       2636       2647       2646  
      2515       2516       2527       2526       2636       2637       2648       2647  
      2516       2517       2528       2527       2637       2638       2649       2648  
      2517       2518       2529       2528       2638       2639       2650       2649  
      2518       2519       2530       2529       2639       2640       2651       2650  
      2520       2521       2532       2531       2641       2642       2653       2652  
      2521       2522       2533       2532       2642       2643       2654       2653  
      2522       2523       2534       2533       2643       2644       2655       2654  
      2523       2524       2535       2534       2644       2645       2656       2655  
      2524       2525       2536       2535       2645       2646       2657       2656  
      2525       2526       2537       2536       2646       2647       2658       2657  
      2526       2527       2538       2537       2647       2648       2659       2658  
      2527       2528       2539       2538       2648       2649       2660       2659  
      2528       2529       2540       2539       2649       2650       2661       2660  
      2529       2530       2541       2540       2650       2651       2662       2661  
      2542       2543       2554       2553       2663       2664       2675       2674  
      2543       2544       2555       2554       2664       2665       2676       2675  
      2544       2545       2556       2555       2665       2666       2677       2676  
      2545       2546       2557       2556       2666       2667       2678       2677  
      2546       2547       2558       2557       2667       2668       2679       2678  
      2547       2548       2559       2558       2668       2669       2680       2679  
      2548       2549       2560       2559       2669       2670       2681       2680  
      2549       2550       2561       2560       2670       2671       2682       2681  
      2550       2551       2562       2561       2671       2672       2683       2682  
      2551       2552       2563       2562       2672       2673       2684       2683  
      2553       2554       2565       2564       2674       2675       2686       2685  
      2554       2555       2566       2565       2675       2676       2687       2686  
      2555       2556       2567       2566       2676       2677       2688       2687  
      2556       2557       2568       2567       2677       2678       2689       2688  
      2557       2558       2569       2568       2678       2679       2690       2689  
      2558       2559       2570       2569       2679       2680       2691       2690  
      2559       2560       2571       2570       2680       2681       2692       2691  
      2560       2561       2572       2571       2681       2682       2693       2692  
      2561       2562       2573       2572       2682       2683       2694       2693  
      2562       2563       2574       2573       2683       2684       2695       2694  
      2564       2565       2576       2575       2685       2686       2697       2696  
      2565       2566       2577       2576       2686       2687       2698       2697  
      2566       2567       2578       2577       2687       2688       2699       2698  
      2567       2568       2579       2578       2688       2689       2700       2699  
      2568       2569       2580       2579       2689       2690       2701       2700  
      2569       2570       2581       2580       2690       2691       2702       2701  
      2570       2571       2582       2581       2691       2692       2703       2702  
      2571       2572       2583       2582       2692       2693       2704       2703  
      2572       2573       2584       2583       2693       2694       2705       2704  
      2573       2574       2585       2584       2694       2695       2706       2705  
      2575       2576       2587       2586       2696       2697       2708       2707  
      2576       2577       2588       2587       2697       2698       2709       2708  
      2577       2578       2589       2588       2698       2699       2710       2709  
      2578       2579       2590       2589       2699       2700       2711       2710  
      2579       2580       2591       2590       2700       2701       2712       2711  
      2580       2581       2592       2591       2701       2702       2713       2712  
      2581       2582       2593       2592       2702       2703       2714       2713  
      2582       2583       2594       2593       2703       2704       2715       2714  
      2583       2584       2595       2594       2704       2705       2716       2715  
      2584       2585       2596       2595       2705       2706       2717       2716  
      2586       2587       2598       2597       2707       2708       2719       2718  
      2587       2588       2599       2598       2708       2709       2720       2719  
      2588       2589       2600       2599       2709       2710       2721       2720  
      2589       2590       2601       2600       2710       2711       2722       2721  
      2590       2591       2602       2601       2711       2712       2723       2722  
      2591       2592       2603       2602       2712       2713       2724       2723  
      2592       2593       2604       2603       2713       2714       2725       2724  
      2593       2594       2605       2604       2714       2715       2726       2725  
      2594       2595       2606       2605       2715       2716       2727       2726  
      2595       2596       2607       2606       2716       2717       2728       2727  
      2597       2598       2609       2608       2718       2719       2730       2729  
      2598       2599       2610       2609       2719       2720       2731       2730  
      2599       2600       2611       2610       2720       2721       2732       2731  
      2600       2601       2612       2611       2721       2722       2733       2732  
      2601       2602       2613       2612       2722       2723       2734       2733  
      2602       2603       2614       2613       2723       2724       2735       2734  
      2603       2604       2615       2614       2724       2725       2736       2735  
      2604       2605       2616       2615       2725       2726       2737       2736  
      2605       2606       2617       2616       2726       2727       2738       2737  
      2606       2607       2618       2617       2727       2728       2739       2738  
      2608       2609       2620       2619       2729       2730       2741       2740  
      2609       2610       2621       2620       2730       2731       2742       2741  
      2610       2611       2622       2621       2731       2732       2743       2742  
      2611       2612       2623       2622       2732       2733       2744       2743  
      2612       2613       2624       2623       2733       2734       2745       2744  
      2613       2614       2625       2624       2734       2735       2746       2745  
      2614       2615       2626       2625       2735       2736       2747       2746  
      2615       2616       2627       2626       2736       2737       2748       2747  
      2616       2617       2628       2627       2737       2738       2749       2748  
      2617       2618       2629       2628       2738       2739       2750       2749  
      2619       2620       2631       2630       2740       2741       2752       2751  
      2620       2621       2632       2631       2741       2742       2753       2752  
      2621       2622       2633       2632       2742       2743       2754       2753  
      2622       2623       2634       2633       2743       2744       2755       2754  
      2623       2624       2635       2634       2744       2745       2756       2755  
      2624       2625       2636       2635       2745       2746       2757       2756  
      2625       2626       2637       2636       2746       2747       2758       2757  
      2626       2627       2638       2637       2747       2748       2759       2758  
      2627       2628       2639       2638       2748       2749       2760       2759  
      2628       2629       2640       2639       2749       2750       2761       2760  
      2630       2631       2642       2641       2751       2752       2763       2762  
      2631       2632       2643       2642       2752       2753       2764       2763  
      2632       2633       2644       2643       2753       2754       2765       2764  
      2633       2634       2645       2644       2754       2755       2766       2765  
      2634       2635       2646       2645       2755       2756       2767       2766  
      2635       2636       2647       2646       2756       2757       2768       2767  
      2636       2637       2648       2647       2757       2758       2769       2768  
      2637       2638       2649       2648       2758       2759       2770       2769  
      2638       2639       2650       2649       2759       2760       2771       2770  
      2639       2640       2651       2650       2760       2761       2772       2771  
      2641       2642       2653       2652       2762       2763       2774       2773  
      2642       2643       2654       2653       2763       2764       2775       2774  
      2643       2644       2655       2654       2764       2765       2776       2775  
      2644       2645       2656       2655       2765       2766       2777       2776  
      2645       2646       2657       2656       2766       2767       2778       2777  
      2646       2647       2658       2657       2767       2768       2779       2778  
      2647       2648       2659       2658       2768       2769       2780       2779  
      2648       2649       2660       2659       2769       2770       2781       2780  
      2649       2650       2661       2660       2770       2771       2782       2781  
      2650       2651       2662       2661       2771       2772       2783       2782  
      2663       2664       2675       2674       2784       2785       2796       2795  
      2664       2665       2676       2675       2785       2786       2797       2796  
      2665       2666       2677       2676       2786       2787       2798       2797  
      2666       2667       2678       2677       2787       2788       2799       2798  
      2667       2668       2679       2678       2788       2789       2800       2799  
      2668       2669       2680       2679       2789       2790       2801       2800  
      2669       2670       2681       2680       2790       2791       2802       2801  
      2670       2671       2682       2681       2791       2792       2803       2802  
      2671       2672       2683       2682       2792       2793       2804       2803  
      2672       2673       2684       2683       2793       2794       2805       2804  
      2674       2675       2686       2685       2795       2796       2807       2806  
      2675       2676       2687       2686       2796       2797       2808       2807  
      2676       2677       2688       2687       2797       2798       2809       2808  
      2677       2678       2689       2688       2798       2799       2810       2809  
      2678       2679       2690       2689       2799       2800       2811       2810  
      2679       2680       2691       2690       2800       2801       2812       2811  
      2680       2681       2692       2691       2801       2802       2813       2812  
      2681       2682       2693       2692       2802       2803       2814       2813  
      2682       2683       2694       2693       2803       2804       2815       2814  
      2683       2684       2695       2694       2804       2805       2816       2815  
      2685       2686       2697       2696       2806       2807       2818       2817  
      2686       2687       2698       2697       2807       2808       2819       2818  
      2687       2688       2699       2698       2808       2809       2820       2819  
      2688       2689       2700       2699       2809       2810       2821       2820  
      2689       2690       2701       2700       2810       2811       2822       2821  
      2690       2691       2702       2701       2811       2812       2823       2822  
      2691       2692       2703       2702       2812       2813       2824       2823  
      2692       2693       2704       2703       2813       2814       2825       2824  
      2693       2694       2705       2704       2814       2815       2826       2825  
      2694       2695       2706       2705       2815       2816       2827       2826  
      2696       2697       2708       2707       2817       2818       2829       2828  
      2697       2698       2709       2708       2818       2819       2830       2829  
      2698       2699       2710       2709       2819       2820       2831       2830  
      2699       2700       2711       2710       2820       2821       2832       2831  
      2700       2701       2712       2711       2821       2822       2833       2832  
      2701       2702       2713       2712       2822       2823       2834       2833  
      2702       2703       2714       2713       2823       2824       2835       2834  
      2703       2704       2715       2714       2824       2825       2836       2835  
      2704       2705       2716       2715       2825       2826       2837       2836  
      2705       2706       2717       2716       2826       2827       2838       2837  
      2707       2708       2719       2718       2828       2829       2840       2839  
      2708       2709       2720       2719       2829       2830       2841       2840  
      2709       2710       2721       2720       2830       2831       2842       2841  
      2710       2711       2722       2721       2831       2832       2843       2842  
      2711       2712       2723       2722       2832       2833       2844       2843  
      2712       2713       2724       2723       2833       2834       2845       2844  
      2713       2714       2725       2724       2834       2835       2846       2845  
      2714       2715       2726       2725       2835       2836       2847       2846  
      2715       2716       2727       2726       2836       2837       2848       2847  
      2716       2717       2728       2727       2837       2838       2849       2848  
      2718       2719       2730       2729       2839       2840       2851       2850  
      2719       2720       2731       2730       2840       2841       2852       2851  
      2720       2721       2732       2731       2841       2842       2853       2852  
      2721       2722       2733       2732       2842       2843       2854       2853  
      2722       2723       2734       2733       2843       2844       2855       2854  
      2723       2724       2735       2734       2844       2845       2856       2855  
      2724       2725       2736       2735       2845       2846       2857       2856  
      2725       2726       2737       2736       2846       2847       2858       2857  
      2726       2727       2738       2737       2847       2848       2859       2858  
      2727       2728       2739       2738       2848       2849       2860       2859  
      2729       2730       2741       2740       2850       2851       2862       2861  
      2730       2731       2742       2741       2851       2852       2863       2862  
      2731       2732       2743       2742       2852       2853       2864       2863  
      2732       2733       2744       2743       2853       2854       2865       2864  
      2733       2734       2745       2744       2854       2855       2866       2865  
      2734       2735       2746       2745       2855       2856       2867       2866  
      2735       2736       2747       2746       2856       2857       2868       2867  
      2736       2737       2748       2747       2857       2858       2869       2868  
      2737       2738       2749       2748       2858       2859       2870       2869  
      2738       2739       2750       2749       2859       2860       2871       2870  
      2740       2741       2752       2751       2861       2862       2873       2872  
      2741       2742       2753       2752       2862       2863       2874       2873  
      2742       2743       2754       2753       2863       2864       2875       2874  
      2743       2744       2755       2754       2864       2865       2876       2875  
      2744       2745       2756       2755       2865       2866       2877       2876  
      2745       2746       2757       2756       2866       2867       2878       2877  
      2746       2747       2758       2757       2867       2868       2879       2878  
      2747       2748       2759       2758       2868       2869       2880       2879  
      2748       2749       2760       2759       2869       2870       2881       2880  
      2749       2750       2761       2760       2870       2871       2882       2881  
      2751       2752       2763       2762       2872       2873       2884       2883  
      2752       2753       2764       2763       2873       2874       2885       2884  
      2753       2754       2765       2764       2874       2875       2886       2885  
      2754       2755       2766       2765       2875       2876       2887       2886  
      2755       2756       2767       2766       2876       2877       2888       2887  
      2756       2757       2768       2767       2877       2878       2889       2888  
      2757       2758       2769       2768       2878       2879       2890       2889  
      2758       2759       2770       2769       2879       2880       2891       2890  
      2759       2760       2771       2770       2880       2881       2892       2891  
      2760       2761       2772       2771       2881       2882       2893       2892  
      2762       2763       2774       2773       2883       2884       2895       2894  
      2763       2764       2775       2774       2884       2885       2896       2895  
      2764       2765       2776       2775       2885       2886       2897       2896  
      2765       2766       2777       2776       2886       2887       2898       2897  
      2766       2767       2778       2777       2887       2888       2899       2898  
      2767       2768       2779       2778       2888       2889       2900       2899  
      2768       2769       2780       2779       2889       2890       2901       2900  
      2769       2770       2781       2780       2890       2891       2902       2901  
      2770       2771       2782       2781       2891       2892       2903       2902  
      2771       2772       2783       2782       2892       2893       2904       2903  
      2784       2785       2796       2795       2905       2906       2917       2916  
      2785       2786       2797       2796       2906       2907       2918       2917  
      2786       2787       2798       2797       2907       2908       2919       2918  
      2787       2788       2799       2798       2908       2909       2920       2919  
      2788       2789       2800       2799       2909       2910       2921       2920  
      2789       2790       2801       2800       2910       2911       2922       2921  
      2790       2791       2802       2801       2911       2912       2923       2922  
      2791       2792       2803       2802       2912       2913       2924       2923  
      2792       2793       2804       2803       2913       2914       2925       2924  
      2793       2794       2805       2804       2914       2915       2926       2925  
      2795       2796       2807       2806       2916       2917       2928       2927  
      2796       2797       2808       2807       2917       2918       2929       2928  
      2797       2798       2809       2808       2918       2919       2930       2929  
      2798       2799       2810       2809       2919       2920       2931       2930  
      2799       2800       2811       2810       2920       2921       2932       2931  
      2800       2801       2812       2811       2921       2922       2933       2932  
      2801       2802       2813       2812       2922       2923       2934       2933  
      2802       2803       2814       2813       2923       2924       2935       2934  
      2803       2804       2815       2814       2924       2925       2936       2935  
      2804       2805       2816       2815       2925       2926       2937       2936  
      2806       2807       2818       2817       2927       2928       2939       2938  
      2807       2808       2819       2818       2928       2929       2940       2939  
      2808       2809       2820       2819       2929       2930       2941       2940  
      2809       2810       2821       2820       2930       2931       2942       2941  
      2810       2811       2822       2821       2931       2932       2943       2942  
      2811       2812       2823       2822       2932       2933       2944       2943  
      2812       2813       2824       2823       2933       2934       2945       2944  
      2813       2814       2825       2824       2934       2935       2946       2945  
      2814       2815       2826       2825       2935       2936       2947       2946  
      2815       2816       2827       2826       2936       2937       2948       2947  
      2817       2818       2829       2828       2938       2939       2950       2949  
      2818       2819       2830       2829       2939       2940       2951       2950  
      2819       2820       2831       2830       2940       2941       2952       2951  
      2820       2821       2832       2831       2941       2942       2953       2952  
      2821       2822       2833       2832       2942       2943       2954       2953  
      2822       2823       2834       2833       2943       2944       2955       2954  
      2823       2824       2835       2834       2944       2945       2956       2955  
      2824       2825       2836       2835       2945       2946       2957       2956  
      2825       2826       2837       2836       2946       2947       2958       2957  
      2826       2827       2838       2837       2947       2948       2959       2958  
      2828       2829       2840       2839       2949       2950       2961       2960  
      2829       2830       2841       2840       2950       2951       2962       2961  
      2830       2831       2842       2841       2951       2952       2963       2962  
      2831       2832       2843       2842       2952       2953       2964       2963  
      2832       2833       2844       2843       2953       2954       2965       2964  
      2833       2834       2845       2844       2954       2955       2966       2965  
      2834       2835       2846       2845       2955       2956       2967       2966  
      2835       2836       2847       2846       2956       2957       2968       2967  
      2836       2837       2848       2847       2957       2958       2969       2968  
      2837       2838       2849       2848       2958       2959       2970       2969  
      2839       2840       2851       2850       2960       2961       2972       2971  
      2840       2841       2852       2851       2961       2962       2973       2972  
      2841       2842       2853       2852       2962       2963       2974       2973  
      2842       2843       2854       2853       2963       2964       2975       2974  
      2843       2844       2855       2854       2964       2965       2976       2975  
      2844       2845       2856       2855       2965       2966       2977       2976  
      2845       2846       2857       2856       2966       2967       2978       2977  
      2846       2847       2858       2857       2967       2968       2979       2978  
      2847       2848       2859       2858       2968       2969       2980       2979  
      2848       2849       2860       2859       2969       2970       2981       2980  
      2850       2851       2862       2861       2971       2972       2983       2982  
      2851       2852       2863       2862       2972       2973       2984       2983  
      2852       2853       2864       2863       2973       2974       2985       2984  
      2853       2854       2865       2864       2974       2975       2986       2985  
      2854       2855       2866       2865       2975       2976       2987       2986  
      2855       2856       2867       2866       2976       2977       2988       2987  
      2856       2857       2868       2867       2977       2978       2989       2988  
      2857       2858       2869       2868       2978       2979       2990       2989  
      2858       2859       2870       2869       2979       2980       2991       2990  
      2859       2860       2871       2870       2980       2981       2992       2991  
      2861       2862       2873       2872       2982       2983       2994       2993  
      2862       2863       2874       2873       2983       2984       2995       2994  
      2863       2864       2875       2874       2984       2985       2996       2995  
      2864       2865       2876       2875       2985       2986       2997       2996  
      2865       2866       2877       2876       2986       2987       2998       2997  
      2866       2867       2878       2877       2987       2988       2999       2998  
      2867       2868       2879       2878       2988       2989       3000       2999  
      2868       2869       2880       2879       2989       2990       3001       3000  
      2869       2870       2881       2880       2990       2991       3002       3001  
      2870       2871       2882       2881       2991       2992       3003       3002  
      2872       2873       2884       2883       2993       2994       3005       3004  
      2873       2874       2885       2884       2994       2995       3006       3005  
      2874       2875       2886       2885       2995       2996       3007       3006  
      2875       2876       2887       2886       2996       2997       3008       3007  
      2876       2877       2888       2887       2997       2998       3009       3008  
      2877       2878       2889       2888       2998       2999       3010       3009  
      2878       2879       2890       2889       2999       3000       3011       3010  
      2879       2880       2891       2890       3000       3001       3012       3011  
      2880       2881       2892       2891       3001       3002       3013       3012  
      2881       2882       2893       2892       3002       3003       3014       3013  
      2883       2884       2895       2894       3004       3005       3016       3015  
      2884       2885       2896       2895       3005       3006       3017       3016  
      2885       2886       2897       2896       3006       3007       3018       3017  
      2886       2887       2898       2897       3007       3008       3019       3018  
      2887       2888       2899       2898       3008       3009       3020       3019  
      2888       2889       2900       2899       3009       3010       3021       3020  
      2889       2890       2901       2900       3010       3011       3022       3021  
      2890       2891       2902       2901       3011       3012       3023       3022  
      2891       2892       2903       2902       3012       3013       3024       3023  
      2892       2893       2904       2903       3013       3014       3025       3024  
      2905       2906       2917       2916       3026       3027       3038       3037  
      2906       2907       2918       2917       3027       3028       3039       3038  
      2907       2908       2919       2918       3028       3029       3040       3039  
      2908       2909       2920       2919       3029       3030       3041       3040  
      2909       2910       2921       2920       3030       3031       3042       3041  
      2910       2911       2922       2921       3031       3032       3043       3042  
      2911       2912       2923       2922       3032       3033       3044       3043  
      2912       2913       2924       2923       3033       3034       3045       3044  
      2913       2914       2925       2924       3034       3035       3046       3045  
      2914       2915       2926       2925       3035       3036       3047       3046  
      2916       2917       2928       2927       3037       3038       3049       3048  
      2917       2918       2929       2928       3038       3039       3050       3049  
      2918       2919       2930       2929       3039       3040       3051       3050  
      2919       2920       2931       2930       3040       3041       3052       3051  
      2920       2921       2932       2931       3041       3042       3053       3052  
      2921       2922       2933       2932       3042       3043       3054       3053  
      2922       2923       2934       2933       3043       3044       3055       3054  
      2923       2924       2935       2934       3044       3045       3056       3055  
      2924       2925       2936       2935       3045       3046       3057       3056  
      2925       2926       2937       2936       3046       3047       3058       3057  
      2927       2928       2939       2938       3048       3049       3060       3059  
      2928       2929       2940       2939       3049       3050       3061       3060  
      2929       2930       2941       2940       3050       3051       3062       3061  
      2930       2931       2942       2941       3051       3052       3063       3062  
      2931       2932       2943       2942       3052       3053       3064       3063  
      2932       2933       2944       2943       3053       3054       3065       3064  
      2933       2934       2945       2944       3054       3055       3066       3065  
      2934       2935       2946       2945       3055       3056       3067       3066  
      2935       2936       2947       2946       3056       3057       3068       3067  
      2936       2937       2948       2947       3057       3058       3069       3068  
      2938       2939       2950       2949       3059       3060       3071       3070  
      2939       2940       2951       2950       3060       3061       3072       3071  
      2940       2941       2952       2951       3061       3062       3073       3072  
      2941       2942       2953       2952       3062       3063       3074       3073  
      2942       2943       2954       2953       3063       3064       3075       3074  
      2943       2944       2955       2954       3064       3065       3076       3075  
      2944       2945       2956       2955       3065       3066       3077       3076  
      2945       2946       2957       2956       3066       3067       3078       3077  
      2946       2947       2958       2957       3067       3068       3079       3078  
      2947       2948       2959       2958       3068       3069       3080       3079  
      2949       2950       2961       2960       3070       3071       3082       3081  
      2950       2951       2962       2961       3071       3072       3083       3082  
      2951       2952       2963       2962       3072       3073       3084       3083  
      2952       2953       2964       2963       3073       3074       3085       3084  
      2953       2954       2965       2964       3074       3075       3086       3085  
      2954       2955       2966       2965       3075       3076       3087       3086  
      2955       2956       2967       2966       3076       3077       3088       3087  
      2956       2957       2968       2967       3077       3078       3089       3088  
      2957       2958       2969       2968       3078       3079       3090       3089  
      2958       2959       2970       2969       3079       3080       3091       3090  
      2960       2961       2972       2971       3081       3082       3093       3092  
      2961       2962       2973       2972       3082       3083       3094       3093  
      2962       2963       2974       2973       3083       3084       3095       3094  
      2963       2964       2975       2974       3084       3085       3096       3095  
      2964       2965       2976       2975       3085       3086       3097       3096  
      2965       2966       2977       2976       3086       3087       3098       3097  
      2966       2967       2978       2977       3087       3088       3099       3098  
      2967       2968       2979       2978       3088       3089       3100       3099  
      2968       2969       2980       2979       3089       3090       3101       3100  
      2969       2970       2981       2980       3090       3091       3102       3101  
      2971       2972       2983       2982       3092       3093       3104       3103  
      2972       2973       2984       2983       3093       3094       3105       3104  
      2973       2974       2985       2984       3094       3095       3106       3105  
      2974       2975       2986       2985       3095       3096       3107       3106  
      2975       2976       2987       2986       3096       3097       3108       3107  
      2976       2977       2988       2987       3097       3098       3109       3108  
      2977       2978       2989       2988       3098       3099       3110       3109  
      2978       2979       2990       2989       3099       3100       3111       3110  
      2979       2980       2991       2990       3100       3101       3112       3111  
      2980       2981       2992       2991       3101       3102       3113       3112  
      2982       2983       2994       2993       3103       3104       3115       3114  
      2983       2984       2995       2994       3104       3105       3116       3115  
      2984       2985       2996       2995       3105       3106       3117       3116  
      2985       2986       2997       2996       3106       3107       3118       3117  
      2986       2987       2998       2997       3107       3108       3119       3118  
      2987       2988       2999       2998       3108       3109       3120       3119  
      2988       2989       3000       2999       3109       3110       3121       3120  
      2989       2990       3001       3000       3110       3111       3122       3121  
      2990       2991       3002       3001       3111       3112       3123       3122  
      2991       2992       3003       3002       3112       3113       3124       3123  
      2993       2994       3005       3004       3114       3115       3126       3125  
      2994       2995       3006       3005       3115       3116       3127       3126  
      2995       2996       3007       3006       3116       3117       3128       3127  
      2996       2997       3008       3007       3117       3118       3129       3128  
      2997       2998       3009       3008       3118       3119       3130       3129  
      2998       2999       3010       3009       3119       3120       3131       3130  
      2999       3000       3011       3010       3120       3121       3132       3131  
      3000       3001       3012       3011       3121       3122       3133       3132  
      3001       3002       3013       3012       3122       3123       3134       3133  
      3002       3003       3014       3013       3123       3124       3135       3134  
      3004       3005       3016       3015       3125       3126       3137       3136  
      3005       3006       3017       3016       3126       3127       3138       3137  
      3006       3007       3018       3017       3127       3128       3139       3138  
      3007       3008       3019       3018       3128       3129       3140       3139  
      3008       3009       3020       3019       3129       3130       3141       3140  
      3009       3010       3021       3020       3130       3131       3142       3141  
      3010       3011       3022       3021       3131       3132       3143       3142  
      3011       3012       3023       3022       3132       3133       3144       3143  
      3012       3013       3024       3023       3133       3134       3145       3144  
      3013       3014       3025       3024       3134       3135       3146       3145  
      3026       3027       3038       3037       3147       3148       3159       3158  
      3027       3028       3039       3038       3148       3149       3160       3159  
      3028       3029       3040       3039       3149       3150       3161       3160  
      3029       3030       3041       3040       3150       3151       3162       3161  
      3030       3031       3042       3041       3151       3152       3163       3162  
      3031       3032       3043       3042       3152       3153       3164       3163  
      3032       3033       3044       3043       3153       3154       3165       3164  
      3033       3034       3045       3044       3154       3155       3166       3165  
      3034       3035       3046       3045       3155       3156       3167       3166  
      3035       3036       3047       3046       3156       3157       3168       3167  
      3037       3038       3049       3048       3158       3159       3170       3169  
      3038       3039       3050       3049       3159       3160       3171       3170  
      3039       3040       3051       3050       3160       3161       3172       3171  
      3040       3041       3052       3051       3161       3162       3173       3172  
      3041       3042       3053       3052       3162       3163       3174       3173  
      3042       3043       3054       3053       3163       3164       3175       3174  
      3043       3044       3055       3054       3164       3165       3176       3175  
      3044       3045       3056       3055       3165       3166       3177       3176  
      3045       3046       3057       3056       3166       3167       3178       3177  
      3046       3047       3058       3057       3167       3168       3179       3178  
      3048       3049       3060       3059       3169       3170       3181       3180  
      3049       3050       3061       3060       3170       3171       3182       3181  
      3050       3051       3062       3061       3171       3172       3183       3182  
      3051       3052       3063       3062       3172       3173       3184       3183  
      3052       3053       3064       3063       3173       3174       3185       3184  
      3053       3054       3065       3064       3174       3175       3186       3185  
      3054       3055       3066       3065       3175       3176       3187       3186  
      3055       3056       3067       3066       3176       3177       3188       3187  
      3056       3057       3068       3067       3177       3178       3189       3188  
      3057       3058       3069       3068       3178       3179       3190       3189  
      3059       3060       3071       3070       3180       3181       3192       3191  
      3060       3061       3072       3071       3181       3182       3193       3192  
      3061       3062       3073       3072       3182       3183       3194       3193  
      3062       3063       3074       3073       3183       3184       3195       3194  
      3063       3064       3075       3074       3184       3185       3196       3195  
      3064       3065       3076       3075       3185       3186       3197       3196  
      3065       3066       3077       3076       3186       3187       3198       3197  
      3066       3067       3078       3077       3187       3188       3199       3198  
      3067       3068       3079       3078       3188       3189       3200       3199  
      3068       3069       3080       3079       3189       3190       3201       3200  
      3070       3071       3082       3081       3191       3192       3203       3202  
      3071       3072       3083       3082       3192       3193       3204       3203  
      3072       3073       3084       3083       3193       3194       3205       3204  
      3073       3074       3085       3084       3194       3195       3206       3205  
      3074       3075       3086       3085       3195       3196       3207       3206  
      3075       3076       3087       3086       3196       3197       3208       3207  
      3076       3077       3088       3087       3197       3198       3209       3208  
      3077       3078       3089       3088       3198       3199       3210       3209  
      3078       3079       3090       3089       3199       3200       3211       3210  
      3079       3080       3091       3090       3200       3201       3212       3211  
      3081       3082       3093       3092       3202       3203       3214       3213  
      3082       3083       3094       3093       3203       3204       3215       3214  
      3083       3084       3095       3094       3204       3205       3216       3215  
      3084       3085       3096       3095       3205       3206       3217       3216  
      3085       3086       3097       3096       3206       3207       3218       3217  
      3086       3087       3098       3097       3207       3208       3219       3218  
      3087       3088       3099       3098       3208       3209       3220       3219  
      3088       3089       3100       3099       3209       3210       3221       3220  
      3089       3090       3101       3100       3210       3211       3222       3221  
      3090       3091       3102       3101       3211       3212       3223       3222  
      3092       3093       3104       3103       3213       3214       3225       3224  
      3093       3094       3105       3104       3214       3215       3226       3225  
      3094       3095       3106       3105       3215       3216       3227       3226  
      3095       3096       3107       3106       3216       3217       3228       3227  
      3096       3097       3108       3107       3217       3218       3229       3228  
      3097       3098       3109       3108       3218       3219       3230       3229  
      3098       3099       3110       3109       3219       3220       3231       3230  
      3099       3100       3111       3110       3220       3221       3232       3231  
      3100       3101       3112       3111       3221       3222       3233       3232  
      3101       3102       3113       3112       3222       3223       3234       3233  
      3103       3104       3115       3114       3224       3225       3236       3235  
      3104       3105       3116       3115       3225       3226       3237       3236  
      3105       3106       3117       3116       3226       3227       3238       3237  
      3106       3107       3118       3117       3227       3228       3239       3238  
      3107       3108       3119       3118       3228       3229       3240       3239  
      3108       3109       3120       3119       3229       3230       3241       3240  
      3109       3110       3121       3120       3230       3231       3242       3241  
      3110       3111       3122       3121       3231       3232       3243       3242  
      3111       3112       3123       3122       3232       3233       3244       3243  
      3112       3113       3124       3123       3233       3234       3245       3244  
      3114       3115       3126       3125       3235       3236       3247       3246  
      3115       3116       3127       3126       3236       3237       3248       3247  
      3116       3117       3128       3127       3237       3238       3249       3248  
      3117       3118       3129       3128       3238       3239       3250       3249  
      3118       3119       3130       3129       3239       3240       3251       3250  
      3119       3120       3131       3130       3240       3241       3252       3251  
      3120       3121       3132       3131       3241       3242       3253       3252  
      3121       3122       3133       3132       3242       3243       3254       3253  
      3122       3123       3134       3133       3243       3244       3255       3254  
      3123       3124       3135       3134       3244       3245       3256       3255  
      3125       3126       3137       3136       3246       3247       3258       3257  
      3126       3127       3138       3137       3247       3248       3259       3258  
      3127       3128       3139       3138       3248       3249       3260       3259  
      3128       3129       3140       3139       3249       3250       3261       3260  
      3129       3130       3141       3140       3250       3251       3262       3261  
      3130       3131       3142       3141       3251       3252       3263       3262  
      3131       3132       3143       3142       3252       3253       3264       3263  
      3132       3133       3144       3143       3253       3254       3265       3264  
      3133       3134       3145       3144       3254       3255       3266       3265  
      3134       3135       3146       3145       3255       3256       3267       3266  
      3147       3148       3159       3158       3268       3269       3280       3279  
      3148       3149       3160       3159       3269       3270       3281       3280  
      3149       3150       3161       3160       3270       3271       3282       3281  
      3150       3151       3162       3161       3271       3272       3283       3282  
      3151       3152       3163       3162       3272       3273       3284       3283  
      3152       3153       3164       3163       3273       3274       3285       3284  
      3153       3154       3165       3164       3274       3275       3286       3285  
      3154       3155       3166       3165       3275       3276       3287       3286  
      3155       3156       3167       3166       3276       3277       3288       3287  
      3156       3157       3168       3167       3277       3278       3289       3288  
      3158       3159       3170       3169       3279       3280       3291       3290  
      3159       3160       3171       3170       3280       3281       3292       3291  
      3160       3161       3172       3171       3281       3282       3293       3292  
      3161       3162       3173       3172       3282       3283       3294       3293  
      3162       3163       3174       3173       3283       3284       3295       3294  
      3163       3164       3175       3174       3284       3285       3296       3295  
      3164       3165       3176       3175       3285       3286       3297       3296  
      3165       3166       3177       3176       3286       3287       3298       3297  
      3166       3167       3178       3177       3287       3288       3299       3298  
      3167       3168       3179       3178       3288       3289       3300       3299  
      3169       3170       3181       3180       3290       3291       3302       3301  
      3170       3171       3182       3181       3291       3292       3303       3302  
      3171       3172       3183       3182       3292       3293       3304       3303  
      3172       3173       3184       3183       3293       3294       3305       3304  
      3173       3174       3185       3184       3294       3295       3306       3305  
      3174       3175       3186       3185       3295       3296       3307       3306  
      3175       3176       3187       3186       3296       3297       3308       3307  
      3176       3177       3188       3187       3297       3298       3309       3308  
      3177       3178       3189       3188       3298       3299       3310       3309  
      3178       3179       3190       3189       3299       3300       3311       3310  
      3180       3181       3192       3191       3301       3302       3313       3312  
      3181       3182       3193       3192       3302       3303       3314       3313  
      3182       3183       3194       3193       3303       3304       3315       3314  
      3183       3184       3195       3194       3304       3305       3316       3315  
      3184       3185       3196       3195       3305       3306       3317       3316  
      3185       3186       3197       3196       3306       3307       3318       3317  
      3186       3187       3198       3197       3307       3308       3319       3318  
      3187       3188       3199       3198       3308       3309       3320       3319  
      3188       3189       3200       3199       3309       3310       3321       3320  
      3189       3190       3201       3200       3310       3311       3322       3321  
      3191       3192       3203       3202       3312       3313       3324       3323  
      3192       3193       3204       3203       3313       3314       3325       3324  
      3193       3194       3205       3204       3314       3315       3326       3325  
      3194       3195       3206       3205       3315       3316       3327       3326  
      3195       3196       3207       3206       3316       3317       3328       3327  
      3196       3197       3208       3207       3317       3318       3329       3328  
      3197       3198       3209       3208       3318       3319       3330       3329  
      3198       3199       3210       3209       3319       3320       3331       3330  
      3199       3200       3211       3210       3320       3321       3332       3331  
      3200       3201       3212       3211       3321       3322       3333       3332  
      3202       3203       3214       3213       3323       3324       3335       3334  
      3203       3204       3215       3214       3324       3325       3336       3335  
      3204       3205       3216       3215       3325       3326       3337       3336  
      3205       3206       3217       3216       3326       3327       3338       3337  
      3206       3207       3218       3217       3327       3328       3339       3338  
      3207       3208       3219       3218       3328       3329       3340       3339  
      3208       3209       3220       3219       3329       3330       3341       3340  
      3209       3210       3221       3220       3330       3331       3342       3341  
      3210       3211       3222       3221       3331       3332       3343       3342  
      3211       3212       3223       3222       3332       3333       3344       3343  
      3213       3214       3225       3224       3334       3335       3346       3345  
      3214       3215       3226       3225       3335       3336       3347       3346  
      3215       3216       3227       3226       3336       3337       3348       3347  
      3216       3217       3228       3227       3337       3338       3349       3348  
      3217       3218       3229       3228       3338       3339       3350       3349  
      3218       3219       3230       3229       3339       3340       3351       3350  
      3219       3220       3231       3230       3340       3341       3352       3351  
      3220       3221       3232       3231       3341       3342       3353       3352  
      3221       3222       3233       3232       3342       3343       3354       3353  
      3222       3223       3234       3233       3343       3344       3355       3354  
      3224       3225       3236       3235       3345       3346       3357       3356  
      3225       3226       3237       3236       3346       3347       3358       3357  
      3226       3227       3238       3237       3347       3348       3359       3358  
      3227       3228       3239       3238       3348       3349       3360       3359  
      3228       3229       3240       3239       3349       3350       3361       3360  
      3229       3230       3241       3240       3350       3351       3362       3361  
      3230       3231       3242       3241       3351       3352       3363       3362  
      3231       3232       3243       3242       3352       3353       3364       3363  
      3232       3233       3244       3243       3353       3354       3365       3364  
      3233       3234       3245       3244       3354       3355       3366       3365  
      3235       3236       3247       3246       3356       3357       3368       3367  
      3236       3237       3248       3247       3357       3358       3369       3368  
      3237       3238       3249       3248       3358       3359       3370       3369  
      3238       3239       3250       3249       3359       3360       3371       3370  
      3239       3240       3251       3250       3360       3361       3372       3371  
      3240       3241       3252       3251       3361       3362       3373       3372  
      3241       3242       3253       3252       3362       3363       3374       3373  
      3242       3243       3254       3253       3363       3364       3375       3374  
      3243       3244       3255       3254       3364       3365       3376       3375  
      3244       3245       3256       3255       3365       3366       3377       3376  
      3246       3247       3258       3257       3367       3368       3379       3378  
      3247       3248       3259       3258       3368       3369       3380       3379  
      3248       3249       3260       3259       3369       3370       3381       3380  
      3249       3250       3261       3260       3370       3371       3382       3381  
      3250       3251       3262       3261       3371       3372       3383       3382  
      3251       3252       3263       3262       3372       3373       3384       3383  
      3252       3253       3264       3263       3373       3374       3385       3384  
      3253       3254       3265       3264       3374       3375       3386       3385  
      3254       3255       3266       3265       3375       3376       3387       3386  
      3255       3256       3267       3266       3376       3377       3388       3387  
      3268       3269       3280       3279       3389       3390       3401       3400  
      3269       3270       3281       3280       3390       3391       3402       3401  
      3270       3271       3282       3281       3391       3392       3403       3402  
      3271       3272       3283       3282       3392       3393       3404       3403  
      3272       3273       3284       3283       3393       3394       3405       3404  
      3273       3274       3285       3284       3394       3395       3406       3405  
      3274       3275       3286       3285       3395       3396       3407       3406  
      3275       3276       3287       3286       3396       3397       3408       3407  
      3276       3277       3288       3287       3397       3398       3409       3408  
      3277       3278       3289       3288       3398       3399       3410       3409  
      3279       3280       3291       3290       3400       3401       3412       3411  
      3280       3281       3292       3291       3401       3402       3413       3412  
      3281       3282       3293       3292       3402       3403       3414       3413  
      3282       3283       3294       3293       3403       3404       3415       3414  
      3283       3284       3295       3294       3404       3405       3416       3415  
      3284       3285       3296       3295       3405       3406       3417       3416  
      3285       3286       3297       3296       3406       3407       3418       3417  
      3286       3287       3298       3297       3407       3408       3419       3418  
      3287       3288       3299       3298       3408       3409       3420       3419  
      3288       3289       3300       3299       3409       3410       3421       3420  
      3290       3291       3302       3301       3411       3412       3423       3422  
      3291       3292       3303       3302       3412       3413       3424       3423  
      3292       3293       3304       3303       3413       3414       3425       3424  
      3293       3294       3305       3304       3414       3415       3426       3425  
      3294       3295       3306       3305       3415       3416       3427       3426  
      3295       3296       3307       3306       3416       3417       3428       3427  
      3296       3297       3308       3307       3417       3418       3429       3428  
      3297       3298       3309       3308       3418       3419       3430       3429  
      3298       3299       3310       3309       3419       3420       3431       3430  
      3299       3300       3311       3310       3420       3421       3432       3431  
      3301       3302       3313       3312       3422       3423       3434       3433  
      3302       3303       3314       3313       3423       3424       3435       3434  
      3303       3304       3315       3314       3424       3425       3436       3435  
      3304       3305       3316       3315       3425       3426       3437       3436  
      3305       3306       3317       3316       3426       3427       3438       3437  
      3306       3307       3318       3317       3427       3428       3439       3438  
      3307       3308       3319       3318       3428       3429       3440       3439  
      3308       3309       3320       3319       3429       3430       3441       3440  
      3309       3310       3321       3320       3430       3431       3442       3441  
      3310       3311       3322       3321       3431       3432       3443       3442  
      3312       3313       3324       3323       3433       3434       3445       3444  
      3313       3314       3325       3324       3434       3435       3446       3445  
      3314       3315       3326       3325       3435       3436       3447       3446  
      3315       3316       3327       3326       3436       3437       3448       3447  
      3316       3317       3328       3327       3437       3438       3449       3448  
      3317       3318       3329       3328       3438       3439       3450       3449  
      3318       3319       3330       3329       3439       3440       3451       3450  
      3319       3320       3331       3330       3440       3441       3452       3451  
      3320       3321       3332       3331       3441       3442       3453       3452  
      3321       3322       3333       3332       3442       3443       3454       3453  
      3323       3324       3335       3334       3444       3445       3456       3455  
      3324       3325       3336       3335       3445       3446       3457       3456  
      3325       3326       3337       3336       3446       3447       3458       3457  
      3326       3327       3338       3337       3447       3448       3459       3458  
      3327       3328       3339       3338       3448       3449       3460       3459  
      3328       3329       3340       3339       3449       3450       3461       3460  
      3329       3330       3341       3340       3450       3451       3462       3461  
      3330       3331       3342       3341       3451       3452       3463       3462  
      3331       3332       3343       3342       3452       3453       3464       3463  
      3332       3333       3344       3343       3453       3454       3465       3464  
      3334       3335       3346       3345       3455       3456       3467       3466  
      3335       3336       3347       3346       3456       3457       3468       3467  
      3336       3337       3348       3347       3457       3458       3469       3468  
      3337       3338       3349       3348       3458       3459       3470       3469  
      3338       3339       3350       3349       3459       3460       3471       3470  
      3339       3340       3351       3350       3460       3461       3472       3471  
      3340       3341       3352       3351       3461       3462       3473       3472  
      3341       3342       3353       3352       3462       3463       3474       3473  
      3342       3343       3354       3353       3463       3464       3475       3474  
      3343       3344       3355       3354       3464       3465       3476       3475  
      3345       3346       3357       3356       3466       3467       3478       3477  
      3346       3347       3358       3357       3467       3468       3479       3478  
      3347       3348       3359       3358       3468       3469       3480       3479  
      3348       3349       3360       3359       3469       3470       3481       3480  
      3349       3350       3361       3360       3470       3471       3482       3481  
      3350       3351       3362       3361       3471       3472       3483       3482  
      3351       3352       3363       3362       3472       3473       3484       3483  
      3352       3353       3364       3363       3473       3474       3485       3484  
      3353       3354       3365       3364       3474       3475       3486       3485  
      3354       3355       3366       3365       3475       3476       3487       3486  
      3356       3357       3368       3367       3477       3478       3489       3488  
      3357       3358       3369       3368       3478       3479       3490       3489  
      3358       3359       3370       3369       3479       3480       3491       3490  
      3359       3360       3371       3370       3480       3481       3492       3491  
      3360       3361       3372       3371       3481       3482       3493       3492  
      3361       3362       3373       3372       3482       3483       3494       3493  
      3362       3363       3374       3373       3483       3484       3495       3494  
      3363       3364       3375       3374       3484       3485       3496       3495  
      3364       3365       3376       3375       3485       3486       3497       3496  
      3365       3366       3377       3376       3486       3487       3498       3497  
      3367       3368       3379       3378       3488       3489       3500       3499  
      3368       3369       3380       3379       3489       3490       3501       3500  
      3369       3370       3381       3380       3490       3491       3502       3501  
      3370       3371       3382       3381       3491       3492       3503       3502  
      3371       3372       3383       3382       3492       3493       3504       3503  
      3372       3373       3384       3383       3493       3494       3505       3504  
      3373       3374       3385       3384       3494       3495       3506       3505  
      3374       3375       3386       3385       3495       3496       3507       3506  
      3375       3376       3387       3386       3496       3497       3508       3507  
      3376       3377       3388       3387       3497       3498       3509       3508  
      3389       3390       3401       3400       3510       3511       3522       3521  
      3390       3391       3402       3401       3511       3512       3523       3522  
      3391       3392       3403       3402       3512       3513       3524       3523  
      3392       3393       3404       3403       3513       3514       3525       3524  
      3393       3394       3405       3404       3514       3515       3526       3525  
      3394       3395       3406       3405       3515       3516       3527       3526  
      3395       3396       3407       3406       3516       3517       3528       3527  
      3396       3397       3408       3407       3517       3518       3529       3528  
      3397       3398       3409       3408       3518       3519       3530       3529  
      3398       3399       3410       3409       3519       3520       3531       3530  
      3400       3401       3412       3411       3521       3522       3533       3532  
      3401       3402       3413       3412       3522       3523       3534       3533  
      3402       3403       3414       3413       3523       3524       3535       3534  
      3403       3404       3415       3414       3524       3525       3536       3535  
      3404       3405       3416       3415       3525       3526       3537       3536  
      3405       3406       3417       3416       3526       3527       3538       3537  
      3406       3407       3418       3417       3527       3528       3539       3538  
      3407       3408       3419       3418       3528       3529       3540       3539  
      3408       3409       3420       3419       3529       3530       3541       3540  
      3409       3410       3421       3420       3530       3531       3542       3541  
      3411       3412       3423       3422       3532       3533       3544       3543  
      3412       3413       3424       3423       3533       3534       3545       3544  
      3413       3414       3425       3424       3534       3535       3546       3545  
      3414       3415       3426       3425       3535       3536       3547       3546  
      3415       3416       3427       3426       3536       3537       3548       3547  
      3416       3417       3428       3427       3537       3538       3549       3548  
      3417       3418       3429       3428       3538       3539       3550       3549  
      3418       3419       3430       3429       3539       3540       3551       3550  
      3419       3420       3431       3430       3540       3541       3552       3551  
      3420       3421       3432       3431       3541       3542       3553       3552  
      3422       3423       3434       3433       3543       3544       3555       3554  
      3423       3424       3435       3434       3544       3545       3556       3555  
      3424       3425       3436       3435       3545       3546       3557       3556  
      3425       3426       3437       3436       3546       3547       3558       3557  
      3426       3427       3438       3437       3547       3548       3559       3558  
      3427       3428       3439       3438       3548       3549       3560       3559  
      3428       3429       3440       3439       3549       3550       3561       3560  
      3429       3430       3441       3440       3550       3551       3562       3561  
      3430       3431       3442       3441       3551       3552       3563       3562  
      3431       3432       3443       3442       3552       3553       3564       3563  
      3433       3434       3445       3444       3554       3555       3566       3565  
      3434       3435       3446       3445       3555       3556       3567       3566  
      3435       3436       3447       3446       3556       3557       3568       3567  
      3436       3437       3448       3447       3557       3558       3569       3568  
      3437       3438       3449       3448       3558       3559       3570       3569  
      3438       3439       3450       3449       3559       3560       3571       3570  
      3439       3440       3451       3450       3560       3561       3572       3571  
      3440       3441       3452       3451       3561       3562       3573       3572  
      3441       3442       3453       3452       3562       3563       3574       3573  
      3442       3443       3454       3453       3563       3564       3575       3574  
      3444       3445       3456       3455       3565       3566       3577       3576  
      3445       3446       3457       3456       3566       3567       3578       3577  
      3446       3447       3458       3457       3567       3568       3579       3578  
      3447       3448       3459       3458       3568       3569       3580       3579  
      3448       3449       3460       3459       3569       3570       3581       3580  
      3449       3450       3461       3460       3570       3571       3582       3581  
      3450       3451       3462       3461       3571       3572       3583       3582  
      3451       3452       3463       3462       3572       3573       3584       3583  
      3452       3453       3464       3463       3573       3574       3585       3584  
      3453       3454       3465       3464       3574       3575       3586       3585  
      3455       3456       3467       3466       3576       3577       3588       3587  
      3456       3457       3468       3467       3577       3578       3589       3588  
      3457       3458       3469       3468       3578       3579       3590       3589  
      3458       3459       3470       3469       3579       3580       3591       3590  
      3459       3460       3471       3470       3580       3581       3592       3591  
      3460       3461       3472       3471       3581       3582       3593       3592  
      3461       3462       3473       3472       3582       3583       3594       3593  
      3462       3463       3474       3473       3583       3584       3595       3594  
      3463       3464       3475       3474       3584       3585       3596       3595  
      3464       3465       3476       3475       3585       3586       3597       3596  
      3466       3467       3478       3477       3587       3588       3599       3598  
      3467       3468       3479       3478       3588       3589       3600       3599  
      3468       3469       3480       3479       3589       3590       3601       3600  
      3469       3470       3481       3480       3590       3591       3602       3601  
      3470       3471       3482       3481       3591       3592       3603       3602  
      3471       3472       3483       3482       3592       3593       3604       3603  
      3472       3473       3484       3483       3593       3594       3605       3604  
      3473       3474       3485       3484       3594       3595       3606       3605  
      3474       3475       3486       3485       3595       3596       3607       3606  
      3475       3476       3487       3486       3596       3597       3608       3607  
      3477       3478       3489       3488       3598       3599       3610       3609  
      3478       3479       3490       3489       3599       3600       3611       3610  
      3479       3480       3491       3490       3600       3601       3612       3611  
      3480       3481       3492       3491       3601       3602       3613       3612  
      3481       3482       3493       3492       3602       3603       3614       3613  
      3482       3483       3494       3493       3603       3604       3615       3614  
      3483       3484       3495       3494       3604       3605       3616       3615  
      3484       3485       3496       3495       3605       3606       3617       3616  
      3485       3486       3497       3496       3606       3607       3618       3617  
      3486       3487       3498       3497       3607       3608       3619       3618  
      3488       3489       3500       3499       3609       3610       3621       3620  
      3489       3490       3501       3500       3610       3611       3622       3621  
      3490       3491       3502       3501       3611       3612       3623       3622  
      3491       3492       3503       3502       3612       3613       3624       3623  
      3492       3493       3504       3503       3613       3614       3625       3624  
      3493       3494       3505       3504       3614       3615       3626       3625  
      3494       3495       3506       3505       3615       3616       3627       3626  
      3495       3496       3507       3506       3616       3617       3628       3627  
      3496       3497       3508       3507       3617       3618       3629       3628  
      3497       3498       3509       3508       3618       3619       3630       3629  
      3510       3511       3522       3521       3631       3632       3643       3642  
      3511       3512       3523       3522       3632       3633       3644       3643  
      3512       3513       3524       3523       3633       3634       3645       3644  
      3513       3514       3525       3524       3634       3635       3646       3645  
      3514       3515       3526       3525       3635       3636       3647       3646  
      3515       3516       3527       3526       3636       3637       3648       3647  
      3516       3517       3528       3527       3637       3638       3649       3648  
      3517       3518       3529       3528       3638       3639       3650       3649  
      3518       3519       3530       3529       3639       3640       3651       3650  
      3519       3520       3531       3530       3640       3641       3652       3651  
      3521       3522       3533       3532       3642       3643       3654       3653  
      3522       3523       3534       3533       3643       3644       3655       3654  
      3523       3524       3535       3534       3644       3645       3656       3655  
      3524       3525       3536       3535       3645       3646       3657       3656  
      3525       3526       3537       3536       3646       3647       3658       3657  
      3526       3527       3538       3537       3647       3648       3659       3658  
      3527       3528       3539       3538       3648       3649       3660       3659  
      3528       3529       3540       3539       3649       3650       3661       3660  
      3529       3530       3541       3540       3650       3651       3662       3661  
      3530       3531       3542       3541       3651       3652       3663       3662  
      3532       3533       3544       3543       3653       3654       3665       3664  
      3533       3534       3545       3544       3654       3655       3666       3665  
      3534       3535       3546       3545       3655       3656       3667       3666  
      3535       3536       3547       3546       3656       3657       3668       3667  
      3536       3537       3548       3547       3657       3658       3669       3668  
      3537       3538       3549       3548       3658       3659       3670       3669  
      3538       3539       3550       3549       3659       3660       3671       3670  
      3539       3540       3551       3550       3660       3661       3672       3671  
      3540       3541       3552       3551       3661       3662       3673       3672  
      3541       3542       3553       3552       3662       3663       3674       3673  
      3543       3544       3555       3554       3664       3665       3676       3675  
      3544       3545       3556       3555       3665       3666       3677       3676  
      3545       3546       3557       3556       3666       3667       3678       3677  
      3546       3547       3558       3557       3667       3668       3679       3678  
      3547       3548       3559       3558       3668       3669       3680       3679  
      3548       3549       3560       3559       3669       3670       3681       3680  
      3549       3550       3561       3560       3670       3671       3682       3681  
      3550       3551       3562       3561       3671       3672       3683       3682  
      3551       3552       3563       3562       3672       3673       3684       3683  
      3552       3553       3564       3563       3673       3674       3685       3684  
      3554       3555       3566       3565       3675       3676       3687       3686  
      3555       3556       3567       3566       3676       3677       3688       3687  
      3556       3557       3568       3567       3677       3678       3689       3688  
      3557       3558       3569       3568       3678       3679       3690       3689  
      3558       3559       3570       3569       3679       3680       3691       3690  
      3559       3560       3571       3570       3680       3681       3692       3691  
      3560       3561       3572       3571       3681       3682       3693       3692  
      3561       3562       3573       3572       3682       3683       3694       3693  
      3562       3563       3574       3573       3683       3684       3695       3694  
      3563       3564       3575       3574       3684       3685       3696       3695  
      3565       3566       3577       3576       3686       3687       3698       3697  
      3566       3567       3578       3577       3687       3688       3699       3698  
      3567       3568       3579       3578       3688       3689       3700       3699  
      3568       3569       3580       3579       3689       3690       3701       3700  
      3569       3570       3581       3580       3690       3691       3702       3701  
      3570       3571       3582       3581       3691       3692       3703       3702  
      3571       3572       3583       3582       3692       3693       3704       3703  
      3572       3573       3584       3583       3693       3694       3705       3704  
      3573       3574       3585       3584       3694       3695       3706       3705  
      3574       3575       3586       3585       3695       3696       3707       3706  
      3576       3577       3588       3587       3697       3698       3709       3708  
      3577       3578       3589       3588       3698       3699       3710       3709  
      3578       3579       3590       3589       3699       3700       3711       3710  
      3579       3580       3591       3590       3700       3701       3712       3711  
      3580       3581       3592       3591       3701       3702       3713       3712  
      3581       3582       3593       3592       3702       3703       3714       3713  
      3582       3583       3594       3593       3703       3704       3715       3714  
      3583       3584       3595       3594       3704       3705       3716       3715  
      3584       3585       3596       3595       3705       3706       3717       3716  
      3585       3586       3597       3596       3706       3707       3718       3717  
      3587       3588       3599       3598       3708       3709       3720       3719  
      3588       3589       3600       3599       3709       3710       3721       3720  
      3589       3590       3601       3600       3710       3711       3722       3721  
      3590       3591       3602       3601       3711       3712       3723       3722  
      3591       3592       3603       3602       3712       3713       3724       3723  
      3592       3593       3604       3603       3713       3714       3725       3724  
      3593       3594       3605       3604       3714       3715       3726       3725  
      3594       3595       3606       3605       3715       3716       3727       3726  
      3595       3596       3607       3606       3716       3717       3728       3727  
      3596       3597       3608       3607       3717       3718       3729       3728  
      3598       3599       3610       3609       3719       3720       3731       3730  
      3599       3600       3611       3610       3720       3721       3732       3731  
      3600       3601       3612       3611       3721       3722       3733       3732  
      3601       3602       3613       3612       3722       3723       3734       3733  
      3602       3603       3614       3613       3723       3724       3735       3734  
      3603       3604       3615       3614       3724       3725       3736       3735  
      3604       3605       3616       3615       3725       3726       3737       3736  
      3605       3606       3617       3616       3726       3727       3738       3737  
      3606       3607       3618       3617       3727       3728       3739       3738  
      3607       3608       3619       3618       3728       3729       3740       3739  
      3609       3610       3621       3620       3730       3731       3742       3741  
      3610       3611       3622       3621       3731       3732       3743       3742  
      3611       3612       3623       3622       3732       3733       3744       3743  
      3612       3613       3624       3623       3733       3734       3745       3744  
      3613       3614       3625       3624       3734       3735       3746       3745  
      3614       3615       3626       3625       3735       3736       3747       3746  
      3615       3616       3627       3626       3736       3737       3748       3747  
      3616       3617       3628       3627       3737       3738       3749       3748  
      3617       3618       3629       3628       3738       3739       3750       3749  
      3618       3619       3630       3629       3739       3740       3751       3750  
      3631       3632       3643       3642       3752       3753       3764       3763  
      3632       3633       3644       3643       3753       3754       3765       3764  
      3633       3634       3645       3644       3754       3755       3766       3765  
      3634       3635       3646       3645       3755       3756       3767       3766  
      3635       3636       3647       3646       3756       3757       3768       3767  
      3636       3637       3648       3647       3757       3758       3769       3768  
      3637       3638       3649       3648       3758       3759       3770       3769  
      3638       3639       3650       3649       3759       3760       3771       3770  
      3639       3640       3651       3650       3760       3761       3772       3771  
      3640       3641       3652       3651       3761       3762       3773       3772  
      3642       3643       3654       3653       3763       3764       3775       3774  
      3643       3644       3655       3654       3764       3765       3776       3775  
      3644       3645       3656       3655       3765       3766       3777       3776  
      3645       3646       3657       3656       3766       3767       3778       3777  
      3646       3647       3658       3657       3767       3768       3779       3778  
      3647       3648       3659       3658       3768       3769       3780       3779  
      3648       3649       3660       3659       3769       3770       3781       3780  
      3649       3650       3661       3660       3770       3771       3782       3781  
      3650       3651       3662       3661       3771       3772       3783       3782  
      3651       3652       3663       3662       3772       3773       3784       3783  
      3653       3654       3665       3664       3774       3775       3786       3785  
      3654       3655       3666       3665       3775       3776       3787       3786  
      3655       3656       3667       3666       3776       3777       3788       3787  
      3656       3657       3668       3667       3777       3778       3789       3788  
      3657       3658       3669       3668       3778       3779       3790       3789  
      3658       3659       3670       3669       3779       3780       3791       3790  
      3659       3660       3671       3670       3780       3781       3792       3791  
      3660       3661       3672       3671       3781       3782       3793       3792  
      3661       3662       3673       3672       3782       3783       3794       3793  
      3662       3663       3674       3673       3783       3784       3795       3794  
      3664       3665       3676       3675       3785       3786       3797       3796  
      3665       3666       3677       3676       3786       3787       3798       3797  
      3666       3667       3678       3677       3787       3788       3799       3798  
      3667       3668       3679       3678       3788       3789       3800       3799  
      3668       3669       3680       3679       3789       3790       3801       3800  
      3669       3670       3681       3680       3790       3791       3802       3801  
      3670       3671       3682       3681       3791       3792       3803       3802  
      3671       3672       3683       3682       3792       3793       3804       3803  
      3672       3673       3684       3683       3793       3794       3805       3804  
      3673       3674       3685       3684       3794       3795       3806       3805  
      3675       3676       3687       3686       3796       3797       3808       3807  
      3676       3677       3688       3687       3797       3798       3809       3808  
      3677       3678       3689       3688       3798       3799       3810       3809  
      3678       3679       3690       3689       3799       3800       3811       3810  
      3679       3680       3691       3690       3800       3801       3812       3811  
      3680       3681       3692       3691       3801       3802       3813       3812  
      3681       3682       3693       3692       3802       3803       3814       3813  
      3682       3683       3694       3693       3803       3804       3815       3814  
      3683       3684       3695       3694       3804       3805       3816       3815  
      3684       3685       3696       3695       3805       3806       3817       3816  
      3686       3687       3698       3697       3807       3808       3819       3818  
      3687       3688       3699       3698       3808       3809       3820       3819  
      3688       3689       3700       3699       3809       3810       3821       3820  
      3689       3690       3701       3700       3810       3811       3822       3821  
      3690       3691       3702       3701       3811       3812       3823       3822  
      3691       3692       3703       3702       3812       3813       3824       3823  
      3692       3693       3704       3703       3813       3814       3825       3824  
      3693       3694       3705       3704       3814       3815       3826       3825  
      3694       3695       3706       3705       3815       3816       3827       3826  
      3695       3696       3707       3706       3816       3817       3828       3827  
      3697       3698       3709       3708       3818       3819       3830       3829  
      3698       3699       3710       3709       3819       3820       3831       3830  
      3699       3700       3711       3710       3820       3821       3832       3831  
      3700       3701       3712       3711       3821       3822       3833       3832  
      3701       3702       3713       3712       3822       3823       3834       3833  
      3702       3703       3714       3713       3823       3824       3835       3834  
      3703       3704       3715       3714       3824       3825       3836       3835  
      3704       3705       3716       3715       3825       3826       3837       3836  
      3705       3706       3717       3716       3826       3827       3838       3837  
      3706       3707       3718       3717       3827       3828       3839       3838  
      3708       3709       3720       3719       3829       3830       3841       3840  
      3709       3710       3721       3720       3830       3831       3842       3841  
      3710       3711       3722       3721       3831       3832       3843       3842  
      3711       3712       3723       3722       3832       3833       3844       3843  
      3712       3713       3724       3723       3833       3834       3845       3844  
      3713       3714       3725       3724       3834       3835       3846       3845  
      3714       3715       3726       3725       3835       3836       3847       3846  
      3715       3716       3727       3726       3836       3837       3848       3847  
      3716       3717       3728       3727       3837       3838       3849       3848  
      3717       3718       3729       3728       3838       3839       3850       3849  
      3719       3720       3731       3730       3840       3841       3852       3851  
      3720       3721       3732       3731       3841       3842       3853       3852  
      3721       3722       3733       3732       3842       3843       3854       3853  
      3722       3723       3734       3733       3843       3844       3855       3854  
      3723       3724       3735       3734       3844       3845       3856       3855  
      3724       3725       3736       3735       3845       3846       3857       3856  
      3725       3726       3737       3736       3846       3847       3858       3857  
      3726       3727       3738       3737       3847       3848       3859       3858  
      3727       3728       3739       3738       3848       3849       3860       3859  
      3728       3729       3740       3739       3849       3850       3861       3860  
      3730       3731       3742       3741       3851       3852       3863       3862  
      3731       3732       3743       3742       3852       3853       3864       3863  
      3732       3733       3744       3743       3853       3854       3865       3864  
      3733       3734       3745       3744       3854       3855       3866       3865  
      3734       3735       3746       3745       3855       3856       3867       3866  
      3735       3736       3747       3746       3856       3857       3868       3867  
      3736       3737       3748       3747       3857       3858       3869       3868  
      3737       3738       3749       3748       3858       3859       3870       3869  
      3738       3739       3750       3749       3859       3860       3871       3870  
      3739       3740       3751       3750       3860       3861       3872       3871  
      3752       3753       3764       3763       3873       3874       3885       3884  
      3753       3754       3765       3764       3874       3875       3886       3885  
      3754       3755       3766       3765       3875       3876       3887       3886  
      3755       3756       3767       3766       3876       3877       3888       3887  
      3756       3757       3768       3767       3877       3878       3889       3888  
      3757       3758       3769       3768       3878       3879       3890       3889  
      3758       3759       3770       3769       3879       3880       3891       3890  
      3759       3760       3771       3770       3880       3881       3892       3891  
      3760       3761       3772       3771       3881       3882       3893       3892  
      3761       3762       3773       3772       3882       3883       3894       3893  
      3763       3764       3775       3774       3884       3885       3896       3895  
      3764       3765       3776       3775       3885       3886       3897       3896  
      3765       3766       3777       3776       3886       3887       3898       3897  
      3766       3767       3778       3777       3887       3888       3899       3898  
      3767       3768       3779       3778       3888       3889       3900       3899  
      3768       3769       3780       3779       3889       3890       3901       3900  
      3769       3770       3781       3780       3890       3891       3902       3901  
      3770       3771       3782       3781       3891       3892       3903       3902  
      3771       3772       3783       3782       3892       3893       3904       3903  
      3772       3773       3784       3783       3893       3894       3905       3904  
      3774       3775       3786       3785       3895       3896       3907       3906  
      3775       3776       3787       3786       3896       3897       3908       3907  
      3776       3777       3788       3787       3897       3898       3909       3908  
      3777       3778       3789       3788       3898       3899       3910       3909  
      3778       3779       3790       3789       3899       3900       3911       3910  
      3779       3780       3791       3790       3900       3901       3912       3911  
      3780       3781       3792       3791       3901       3902       3913       3912  
      3781       3782       3793       3792       3902       3903       3914       3913  
      3782       3783       3794       3793       3903       3904       3915       3914  
      3783       3784       3795       3794       3904       3905       3916       3915  
      3785       3786       3797       3796       3906       3907       3918       3917  
      3786       3787       3798       3797       3907       3908       3919       3918  
      3787       3788       3799       3798       3908       3909       3920       3919  
      3788       3789       3800       3799       3909       3910       3921       3920  
      3789       3790       3801       3800       3910       3911       3922       3921  
      3790       3791       3802       3801       3911       3912       3923       3922  
      3791       3792       3803       3802       3912       3913       3924       3923  
      3792       3793       3804       3803       3913       3914       3925       3924  
      3793       3794       3805       3804       3914       3915       3926       3925  
      3794       3795       3806       3805       3915       3916       3927       3926  
      3796       3797       3808       3807       3917       3918       3929       3928  
      3797       3798       3809       3808       3918       3919       3930       3929  
      3798       3799       3810       3809       3919       3920       3931       3930  
      3799       3800       3811       3810       3920       3921       3932       3931  
      3800       3801       3812       3811       3921       3922       3933       3932  
      3801       3802       3813       3812       3922       3923       3934       3933  
      3802       3803       3814       3813       3923       3924       3935       3934  
      3803       3804       3815       3814       3924       3925       3936       3935  
      3804       3805       3816       3815       3925       3926       3937       3936  
      3805       3806       3817       3816       3926       3927       3938       3937  
      3807       3808       3819       3818       3928       3929       3940       3939  
      3808       3809       3820       3819       3929       3930       3941       3940  
      3809       3810       3821       3820       3930       3931       3942       3941  
      3810       3811       3822       3821       3931       3932       3943       3942  
      3811       3812       3823       3822       3932       3933       3944       3943  
      3812       3813       3824       3823       3933       3934       3945       3944  
      3813       3814       3825       3824       3934       3935       3946       3945  
      3814       3815       3826       3825       3935       3936       3947       3946  
      3815       3816       3827       3826       3936       3937       3948       3947  
      3816       3817       3828       3827       3937       3938       3949       3948  
      3818       3819       3830       3829       3939       3940       3951       3950  
      3819       3820       3831       3830       3940       3941       3952       3951  
      3820       3821       3832       3831       3941       3942       3953       3952  
      3821       3822       3833       3832       3942       3943       3954       3953  
      3822       3823       3834       3833       3943       3944       3955       3954  
      3823       3824       3835       3834       3944       3945       3956       3955  
      3824       3825       3836       3835       3945       3946       3957       3956  
      3825       3826       3837       3836       3946       3947       3958       3957  
      3826       3827       3838       3837       3947       3948       3959       3958  
      3827       3828       3839       3838       3948       3949       3960       3959  
      3829       3830       3841       3840       3950       3951       3962       3961  
      3830       3831       3842       3841       3951       3952       3963       3962  
      3831       3832       3843       3842       3952       3953       3964       3963  
      3832       3833       3844       3843       3953       3954       3965       3964  
      3833       3834       3845       3844       3954       3955       3966       3965  
      3834       3835       3846       3845       3955       3956       3967       3966  
      3835       3836       3847       3846       3956       3957       3968       3967  
      3836       3837       3848       3847       3957       3958       3969       3968  
      3837       3838       3849       3848       3958       3959       3970       3969  
      3838       3839       3850       3849       3959       3960       3971       3970  
      3840       3841       3852       3851       3961       3962       3973       3972  
      3841       3842       3853       3852       3962       3963       3974       3973  
      3842       3843       3854       3853       3963       3964       3975       3974  
      3843       3844       3855       3854       3964       3965       3976       3975  
      3844       3845       3856       3855       3965       3966       3977       3976  
      3845       3846       3857       3856       3966       3967       3978       3977  
      3846       3847       3858       3857       3967       3968       3979       3978  
      3847       3848       3859       3858       3968       3969       3980       3979  
      3848       3849       3860       3859       3969       3970       3981       3980  
      3849       3850       3861       3860       3970       3971       3982       3981  
      3851       3852       3863       3862       3972       3973       3984       3983  
      3852       3853       3864       3863       3973       3974       3985       3984  
      3853       3854       3865       3864       3974       3975       3986       3985  
      3854       3855       3866       3865       3975       3976       3987       3986  
      3855       3856       3867       3866       3976       3977       3988       3987  
      3856       3857       3868       3867       3977       3978       3989       3988  
      3857       3858       3869       3868       3978       3979       3990       3989  
      3858       3859       3870       3869       3979       3980       3991       3990  
      3859       3860       3871       3870       3980       3981       3992       3991  
      3860       3861       3872       3871       3981       3982       3993       3992  
      3873       3874       3885       3884       3994       3995       4006       4005  
      3874       3875       3886       3885       3995       3996       4007       4006  
      3875       3876       3887       3886       3996       3997       4008       4007  
      3876       3877       3888       3887       3997       3998       4009       4008  
      3877       3878       3889       3888       3998       3999       4010       4009  
      3878       3879       3890       3889       3999       4000       4011       4010  
      3879       3880       3891       3890       4000       4001       4012       4011  
      3880       3881       3892       3891       4001       4002       4013       4012  
      3881       3882       3893       3892       4002       4003       4014       4013  
      3882       3883       3894       3893       4003       4004       4015       4014  
      3884       3885       3896       3895       4005       4006       4017       4016  
      3885       3886       3897       3896       4006       4007       4018       4017  
      3886       3887       3898       3897       4007       4008       4019       4018  
      3887       3888       3899       3898       4008       4009       4020       4019  
      3888       3889       3900       3899       4009       4010       4021       4020  
      3889       3890       3901       3900       4010       4011       4022       4021  
      3890       3891       3902       3901       4011       4012       4023       4022  
      3891       3892       3903       3902       4012       4013       4024       4023  
      3892       3893       3904       3903       4013       4014       4025       4024  
      3893       3894       3905       3904       4014       4015       4026       4025  
      3895       3896       3907       3906       4016       4017       4028       4027  
      3896       3897       3908       3907       4017       4018       4029       4028  
      3897       3898       3909       3908       4018       4019       4030       4029  
      3898       3899       3910       3909       4019       4020       4031       4030  
      3899       3900       3911       3910       4020       4021       4032       4031  
      3900       3901       3912       3911       4021       4022       4033       4032  
      3901       3902       3913       3912       4022       4023       4034       4033  
      3902       3903       3914       3913       4023       4024       4035       4034  
      3903       3904       3915       3914       4024       4025       4036       4035  
      3904       3905       3916       3915       4025       4026       4037       4036  
      3906       3907       3918       3917       4027       4028       4039       4038  
      3907       3908       3919       3918       4028       4029       4040       4039  
      3908       3909       3920       3919       4029       4030       4041       4040  
      3909       3910       3921       3920       4030       4031       4042       4041  
      3910       3911       3922       3921       4031       4032       4043       4042  
      3911       3912       3923       3922       4032       4033       4044       4043  
      3912       3913       3924       3923       4033       4034       4045       4044  
      3913       3914       3925       3924       4034       4035       4046       4045  
      3914       3915       3926       3925       4035       4036       4047       4046  
      3915       3916       3927       3926       4036       4037       4048       4047  
      3917       3918       3929       3928       4038       4039       4050       4049  
      3918       3919       3930       3929       4039       4040       4051       4050  
      3919       3920       3931       3930       4040       4041       4052       4051  
      3920       3921       3932       3931       4041       4042       4053       4052  
      3921       3922       3933       3932       4042       4043       4054       4053  
      3922       3923       3934       3933       4043       4044       4055       4054  
      3923       3924       3935       3934       4044       4045       4056       4055  
      3924       3925       3936       3935       4045       4046       4057       4056  
      3925       3926       3937       3936       4046       4047       4058       4057  
      3926       3927       3938       3937       4047       4048       4059       4058  
      3928       3929       3940       3939       4049       4050       4061       4060  
      3929       3930       3941       3940       4050       4051       4062       4061  
      3930       3931       3942       3941       4051       4052       4063       4062  
      3931       3932       3943       3942       4052       4053       4064       4063  
      3932       3933       3944       3943       4053       4054       4065       4064  
      3933       3934       3945       3944       4054       4055       4066       4065  
      3934       3935       3946       3945       4055       4056       4067       4066  
      3935       3936       3947       3946       4056       4057       4068       4067  
      3936       3937       3948       3947       4057       4058       4069       4068  
      3937       3938       3949       3948       4058       4059       4070       4069  
      3939       3940       3951       3950       4060       4061       4072       4071  
      3940       3941       3952       3951       4061       4062       4073       4072  
      3941       3942       3953       3952       4062       4063       4074       4073  
      3942       3943       3954       3953       4063       4064       4075       4074  
      3943       3944       3955       3954       4064       4065       4076       4075  
      3944       3945       3956       3955       4065       4066       4077       4076  
      3945       3946       3957       3956       4066       4067       4078       4077  
      3946       3947       3958       3957       4067       4068       4079       4078  
      3947       3948       3959       3958       4068       4069       4080       4079  
      3948       3949       3960       3959       4069       4070       4081       4080  
      3950       3951       3962       3961       4071       4072       4083       4082  
      3951       3952       3963       3962       4072       4073       4084       4083  
      3952       3953       3964       3963       4073       4074       4085       4084  
      3953       3954       3965       3964       4074       4075       4086       4085  
      3954       3955       3966       3965       4075       4076       4087       4086  
      3955       3956       3967       3966       4076       4077       4088       4087  
      3956       3957       3968       3967       4077       4078       4089       4088  
      3957       3958       3969       3968       4078       4079       4090       4089  
      3958       3959       3970       3969       4079       4080       4091       4090  
      3959       3960       3971       3970       4080       4081       4092       4091  
      3961       3962       3973       3972       4082       4083       4094       4093  
      3962       3963       3974       3973       4083       4084       4095       4094  
      3963       3964       3975       3974       4084       4085       4096       4095  
      3964       3965       3976       3975       4085       4086       4097       4096  
      3965       3966       3977       3976       4086       4087       4098       4097  
      3966       3967       3978       3977       4087       4088       4099       4098  
      3967       3968       3979       3978       4088       4089       4100       4099  
      3968       3969       3980       3979       4089       4090       4101       4100  
      3969       3970       3981       3980       4090       4091       4102       4101  
      3970       3971       3982       3981       4091       4092       4103       4102  
      3972       3973       3984       3983       4093       4094       4105       4104  
      3973       3974       3985       3984       4094       4095       4106       4105  
      3974       3975       3986       3985       4095       4096       4107       4106  
      3975       3976       3987       3986       4096       4097       4108       4107  
      3976       3977       3988       3987       4097       4098       4109       4108  
      3977       3978       3989       3988       4098       4099       4110       4109  
      3978       3979       3990       3989       4099       4100       4111       4110  
      3979       3980       3991       3990       4100       4101       4112       4111  
      3980       3981       3992       3991       4101       4102       4113       4112  
      3981       3982       3993       3992       4102       4103       4114       4113  
      3994       3995       4006       4005       4115       4116       4127       4126  
      3995       3996       4007       4006       4116       4117       4128       4127  
      3996       3997       4008       4007       4117       4118       4129       4128  
      3997       3998       4009       4008       4118       4119       4130       4129  
      3998       3999       4010       4009       4119       4120       4131       4130  
      3999       4000       4011       4010       4120       4121       4132       4131  
      4000       4001       4012       4011       4121       4122       4133       4132  
      4001       4002       4013       4012       4122       4123       4134       4133  
      4002       4003       4014       4013       4123       4124       4135       4134  
      4003       4004       4015       4014       4124       4125       4136       4135  
      4005       4006       4017       4016       4126       4127       4138       4137  
      4006       4007       4018       4017       4127       4128       4139       4138  
      4007       4008       4019       4018       4128       4129       4140       4139  
      4008       4009       4020       4019       4129       4130       4141       4140  
      4009       4010       4021       4020       4130       4131       4142       4141  
      4010       4011       4022       4021       4131       4132       4143       4142  
      4011       4012       4023       4022       4132       4133       4144       4143  
      4012       4013       4024       4023       4133       4134       4145       4144  
      4013       4014       4025       4024       4134       4135       4146       4145  
      4014       4015       4026       4025       4135       4136       4147       4146  
      4016       4017       4028       4027       4137       4138       4149       4148  
      4017       4018       4029       4028       4138       4139       4150       4149  
      4018       4019       4030       4029       4139       4140       4151       4150  
      4019       4020       4031       4030       4140       4141       4152       4151  
      4020       4021       4032       4031       4141       4142       4153       4152  
      4021       4022       4033       4032       4142       4143       4154       4153  
      4022       4023       4034       4033       4143       4144       4155       4154  
      4023       4024       4035       4034       4144       4145       4156       4155  
      4024       4025       4036       4035       4145       4146       4157       4156  
      4025       4026       4037       4036       4146       4147       4158       4157  
      4027       4028       4039       4038       4148       4149       4160       4159  
      4028       4029       4040       4039       4149       4150       4161       4160  
      4029       4030       4041       4040       4150       4151       4162       4161  
      4030       4031       4042       4041       4151       4152       4163       4162  
      4031       4032       4043       4042       4152       4153       4164       4163  
      4032       4033       4044       4043       4153       4154       4165       4164  
      4033       4034       4045       4044       4154       4155       4166       4165  
      4034       4035       4046       4045       4155       4156       4167       4166  
      4035       4036       4047       4046       4156       4157       4168       4167  
      4036       4037       4048       4047       4157       4158       4169       4168  
      4038       4039       4050       4049       4159       4160       4171       4170  
      4039       4040       4051       4050       4160       4161       4172       4171  
      4040       4041       4052       4051       4161       4162       4173       4172  
      4041       4042       4053       4052       4162       4163       4174       4173  
      4042       4043       4054       4053       4163       4164       4175       4174  
      4043       4044       4055       4054       4164       4165       4176       4175  
      4044       4045       4056       4055       4165       4166       4177       4176  
      4045       4046       4057       4056       4166       4167       4178       4177  
      4046       4047       4058       4057       4167       4168       4179       4178  
      4047       4048       4059       4058       4168       4169       4180       4179  
      4049       4050       4061       4060       4170       4171       4182       4181  
      4050       4051       4062       4061       4171       4172       4183       4182  
      4051       4052       4063       4062       4172       4173       4184       4183  
      4052       4053       4064       4063       4173       4174       4185       4184  
      4053       4054       4065       4064       4174       4175       4186       4185  
      4054       4055       4066       4065       4175       4176       4187       4186  
      4055       4056       4067       4066       4176       4177       4188       4187  
      4056       4057       4068       4067       4177       4178       4189       4188  
      4057       4058       4069       4068       4178       4179       4190       4189  
      4058       4059       4070       4069       4179       4180       4191       4190  
      4060       4061       4072       4071       4181       4182       4193       4192  
      4061       4062       4073       4072       4182       4183       4194       4193  
      4062       4063       4074       4073       4183       4184       4195       4194  
      4063       4064       4075       4074       4184       4185       4196       4195  
      4064       4065       4076       4075       4185       4186       4197       4196  
      4065       4066       4077       4076       4186       4187       4198       4197  
      4066       4067       4078       4077       4187       4188       4199       4198  
      4067       4068       4079       4078       4188       4189       4200       4199  
      4068       4069       4080       4079       4189       4190       4201       4200  
      4069       4070       4081       4080       4190       4191       4202       4201  
      4071       4072       4083       4082       4192       4193       4204       4203  
      4072       4073       4084       4083       4193       4194       4205       4204  
      4073       4074       4085       4084       4194       4195       4206       4205  
      4074       4075       4086       4085       4195       4196       4207       4206  
      4075       4076       4087       4086       4196       4197       4208       4207  
      4076       4077       4088       4087       4197       4198       4209       4208  
      4077       4078       4089       4088       4198       4199       4210       4209  
      4078       4079       4090       4089       4199       4200       4211       4210  
      4079       4080       4091       4090       4200       4201       4212       4211  
      4080       4081       4092       4091       4201       4202       4213       4212  
      4082       4083       4094       4093       4203       4204       4215       4214  
      4083       4084       4095       4094       4204       4205       4216       4215  
      4084       4085       4096       4095       4205       4206       4217       4216  
      4085       4086       4097       4096       4206       4207       4218       4217  
      4086       4087       4098       4097       4207       4208       4219       4218  
      4087       4088       4099       4098       4208       4209       4220       4219  
      4088       4089       4100       4099       4209       4210       4221       4220  
      4089       4090       4101       4100       4210       4211       4222       4221  
      4090       4091       4102       4101       4211       4212       4223       4222  
      4091       4092       4103       4102       4212       4213       4224       4223  
      4093       4094       4105       4104       4214       4215       4226       4225  
      4094       4095       4106       4105       4215       4216       4227       4226  
      4095       4096       4107       4106       4216       4217       4228       4227  
      4096       4097       4108       4107       4217       4218       4229       4228  
      4097       4098       4109       4108       4218       4219       4230       4229  
      4098       4099       4110       4109       4219       4220       4231       4230  
      4099       4100       4111       4110       4220       4221       4232       4231  
      4100       4101       4112       4111       4221       4222       4233       4232  
      4101       4102       4113       4112       4222       4223       4234       4233  
      4102       4103       4114       4113       4223       4224       4235       4234  
      4115       4116       4127       4126       4236       4237       4248       4247  
      4116       4117       4128       4127       4237       4238       4249       4248  
      4117       4118       4129       4128       4238       4239       4250       4249  
      4118       4119       4130       4129       4239       4240       4251       4250  
      4119       4120       4131       4130       4240       4241       4252       4251  
      4120       4121       4132       4131       4241       4242       4253       4252  
      4121       4122       4133       4132       4242       4243       4254       4253  
      4122       4123       4134       4133       4243       4244       4255       4254  
      4123       4124       4135       4134       4244       4245       4256       4255  
      4124       4125       4136       4135       4245       4246       4257       4256  
      4126       4127       4138       4137       4247       4248       4259       4258  
      4127       4128       4139       4138       4248       4249       4260       4259  
      4128       4129       4140       4139       4249       4250       4261       4260  
      4129       4130       4141       4140       4250       4251       4262       4261  
      4130       4131       4142       4141       4251       4252       4263       4262  
      4131       4132       4143       4142       4252       4253       4264       4263  
      4132       4133       4144       4143       4253       4254       4265       4264  
      4133       4134       4145       4144       4254       4255       4266       4265  
      4134       4135       4146       4145       4255       4256       4267       4266  
      4135       4136       4147       4146       4256       4257       4268       4267  
      4137       4138       4149       4148       4258       4259       4270       4269  
      4138       4139       4150       4149       4259       4260       4271       4270  
      4139       4140       4151       4150       4260       4261       4272       4271  
      4140       4141       4152       4151       4261       4262       4273       4272  
      4141       4142       4153       4152       4262       4263       4274       4273  
      4142       4143       4154       4153       4263       4264       4275       4274  
      4143       4144       4155       4154       4264       4265       4276       4275  
      4144       4145       4156       4155       4265       4266       4277       4276  
      4145       4146       4157       4156       4266       4267       4278       4277  
      4146       4147       4158       4157       4267       4268       4279       4278  
      4148       4149       4160       4159       4269       4270       4281       4280  
      4149       4150       4161       4160       4270       4271       4282       4281  
      4150       4151       4162       4161       4271       4272       4283       4282  
      4151       4152       4163       4162       4272       4273       4284       4283  
      4152       4153       4164       4163       4273       4274       4285       4284  
      4153       4154       4165       4164       4274       4275       4286       4285  
      4154       4155       4166       4165       4275       4276       4287       4286  
      4155       4156       4167       4166       4276       4277       4288       4287  
      4156       4157       4168       4167       4277       4278       4289       4288  
      4157       4158       4169       4168       4278       4279       4290       4289  
      4159       4160       4171       4170       4280       4281       4292       4291  
      4160       4161       4172       4171       4281       4282       4293       4292  
      4161       4162       4173       4172       4282       4283       4294       4293  
      4162       4163       4174       4173       4283       4284       4295       4294  
      4163       4164       4175       4174       4284       4285       4296       4295  
      4164       4165       4176       4175       4285       4286       4297       4296  
      4165       4166       4177       4176       4286       4287       4298       4297  
      4166       4167       4178       4177       4287       4288       4299       4298  
      4167       4168       4179       4178       4288       4289       4300       4299  
      4168       4169       4180       4179       4289       4290       4301       4300  
      4170       4171       4182       4181       4291       4292       4303       4302  
      4171       4172       4183       4182       4292       4293       4304       4303  
      4172       4173       4184       4183       4293       4294       4305       4304  
      4173       4174       4185       4184       4294       4295       4306       4305  
      4174       4175       4186       4185       4295       4296       4307       4306  
      4175       4176       4187       4186       4296       4297       4308       4307  
      4176       4177       4188       4187       4297       4298       4309       4308  
      4177       4178       4189       4188       4298       4299       4310       4309  
      4178       4179       4190       4189       4299       4300       4311       4310  
      4179       4180       4191       4190       4300       4301       4312       4311  
      4181       4182       4193       4192       4302       4303       4314       4313  
      4182       4183       4194       4193       4303       4304       4315       4314  
      4183       4184       4195       4194       4304       4305       4316       4315  
      4184       4185       4196       4195       4305       4306       4317       4316  
      4185       4186       4197       4196       4306       4307       4318       4317  
      4186       4187       4198       4197       4307       4308       4319       4318  
      4187       4188       4199       4198       4308       4309       4320       4319  
      4188       4189       4200       4199       4309       4310       4321       4320  
      4189       4190       4201       4200       4310       4311       4322       4321  
      4190       4191       4202       4201       4311       4312       4323       4322  
      4192       4193       4204       4203       4313       4314       4325       4324  
      4193       4194       4205       4204       4314       4315       4326       4325  
      4194       4195       4206       4205       4315       4316       4327       4326  
      4195       4196       4207       4206       4316       4317       4328       4327  
      4196       4197       4208       4207       4317       4318       4329       4328  
      4197       4198       4209       4208       4318       4319       4330       4329  
      4198       4199       4210       4209       4319       4320       4331       4330  
      4199       4200       4211       4210       4320       4321       4332       4331  
      4200       4201       4212       4211       4321       4322       4333       4332  
      4201       4202       4213       4212       4322       4323       4334       4333  
      4203       4204       4215       4214       4324       4325       4336       4335  
      4204       4205       4216       4215       4325       4326       4337       4336  
      4205       4206       4217       4216       4326       4327       4338       4337  
      4206       4207       4218       4217       4327       4328       4339       4338  
      4207       4208       4219       4218       4328       4329       4340       4339  
      4208       4209       4220       4219       4329       4330       4341       4340  
      4209       4210       4221       4220       4330       4331       4342       4341  
      4210       4211       4222       4221       4331       4332       4343       4342  
      4211       4212       4223       4222       4332       4333       4344       4343  
      4212       4213       4224       4223       4333       4334       4345       4344  
      4214       4215       4226       4225       4335       4336       4347       4346  
      4215       4216       4227       4226       4336       4337       4348       4347  
      4216       4217       4228       4227       4337       4338       4349       4348  
      4217       4218       4229       4228       4338       4339       4350       4349  
      4218       4219       4230       4229       4339       4340       4351       4350  
      4219       4220       4231       4230       4340       4341       4352       4351  
      4220       4221       4232       4231       4341       4342       4353       4352  
      4221       4222       4233       4232       4342       4343       4354       4353  
      4222       4223       4234       4233       4343       4344       4355       4354  
      4223       4224       4235       4234       4344       4345       4356       4355  
      4236       4237       4248       4247       4357       4358       4369       4368  
      4237       4238       4249       4248       4358       4359       4370       4369  
      4238       4239       4250       4249       4359       4360       4371       4370  
      4239       4240       4251       4250       4360       4361       4372       4371  
      4240       4241       4252       4251       4361       4362       4373       4372  
      4241       4242       4253       4252       4362       4363       4374       4373  
      4242       4243       4254       4253       4363       4364       4375       4374  
      4243       4244       4255       4254       4364       4365       4376       4375  
      4244       4245       4256       4255       4365       4366       4377       4376  
      4245       4246       4257       4256       4366       4367       4378       4377  
      4247       4248       4259       4258       4368       4369       4380       4379  
      4248       4249       4260       4259       4369       4370       4381       4380  
      4249       4250       4261       4260       4370       4371       4382       4381  
      4250       4251       4262       4261       4371       4372       4383       4382  
      4251       4252       4263       4262       4372       4373       4384       4383  
      4252       4253       4264       4263       4373       4374       4385       4384  
      4253       4254       4265       4264       4374       4375       4386       4385  
      4254       4255       4266       4265       4375       4376       4387       4386  
      4255       4256       4267       4266       4376       4377       4388       4387  
      4256       4257       4268       4267       4377       4378       4389       4388  
      4258       4259       4270       4269       4379       4380       4391       4390  
      4259       4260       4271       4270       4380       4381       4392       4391  
      4260       4261       4272       4271       4381       4382       4393       4392  
      4261       4262       4273       4272       4382       4383       4394       4393  
      4262       4263       4274       4273       4383       4384       4395       4394  
      4263       4264       4275       4274       4384       4385       4396       4395  
      4264       4265       4276       4275       4385       4386       4397       4396  
      4265       4266       4277       4276       4386       4387       4398       4397  
      4266       4267       4278       4277       4387       4388       4399       4398  
      4267       4268       4279       4278       4388       4389       4400       4399  
      4269       4270       4281       4280       4390       4391       4402       4401  
      4270       4271       4282       4281       4391       4392       4403       4402  
      4271       4272       4283       4282       4392       4393       4404       4403  
      4272       4273       4284       4283       4393       4394       4405       4404  
      4273       4274       4285       4284       4394       4395       4406       4405  
      4274       4275       4286       4285       4395       4396       4407       4406  
      4275       4276       4287       4286       4396       4397       4408       4407  
      4276       4277       4288       4287       4397       4398       4409       4408  
      4277       4278       4289       4288       4398       4399       4410       4409  
      4278       4279       4290       4289       4399       4400       4411       4410  
      4280       4281       4292       4291       4401       4402       4413       4412  
      4281       4282       4293       4292       4402       4403       4414       4413  
      4282       4283       4294       4293       4403       4404       4415       4414  
      4283       4284       4295       4294       4404       4405       4416       4415  
      4284       4285       4296       4295       4405       4406       4417       4416  
      4285       4286       4297       4296       4406       4407       4418       4417  
      4286       4287       4298       4297       4407       4408       4419       4418  
      4287       4288       4299       4298       4408       4409       4420       4419  
      4288       4289       4300       4299       4409       4410       4421       4420  
      4289       4290       4301       4300       4410       4411       4422       4421  
      4291       4292       4303       4302       4412       4413       4424       4423  
      4292       4293       4304       4303       4413       4414       4425       4424  
      4293       4294       4305       4304       4414       4415       4426       4425  
      4294       4295       4306       4305       4415       4416       4427       4426  
      4295       4296       4307       4306       4416       4417       4428       4427  
      4296       4297       4308       4307       4417       4418       4429       4428  
      4297       4298       4309       4308       4418       4419       4430       4429  
      4298       4299       4310       4309       4419       4420       4431       4430  
      4299       4300       4311       4310       4420       4421       4432       4431  
      4300       4301       4312       4311       4421       4422       4433       4432  
      4302       4303       4314       4313       4423       4424       4435       4434  
      4303       4304       4315       4314       4424       4425       4436       4435  
      4304       4305       4316       4315       4425       4426       4437       4436  
      4305       4306       4317       4316       4426       4427       4438       4437  
      4306       4307       4318       4317       4427       4428       4439       4438  
      4307       4308       4319       4318       4428       4429       4440       4439  
      4308       4309       4320       4319       4429       4430       4441       4440  
      4309       4310       4321       4320       4430       4431       4442       4441  
      4310       4311       4322       4321       4431       4432       4443       4442  
      4311       4312       4323       4322       4432       4433       4444       4443  
      4313       4314       4325       4324       4434       4435       4446       4445  
      4314       4315       4326       4325       4435       4436       4447       4446  
      4315       4316       4327       4326       4436       4437       4448       4447  
      4316       4317       4328       4327       4437       4438       4449       4448  
      4317       4318       4329       4328       4438       4439       4450       4449  
      4318       4319       4330       4329       4439       4440       4451       4450  
      4319       4320       4331       4330       4440       4441       4452       4451  
      4320       4321       4332       4331       4441       4442       4453       4452  
      4321       4322       4333       4332       4442       4443       4454       4453  
      4322       4323       4334       4333       4443       4444       4455       4454  
      4324       4325       4336       4335       4445       4446       4457       4456  
      4325       4326       4337       4336       4446       4447       4458       4457  
      4326       4327       4338       4337       4447       4448       4459       4458  
      4327       4328       4339       4338       4448       4449       4460       4459  
      4328       4329       4340       4339       4449       4450       4461       4460  
      4329       4330       4341       4340       4450       4451       4462       4461  
      4330       4331       4342       4341       4451       4452       4463       4462  
      4331       4332       4343       4342       4452       4453       4464       4463  
      4332       4333       4344       4343       4453       4454       4465       4464  
      4333       4334       4345       4344       4454       4455       4466       4465  
      4335       4336       4347       4346       4456       4457       4468       4467  
      4336       4337       4348       4347       4457       4458       4469       4468  
      4337       4338       4349       4348       4458       4459       4470       4469  
      4338       4339       4350       4349       4459       4460       4471       4470  
      4339       4340       4351       4350       4460       4461       4472       4471  
      4340       4341       4352       4351       4461       4462       4473       4472  
      4341       4342       4353       4352       4462       4463       4474       4473  
      4342       4343       4354       4353       4463       4464       4475       4474  
      4343       4344       4355       4354       4464       4465       4476       4475  
      4344       4345       4356       4355       4465       4466       4477       4476  
      4357       4358       4369       4368       4478       4479       4490       4489  
      4358       4359       4370       4369       4479       4480       4491       4490  
      4359       4360       4371       4370       4480       4481       4492       4491  
      4360       4361       4372       4371       4481       4482       4493       4492  
      4361       4362       4373       4372       4482       4483       4494       4493  
      4362       4363       4374       4373       4483       4484       4495       4494  
      4363       4364       4375       4374       4484       4485       4496       4495  
      4364       4365       4376       4375       4485       4486       4497       4496  
      4365       4366       4377       4376       4486       4487       4498       4497  
      4366       4367       4378       4377       4487       4488       4499       4498  
      4368       4369       4380       4379       4489       4490       4501       4500  
      4369       4370       4381       4380       4490       4491       4502       4501  
      4370       4371       4382       4381       4491       4492       4503       4502  
      4371       4372       4383       4382       4492       4493       4504       4503  
      4372       4373       4384       4383       4493       4494       4505       4504  
      4373       4374       4385       4384       4494       4495       4506       4505  
      4374       4375       4386       4385       4495       4496       4507       4506  
      4375       4376       4387       4386       4496       4497       4508       4507  
      4376       4377       4388       4387       4497       4498       4509       4508  
      4377       4378       4389       4388       4498       4499       4510       4509  
      4379       4380       4391       4390       4500       4501       4512       4511  
      4380       4381       4392       4391       4501       4502       4513       4512  
      4381       4382       4393       4392       4502       4503       4514       4513  
      4382       4383       4394       4393       4503       4504       4515       4514  
      4383       4384       4395       4394       4504       4505       4516       4515  
      4384       4385       4396       4395       4505       4506       4517       4516  
      4385       4386       4397       4396       4506       4507       4518       4517  
      4386       4387       4398       4397       4507       4508       4519       4518  
      4387       4388       4399       4398       4508       4509       4520       4519  
      4388       4389       4400       4399       4509       4510       4521       4520  
      4390       4391       4402       4401       4511       4512       4523       4522  
      4391       4392       4403       4402       4512       4513       4524       4523  
      4392       4393       4404       4403       4513       4514       4525       4524  
      4393       4394       4405       4404       4514       4515       4526       4525  
      4394       4395       4406       4405       4515       4516       4527       4526  
      4395       4396       4407       4406       4516       4517       4528       4527  
      4396       4397       4408       4407       4517       4518       4529       4528  
      4397       4398       4409       4408       4518       4519       4530       4529  
      4398       4399       4410       4409       4519       4520       4531       4530  
      4399       4400       4411       4410       4520       4521       4532       4531  
      4401       4402       4413       4412       4522       4523       4534       4533  
      4402       4403       4414       4413       4523       4524       4535       4534  
      4403       4404       4415       4414       4524       4525       4536       4535  
      4404       4405       4416       4415       4525       4526       4537       4536  
      4405       4406       4417       4416       4526       4527       4538       4537  
      4406       4407       4418       4417       4527       4528       4539       4538  
      4407       4408       4419       4418       4528       4529       4540       4539  
      4408       4409       4420       4419       4529       4530       4541       4540  
      4409       4410       4421       4420       4530       4531       4542       4541  
      4410       4411       4422       4421       4531       4532       4543       4542  
      4412       4413       4424       4423       4533       4534       4545       4544  
      4413       4414       4425       4424       4534       4535       4546       4545  
      4414       4415       4426       4425       4535       4536       4547       4546  
      4415       4416       4427       4426       4536       4537       4548       4547  
      4416       4417       4428       4427       4537       4538       4549       4548  
      4417       4418       4429       4428       4538       4539       4550       4549  
      4418       4419       4430       4429       4539       4540       4551       4550  
      4419       4420       4431       4430       4540       4541       4552       4551  
      4420       4421       4432       4431       4541       4542       4553       4552  
      4421       4422       4433       4432       4542       4543       4554       4553  
      4423       4424       4435       4434       4544       4545       4556       4555  
      4424       4425       4436       4435       4545       4546       4557       4556  
      4425       4426       4437       4436       4546       4547       4558       4557  
      4426       4427       4438       4437       4547       4548       4559       4558  
      4427       4428       4439       4438       4548       4549       4560       4559  
      4428       4429       4440       4439       4549       4550       4561       4560  
      4429       4430       4441       4440       4550       4551       4562       4561  
      4430       4431       4442       4441       4551       4552       4563       4562  
      4431       4432       4443       4442       4552       4553       4564       4563  
      4432       4433       4444       4443       4553       4554       4565       4564  
      4434       4435       4446       4445       4555       4556       4567       4566  
      4435       4436       4447       4446       4556       4557       4568       4567  
      4436       4437       4448       4447       4557       4558       4569       4568  
      4437       4438       4449       4448       4558       4559       4570       4569  
      4438       4439       4450       4449       4559       4560       4571       4570  
      4439       4440       4451       4450       4560       4561       4572       4571  
      4440       4441       4452       4451       4561       4562       4573       4572  
      4441       4442       4453       4452       4562       4563       4574       4573  
      4442       4443       4454       4453       4563       4564       4575       4574  
      4443       4444       4455       4454       4564       4565       4576       4575  
      4445       4446       4457       4456       4566       4567       4578       4577  
      4446       4447       4458       4457       4567       4568       4579       4578  
      4447       4448       4459       4458       4568       4569       4580       4579  
      4448       4449       4460       4459       4569       4570       4581       4580  
      4449       4450       4461       4460       4570       4571       4582       4581  
      4450       4451       4462       4461       4571       4572       4583       4582  
      4451       4452       4463       4462       4572       4573       4584       4583  
      4452       4453       4464       4463       4573       4574       4585       4584  
      4453       4454       4465       4464       4574       4575       4586       4585  
      4454       4455       4466       4465       4575       4576       4587       4586  
      4456       4457       4468       4467       4577       4578       4589       4588  
      4457       4458       4469       4468       4578       4579       4590       4589  
      4458       4459       4470       4469       4579       4580       4591       4590  
      4459       4460       4471       4470       4580       4581       4592       4591  
      4460       4461       4472       4471       4581       4582       4593       4592  
      4461       4462       4473       4472       4582       4583       4594       4593  
      4462       4463       4474       4473       4583       4584       4595       4594  
      4463       4464       4475       4474       4584       4585       4596       4595  
      4464       4465       4476       4475       4585       4586       4597       4596  
      4465       4466       4477       4476       4586       4587       4598       4597  
      4478       4479       4490       4489       4599       4600       4611       4610  
      4479       4480       4491       4490       4600       4601       4612       4611  
      4480       4481       4492       4491       4601       4602       4613       4612  
      4481       4482       4493       4492       4602       4603       4614       4613  
      4482       4483       4494       4493       4603       4604       4615       4614  
      4483       4484       4495       4494       4604       4605       4616       4615  
      4484       4485       4496       4495       4605       4606       4617       4616  
      4485       4486       4497       4496       4606       4607       4618       4617  
      4486       4487       4498       4497       4607       4608       4619       4618  
      4487       4488       4499       4498       4608       4609       4620       4619  
      4489       4490       4501       4500       4610       4611       4622       4621  
      4490       4491       4502       4501       4611       4612       4623       4622  
      4491       4492       4503       4502       4612       4613       4624       4623  
      4492       4493       4504       4503       4613       4614       4625       4624  
      4493       4494       4505       4504       4614       4615       4626       4625  
      4494       4495       4506       4505       4615       4616       4627       4626  
      4495       4496       4507       4506       4616       4617       4628       4627  
      4496       4497       4508       4507       4617       4618       4629       4628  
      4497       4498       4509       4508       4618       4619       4630       4629  
      4498       4499       4510       4509       4619       4620       4631       4630  
      4500       4501       4512       4511       4621       4622       4633       4632  
      4501       4502       4513       4512       4622       4623       4634       4633  
      4502       4503       4514       4513       4623       4624       4635       4634  
      4503       4504       4515       4514       4624       4625       4636       4635  
      4504       4505       4516       4515       4625       4626       4637       4636  
      4505       4506       4517       4516       4626       4627       4638       4637  
      4506       4507       4518       4517       4627       4628       4639       4638  
      4507       4508       4519       4518       4628       4629       4640       4639  
      4508       4509       4520       4519       4629       4630       4641       4640  
      4509       4510       4521       4520       4630       4631       4642       4641  
      4511       4512       4523       4522       4632       4633       4644       4643  
      4512       4513       4524       4523       4633       4634       4645       4644  
      4513       4514       4525       4524       4634       4635       4646       4645  
      4514       4515       4526       4525       4635       4636       4647       4646  
      4515       4516       4527       4526       4636       4637       4648       4647  
      4516       4517       4528       4527       4637       4638       4649       4648  
      4517       4518       4529       4528       4638       4639       4650       4649  
      4518       4519       4530       4529       4639       4640       4651       4650  
      4519       4520       4531       4530       4640       4641       4652       4651  
      4520       4521       4532       4531       4641       4642       4653       4652  
      4522       4523       4534       4533       4643       4644       4655       4654  
      4523       4524       4535       4534       4644       4645       4656       4655  
      4524       4525       4536       4535       4645       4646       4657       4656  
      4525       4526       4537       4536       4646       4647       4658       4657  
      4526       4527       4538       4537       4647       4648       4659       4658  
      4527       4528       4539       4538       4648       4649       4660       4659  
      4528       4529       4540       4539       4649       4650       4661       4660  
      4529       4530       4541       4540       4650       4651       4662       4661  
      4530       4531       4542       4541       4651       4652       4663       4662  
      4531       4532       4543       4542       4652       4653       4664       4663  
      4533       4534       4545       4544       4654       4655       4666       4665  
      4534       4535       4546       4545       4655       4656       4667       4666  
      4535       4536       4547       4546       4656       4657       4668       4667  
      4536       4537       4548       4547       4657       4658       4669       4668  
      4537       4538       4549       4548       4658       4659       4670       4669  
      4538       4539       4550       4549       4659       4660       4671       4670  
      4539       4540       4551       4550       4660       4661       4672       4671  
      4540       4541       4552       4551       4661       4662       4673       4672  
      4541       4542       4553       4552       4662       4663       4674       4673  
      4542       4543       4554       4553       4663       4664       4675       4674  
      4544       4545       4556       4555       4665       4666       4677       4676  
      4545       4546       4557       4556       4666       4667       4678       4677  
      4546       4547       4558       4557       4667       4668       4679       4678  
      4547       4548       4559       4558       4668       4669       4680       4679  
      4548       4549       4560       4559       4669       4670       4681       4680  
      4549       4550       4561       4560       4670       4671       4682       4681  
      4550       4551       4562       4561       4671       4672       4683       4682  
      4551       4552       4563       4562       4672       4673       4684       4683  
      4552       4553       4564       4563       4673       4674       4685       4684  
      4553       4554       4565       4564       4674       4675       4686       4685  
      4555       4556       4567       4566       4676       4677       4688       4687  
      4556       4557       4568       4567       4677       4678       4689       4688  
      4557       4558       4569       4568       4678       4679       4690       4689  
      4558       4559       4570       4569       4679       4680       4691       4690  
      4559       4560       4571       4570       4680       4681       4692       4691  
      4560       4561       4572       4571       4681       4682       4693       4692  
      4561       4562       4573       4572       4682       4683       4694       4693  
      4562       4563       4574       4573       4683       4684       4695       4694  
      4563       4564       4575       4574       4684       4685       4696       4695  
      4564       4565       4576       4575       4685       4686       4697       4696  
      4566       4567       4578       4577       4687       4688       4699       4698  
      4567       4568       4579       4578       4688       4689       4700       4699  
      4568       4569       4580       4579       4689       4690       4701       4700  
      4569       4570       4581       4580       4690       4691       4702       4701  
      4570       4571       4582       4581       4691       4692       4703       4702  
      4571       4572       4583       4582       4692       4693       4704       4703  
      4572       4573       4584       4583       4693       4694       4705       4704  
      4573       4574       4585       4584       4694       4695       4706       4705  
      4574       4575       4586       4585       4695       4696       4707       4706  
      4575       4576       4587       4586       4696       4697       4708       4707  
      4577       4578       4589       4588       4698       4699       4710       4709  
      4578       4579       4590       4589       4699       4700       4711       4710  
      4579       4580       4591       4590       4700       4701       4712       4711  
      4580       4581       4592       4591       4701       4702       4713       4712  
      4581       4582       4593       4592       4702       4703       4714       4713  
      4582       4583       4594       4593       4703       4704       4715       4714  
      4583       4584       4595       4594       4704       4705       4716       4715  
      4584       4585       4596       4595       4705       4706       4717       4716  
      4585       4586       4597       4596       4706       4707       4718       4717  
      4586       4587       4598       4597       4707       4708       4719       4718  
      4599       4600       4611       4610       4720       4721       4732       4731  
      4600       4601       4612       4611       4721       4722       4733       4732  
      4601       4602       4613       4612       4722       4723       4734       4733  
      4602       4603       4614       4613       4723       4724       4735       4734  
      4603       4604       4615       4614       4724       4725       4736       4735  
      4604       4605       4616       4615       4725       4726       4737       4736  
      4605       4606       4617       4616       4726       4727       4738       4737  
      4606       4607       4618       4617       4727       4728       4739       4738  
      4607       4608       4619       4618       4728       4729       4740       4739  
      4608       4609       4620       4619       4729       4730       4741       4740  
      4610       4611       4622       4621       4731       4732       4743       4742  
      4611       4612       4623       4622       4732       4733       4744       4743  
      4612       4613       4624       4623       4733       4734       4745       4744  
      4613       4614       4625       4624       4734       4735       4746       4745  
      4614       4615       4626       4625       4735       4736       4747       4746  
      4615       4616       4627       4626       4736       4737       4748       4747  
      4616       4617       4628       4627       4737       4738       4749       4748  
      4617       4618       4629       4628       4738       4739       4750       4749  
      4618       4619       4630       4629       4739       4740       4751       4750  
      4619       4620       4631       4630       4740       4741       4752       4751  
      4621       4622       4633       4632       4742       4743       4754       4753  
      4622       4623       4634       4633       4743       4744       4755       4754  
      4623       4624       4635       4634       4744       4745       4756       4755  
      4624       4625       4636       4635       4745       4746       4757       4756  
      4625       4626       4637       4636       4746       4747       4758       4757  
      4626       4627       4638       4637       4747       4748       4759       4758  
      4627       4628       4639       4638       4748       4749       4760       4759  
      4628       4629       4640       4639       4749       4750       4761       4760  
      4629       4630       4641       4640       4750       4751       4762       4761  
      4630       4631       4642       4641       4751       4752       4763       4762  
      4632       4633       4644       4643       4753       4754       4765       4764  
      4633       4634       4645       4644       4754       4755       4766       4765  
      4634       4635       4646       4645       4755       4756       4767       4766  
      4635       4636       4647       4646       4756       4757       4768       4767  
      4636       4637       4648       4647       4757       4758       4769       4768  
      4637       4638       4649       4648       4758       4759       4770       4769  
      4638       4639       4650       4649       4759       4760       4771       4770  
      4639       4640       4651       4650       4760       4761       4772       4771  
      4640       4641       4652       4651       4761       4762       4773       4772  
      4641       4642       4653       4652       4762       4763       4774       4773  
      4643       4644       4655       4654       4764       4765       4776       4775  
      4644       4645       4656       4655       4765       4766       4777       4776  
      4645       4646       4657       4656       4766       4767       4778       4777  
      4646       4647       4658       4657       4767       4768       4779       4778  
      4647       4648       4659       4658       4768       4769       4780       4779  
      4648       4649       4660       4659       4769       4770       4781       4780  
      4649       4650       4661       4660       4770       4771       4782       4781  
      4650       4651       4662       4661       4771       4772       4783       4782  
      4651       4652       4663       4662       4772       4773       4784       4783  
      4652       4653       4664       4663       4773       4774       4785       4784  
      4654       4655       4666       4665       4775       4776       4787       4786  
      4655       4656       4667       4666       4776       4777       4788       4787  
      4656       4657       4668       4667       4777       4778       4789       4788  
      4657       4658       4669       4668       4778       4779       4790       4789  
      4658       4659       4670       4669       4779       4780       4791       4790  
      4659       4660       4671       4670       4780       4781       4792       4791  
      4660       4661       4672       4671       4781       4782       4793       4792  
      4661       4662       4673       4672       4782       4783       4794       4793  
      4662       4663       4674       4673       4783       4784       4795       4794  
      4663       4664       4675       4674       4784       4785       4796       4795  
      4665       4666       4677       4676       4786       4787       4798       4797  
      4666       4667       4678       4677       4787       4788       4799       4798  
      4667       4668       4679       4678       4788       4789       4800       4799  
      4668       4669       4680       4679       4789       4790       4801       4800  
      4669       4670       4681       4680       4790       4791       4802       4801  
      4670       4671       4682       4681       4791       4792       4803       4802  
      4671       4672       4683       4682       4792       4793       4804       4803  
      4672       4673       4684       4683       4793       4794       4805       4804  
      4673       4674       4685       4684       4794       4795       4806       4805  
      4674       4675       4686       4685       4795       4796       4807       4806  
      4676       4677       4688       4687       4797       4798       4809       4808  
      4677       4678       4689       4688       4798       4799       4810       4809  
      4678       4679       4690       4689       4799       4800       4811       4810  
      4679       4680       4691       4690       4800       4801       4812       4811  
      4680       4681       4692       4691       4801       4802       4813       4812  
      4681       4682       4693       4692       4802       4803       4814       4813  
      4682       4683       4694       4693       4803       4804       4815       4814  
      4683       4684       4695       4694       4804       4805       4816       4815  
      4684       4685       4696       4695       4805       4806       4817       4816  
      4685       4686       4697       4696       4806       4807       4818       4817  
      4687       4688       4699       4698       4808       4809       4820       4819  
      4688       4689       4700       4699       4809       4810       4821       4820  
      4689       4690       4701       4700       4810       4811       4822       4821  
      4690       4691       4702       4701       4811       4812       4823       4822  
      4691       4692       4703       4702       4812       4813       4824       4823  
      4692       4693       4704       4703       4813       4814       4825       4824  
      4693       4694       4705       4704       4814       4815       4826       4825  
      4694       4695       4706       4705       4815       4816       4827       4826  
      4695       4696       4707       4706       4816       4817       4828       4827  
      4696       4697       4708       4707       4817       4818       4829       4828  
      4698       4699       4710       4709       4819       4820       4831       4830  
      4699       4700       4711       4710       4820       4821       4832       4831  
      4700       4701       4712       4711       4821       4822       4833       4832  
      4701       4702       4713       4712       4822       4823       4834       4833  
      4702       4703       4714       4713       4823       4824       4835       4834  
      4703       4704       4715       4714       4824       4825       4836       4835  
      4704       4705       4716       4715       4825       4826       4837       4836  
      4705       4706       4717       4716       4826       4827       4838       4837  
      4706       4707       4718       4717       4827       4828       4839       4838  
      4707       4708       4719       4718       4828       4829       4840       4839  
      4720       4721       4732       4731       4841       4842       4853       4852  
      4721       4722       4733       4732       4842       4843       4854       4853  
      4722       4723       4734       4733       4843       4844       4855       4854  
      4723       4724       4735       4734       4844       4845       4856       4855  
      4724       4725       4736       4735       4845       4846       4857       4856  
      4725       4726       4737       4736       4846       4847       4858       4857  
      4726       4727       4738       4737       4847       4848       4859       4858  
      4727       4728       4739       4738       4848       4849       4860       4859  
      4728       4729       4740       4739       4849       4850       4861       4860  
      4729       4730       4741       4740       4850       4851       4862       4861  
      4731       4732       4743       4742       4852       4853       4864       4863  
      4732       4733       4744       4743       4853       4854       4865       4864  
      4733       4734       4745       4744       4854       4855       4866       4865  
      4734       4735       4746       4745       4855       4856       4867       4866  
      4735       4736       4747       4746       4856       4857       4868       4867  
      4736       4737       4748       4747       4857       4858       4869       4868  
      4737       4738       4749       4748       4858       4859       4870       4869  
      4738       4739       4750       4749       4859       4860       4871       4870  
      4739       4740       4751       4750       4860       4861       4872       4871  
      4740       4741       4752       4751       4861       4862       4873       4872  
      4742       4743       4754       4753       4863       4864       4875       4874  
      4743       4744       4755       4754       4864       4865       4876       4875  
      4744       4745       4756       4755       4865       4866       4877       4876  
      4745       4746       4757       4756       4866       4867       4878       4877  
      4746       4747       4758       4757       4867       4868       4879       4878  
      4747       4748       4759       4758       4868       4869       4880       4879  
      4748       4749       4760       4759       4869       4870       4881       4880  
      4749       4750       4761       4760       4870       4871       4882       4881  
      4750       4751       4762       4761       4871       4872       4883       4882  
      4751       4752       4763       4762       4872       4873       4884       4883  
      4753       4754       4765       4764       4874       4875       4886       4885  
      4754       4755       4766       4765       4875       4876       4887       4886  
      4755       4756       4767       4766       4876       4877       4888       4887  
      4756       4757       4768       4767       4877       4878       4889       4888  
      4757       4758       4769       4768       4878       4879       4890       4889  
      4758       4759       4770       4769       4879       4880       4891       4890  
      4759       4760       4771       4770       4880       4881       4892       4891  
      4760       4761       4772       4771       4881       4882       4893       4892  
      4761       4762       4773       4772       4882       4883       4894       4893  
      4762       4763       4774       4773       4883       4884       4895       4894  
      4764       4765       4776       4775       4885       4886       4897       4896  
      4765       4766       4777       4776       4886       4887       4898       4897  
      4766       4767       4778       4777       4887       4888       4899       4898  
      4767       4768       4779       4778       4888       4889       4900       4899  
      4768       4769       4780       4779       4889       4890       4901       4900  
      4769       4770       4781       4780       4890       4891       4902       4901  
      4770       4771       4782       4781       4891       4892       4903       4902  
      4771       4772       4783       4782       4892       4893       4904       4903  
      4772       4773       4784       4783       4893       4894       4905       4904  
      4773       4774       4785       4784       4894       4895       4906       4905  
      4775       4776       4787       4786       4896       4897       4908       4907  
      4776       4777       4788       4787       4897       4898       4909       4908  
      4777       4778       4789       4788       4898       4899       4910       4909  
      4778       4779       4790       4789       4899       4900       4911       4910  
      4779       4780       4791       4790       4900       4901       4912       4911  
      4780       4781       4792       4791       4901       4902       4913       4912  
      4781       4782       4793       4792       4902       4903       4914       4913  
      4782       4783       4794       4793       4903       4904       4915       4914  
      4783       4784       4795       4794       4904       4905       4916       4915  
      4784       4785       4796       4795       4905       4906       4917       4916  
      4786       4787       4798       4797       4907       4908       4919       4918  
      4787       4788       4799       4798       4908       4909       4920       4919  
      4788       4789       4800       4799       4909       4910       4921       4920  
      4789       4790       4801       4800       4910       4911       4922       4921  
      4790       4791       4802       4801       4911       4912       4923       4922  
      4791       4792       4803       4802       4912       4913       4924       4923  
      4792       4793       4804       4803       4913       4914       4925       4924  
      4793       4794       4805       4804       4914       4915       4926       4925  
      4794       4795       4806       4805       4915       4916       4927       4926  
      4795       4796       4807       4806       4916       4917       4928       4927  
      4797       4798       4809       4808       4918       4919       4930       4929  
      4798       4799       4810       4809       4919       4920       4931       4930  
      4799       4800       4811       4810       4920       4921       4932       4931  
      4800       4801       4812       4811       4921       4922       4933       4932  
      4801       4802       4813       4812       4922       4923       4934       4933  
      4802       4803       4814       4813       4923       4924       4935       4934  
      4803       4804       4815       4814       4924       4925       4936       4935  
      4804       4805       4816       4815       4925       4926       4937       4936  
      4805       4806       4817       4816       4926       4927       4938       4937  
      4806       4807       4818       4817       4927       4928       4939       4938  
      4808       4809       4820       4819       4929       4930       4941       4940  
      4809       4810       4821       4820       4930       4931       4942       4941  
      4810       4811       4822       4821       4931       4932       4943       4942  
      4811       4812       4823       4822       4932       4933       4944       4943  
      4812       4813       4824       4823       4933       4934       4945       4944  
      4813       4814       4825       4824       4934       4935       4946       4945  
      4814       4815       4826       4825       4935       4936       4947       4946  
      4815       4816       4827       4826       4936       4937       4948       4947  
      4816       4817       4828       4827       4937       4938       4949       4948  
      4817       4818       4829       4828       4938       4939       4950       4949  
      4819       4820       4831       4830       4940       4941       4952       4951  
      4820       4821       4832       4831       4941       4942       4953       4952  
      4821       4822       4833       4832       4942       4943       4954       4953  
      4822       4823       4834       4833       4943       4944       4955       4954  
      4823       4824       4835       4834       4944       4945       4956       4955  
      4824       4825       4836       4835       4945       4946       4957       4956  
      4825       4826       4837       4836       4946       4947       4958       4957  
      4826       4827       4838       4837       4947       4948       4959       4958  
      4827       4828       4839       4838       4948       4949       4960       4959  
      4828       4829       4840       4839       4949       4950       4961       4960  
      4841       4842       4853       4852       4962       4963       4974       4973  
      4842       4843       4854       4853       4963       4964       4975       4974  
      4843       4844       4855       4854       4964       4965       4976       4975  
      4844       4845       4856       4855       4965       4966       4977       4976  
      4845       4846       4857       4856       4966       4967       4978       4977  
      4846       4847       4858       4857       4967       4968       4979       4978  
      4847       4848       4859       4858       4968       4969       4980       4979  
      4848       4849       4860       4859       4969       4970       4981       4980  
      4849       4850       4861       4860       4970       4971       4982       4981  
      4850       4851       4862       4861       4971       4972       4983       4982  
      4852       4853       4864       4863       4973       4974       4985       4984  
      4853       4854       4865       4864       4974       4975       4986       4985  
      4854       4855       4866       4865       4975       4976       4987       4986  
      4855       4856       4867       4866       4976       4977       4988       4987  
      4856       4857       4868       4867       4977       4978       4989       4988  
      4857       4858       4869       4868       4978       4979       4990       4989  
      4858       4859       4870       4869       4979       4980       4991       4990  
      4859       4860       4871       4870       4980       4981       4992       4991  
      4860       4861       4872       4871       4981       4982       4993       4992  
      4861       4862       4873       4872       4982       4983       4994       4993  
      4863       4864       4875       4874       4984       4985       4996       4995  
      4864       4865       4876       4875       4985       4986       4997       4996  
      4865       4866       4877       4876       4986       4987       4998       4997  
      4866       4867       4878       4877       4987       4988       4999       4998  
      4867       4868       4879       4878       4988       4989       5000       4999  
      4868       4869       4880       4879       4989       4990       5001       5000  
      4869       4870       4881       4880       4990       4991       5002       5001  
      4870       4871       4882       4881       4991       4992       5003       5002  
      4871       4872       4883       4882       4992       4993       5004       5003  
      4872       4873       4884       4883       4993       4994       5005       5004  
      4874       4875       4886       4885       4995       4996       5007       5006  
      4875       4876       4887       4886       4996       4997       5008       5007  
      4876       4877       4888       4887       4997       4998       5009       5008  
      4877       4878       4889       4888       4998       4999       5010       5009  
      4878       4879       4890       4889       4999       5000       5011       5010  
      4879       4880       4891       4890       5000       5001       5012       5011  
      4880       4881       4892       4891       5001       5002       5013       5012  
      4881       4882       4893       4892       5002       5003       5014       5013  
      4882       4883       4894       4893       5003       5004       5015       5014  
      4883       4884       4895       4894       5004       5005       5016       5015  
      4885       4886       4897       4896       5006       5007       5018       5017  
      4886       4887       4898       4897       5007       5008       5019       5018  
      4887       4888       4899       4898       5008       5009       5020       5019  
      4888       4889       4900       4899       5009       5010       5021       5020  
      4889       4890       4901       4900       5010       5011       5022       5021  
      4890       4891       4902       4901       5011       5012       5023       5022  
      4891       4892       4903       4902       5012       5013       5024       5023  
      4892       4893       4904       4903       5013       5014       5025       5024  
      4893       4894       4905       4904       5014       5015       5026       5025  
      4894       4895       4906       4905       5015       5016       5027       5026  
      4896       4897       4908       4907       5017       5018       5029       5028  
      4897       4898       4909       4908       5018       5019       5030       5029  
      4898       4899       4910       4909       5019       5020       5031       5030  
      4899       4900       4911       4910       5020       5021       5032       5031  
      4900       4901       4912       4911       5021       5022       5033       5032  
      4901       4902       4913       4912       5022       5023       5034       5033  
      4902       4903       4914       4913       5023       5024       5035       5034  
      4903       4904       4915       4914       5024       5025       5036       5035  
      4904       4905       4916       4915       5025       5026       5037       5036  
      4905       4906       4917       4916       5026       5027       5038       5037  
      4907       4908       4919       4918       5028       5029       5040       5039  
      4908       4909       4920       4919       5029       5030       5041       5040  
      4909       4910       4921       4920       5030       5031       5042       5041  
      4910       4911       4922       4921       5031       5032       5043       5042  
      4911       4912       4923       4922       5032       5033       5044       5043  
      4912       4913       4924       4923       5033       5034       5045       5044  
      4913       4914       4925       4924       5034       5035       5046       5045  
      4914       4915       4926       4925       5035       5036       5047       5046  
      4915       4916       4927       4926       5036       5037       5048       5047  
      4916       4917       4928       4927       5037       5038       5049       5048  
      4918       4919       4930       4929       5039       5040       5051       5050  
      4919       4920       4931       4930       5040       5041       5052       5051  
      4920       4921       4932       4931       5041       5042       5053       5052  
      4921       4922       4933       4932       5042       5043       5054       5053  
      4922       4923       4934       4933       5043       5044       5055       5054  
      4923       4924       4935       4934       5044       5045       5056       5055  
      4924       4925       4936       4935       5045       5046       5057       5056  
      4925       4926       4937       4936       5046       5047       5058       5057  
      4926       4927       4938       4937       5047       5048       5059       5058  
      4927       4928       4939       4938       5048       5049       5060       5059  
      4929       4930       4941       4940       5050       5051       5062       5061  
      4930       4931       4942       4941       5051       5052       5063       5062  
      4931       4932       4943       4942       5052       5053       5064       5063  
      4932       4933       4944       4943       5053       5054       5065       5064  
      4933       4934       4945       4944       5054       5055       5066       5065  
      4934       4935       4946       4945       5055       5056       5067       5066  
      4935       4936       4947       4946       5056       5057       5068       5067  
      4936       4937       4948       4947       5057       5058       5069       5068  
      4937       4938       4949       4948       5058       5059       5070       5069  
      4938       4939       4950       4949       5059       5060       5071       5070  
      4940       4941       4952       4951       5061       5062       5073       5072  
      4941       4942       4953       4952       5062       5063       5074       5073  
      4942       4943       4954       4953       5063       5064       5075       5074  
      4943       4944       4955       4954       5064       5065       5076       5075  
      4944       4945       4956       4955       5065       5066       5077       5076  
      4945       4946       4957       4956       5066       5067       5078       5077  
      4946       4947       4958       4957       5067       5068       5079       5078  
      4947       4948       4959       4958       5068       5069       5080       5079  
      4948       4949       4960       4959       5069       5070       5081       5080  
      4949       4950       4961       4960       5070       5071       5082       5081  
      4962       4963       4974       4973       5083       5084       5095       5094  
      4963       4964       4975       4974       5084       5085       5096       5095  
      4964       4965       4976       4975       5085       5086       5097       5096  
      4965       4966       4977       4976       5086       5087       5098       5097  
      4966       4967       4978       4977       5087       5088       5099       5098  
      4967       4968       4979       4978       5088       5089       5100       5099  
      4968       4969       4980       4979       5089       5090       5101       5100  
      4969       4970       4981       4980       5090       5091       5102       5101  
      4970       4971       4982       4981       5091       5092       5103       5102  
      4971       4972       4983       4982       5092       5093       5104       5103  
      4973       4974       4985       4984       5094       5095       5106       5105  
      4974       4975       4986       4985       5095       5096       5107       5106  
      4975       4976       4987       4986       5096       5097       5108       5107  
      4976       4977       4988       4987       5097       5098       5109       5108  
      4977       4978       4989       4988       5098       5099       5110       5109  
      4978       4979       4990       4989       5099       5100       5111       5110  
      4979       4980       4991       4990       5100       5101       5112       5111  
      4980       4981       4992       4991       5101       5102       5113       5112  
      4981       4982       4993       4992       5102       5103       5114       5113  
      4982       4983       4994       4993       5103       5104       5115       5114  
      4984       4985       4996       4995       5105       5106       5117       5116  
      4985       4986       4997       4996       5106       5107       5118       5117  
      4986       4987       4998       4997       5107       5108       5119       5118  
      4987       4988       4999       4998       5108       5109       5120       5119  
      4988       4989       5000       4999       5109       5110       5121       5120  
      4989       4990       5001       5000       5110       5111       5122       5121  
      4990       4991       5002       5001       5111       5112       5123       5122  
      4991       4992       5003       5002       5112       5113       5124       5123  
      4992       4993       5004       5003       5113       5114       5125       5124  
      4993       4994       5005       5004       5114       5115       5126       5125  
      4995       4996       5007       5006       5116       5117       5128       5127  
      4996       4997       5008       5007       5117       5118       5129       5128  
      4997       4998       5009       5008       5118       5119       5130       5129  
      4998       4999       5010       5009       5119       5120       5131       5130  
      4999       5000       5011       5010       5120       5121       5132       5131  
      5000       5001       5012       5011       5121       5122       5133       5132  
      5001       5002       5013       5012       5122       5123       5134       5133  
      5002       5003       5014       5013       5123       5124       5135       5134  
      5003       5004       5015       5014       5124       5125       5136       5135  
      5004       5005       5016       5015       5125       5126       5137       5136  
      5006       5007       5018       5017       5127       5128       5139       5138  
      5007       5008       5019       5018       5128       5129       5140       5139  
      5008       5009       5020       5019       5129       5130       5141       5140  
      5009       5010       5021       5020       5130       5131       5142       5141  
      5010       5011       5022       5021       5131       5132       5143       5142  
      5011       5012       5023       5022       5132       5133       5144       5143  
      5012       5013       5024       5023       5133       5134       5145       5144  
      5013       5014       5025       5024       5134       5135       5146       5145  
      5014       5015       5026       5025       5135       5136       5147       5146  
      5015       5016       5027       5026       5136       5137       5148       5147  
      5017       5018       5029       5028       5138       5139       5150       5149  
      5018       5019       5030       5029       5139       5140       5151       5150  
      5019       5020       5031       5030       5140       5141       5152       5151  
      5020       5021       5032       5031       5141       5142       5153       5152  
      5021       5022       5033       5032       5142       5143       5154       5153  
      5022       5023       5034       5033       5143       5144       5155       5154  
      5023       5024       5035       5034       5144       5145       5156       5155  
      5024       5025       5036       5035       5145       5146       5157       5156  
      5025       5026       5037       5036       5146       5147       5158       5157  
      5026       5027       5038       5037       5147       5148       5159       5158  
      5028       5029       5040       5039       5149       5150       5161       5160  
      5029       5030       5041       5040       5150       5151       5162       5161  
      5030       5031       5042       5041       5151       5152       5163       5162  
      5031       5032       5043       5042       5152       5153       5164       5163  
      5032       5033       5044       5043       5153       5154       5165       5164  
      5033       5034       5045       5044       5154       5155       5166       5165  
      5034       5035       5046       5045       5155       5156       5167       5166  
      5035       5036       5047       5046       5156       5157       5168       5167  
      5036       5037       5048       5047       5157       5158       5169       5168  
      5037       5038       5049       5048       5158       5159       5170       5169  
      5039       5040       5051       5050       5160       5161       5172       5171  
      5040       5041       5052       5051       5161       5162       5173       5172  
      5041       5042       5053       5052       5162       5163       5174       5173  
      5042       5043       5054       5053       5163       5164       5175       5174  
      5043       5044       5055       5054       5164       5165       5176       5175  
      5044       5045       5056       5055       5165       5166       5177       5176  
      5045       5046       5057       5056       5166       5167       5178       5177  
      5046       5047       5058       5057       5167       5168       5179       5178  
      5047       5048       5059       5058       5168       5169       5180       5179  
      5048       5049       5060       5059       5169       5170       5181       5180  
      5050       5051       5062       5061       5171       5172       5183       5182  
      5051       5052       5063       5062       5172       5173       5184       5183  
      5052       5053       5064       5063       5173       5174       5185       5184  
      5053       5054       5065       5064       5174       5175       5186       5185  
      5054       5055       5066       5065       5175       5176       5187       5186  
      5055       5056       5067       5066       5176       5177       5188       5187  
      5056       5057       5068       5067       5177       5178       5189       5188  
      5057       5058       5069       5068       5178       5179       5190       5189  
      5058       5059       5070       5069       5179       5180       5191       5190  
      5059       5060       5071       5070       5180       5181       5192       5191  
      5061       5062       5073       5072       5182       5183       5194       5193  
      5062       5063       5074       5073       5183       5184       5195       5194  
      5063       5064       5075       5074       5184       5185       5196       5195  
      5064       5065       5076       5075       5185       5186       5197       5196  
      5065       5066       5077       5076       5186       5187       5198       5197  
      5066       5067       5078       5077       5187       5188       5199       5198  
      5067       5068       5079       5078       5188       5189       5200       5199  
      5068       5069       5080       5079       5189       5190       5201       5200  
      5069       5070       5081       5080       5190       5191       5202       5201  
      5070       5071       5082       5081       5191       5192       5203       5202  
      5083       5084       5095       5094       5204       5205       5216       5215  
      5084       5085       5096       5095       5205       5206       5217       5216  
      5085       5086       5097       5096       5206       5207       5218       5217  
      5086       5087       5098       5097       5207       5208       5219       5218  
      5087       5088       5099       5098       5208       5209       5220       5219  
      5088       5089       5100       5099       5209       5210       5221       5220  
      5089       5090       5101       5100       5210       5211       5222       5221  
      5090       5091       5102       5101       5211       5212       5223       5222  
      5091       5092       5103       5102       5212       5213       5224       5223  
      5092       5093       5104       5103       5213       5214       5225       5224  
      5094       5095       5106       5105       5215       5216       5227       5226  
      5095       5096       5107       5106       5216       5217       5228       5227  
      5096       5097       5108       5107       5217       5218       5229       5228  
      5097       5098       5109       5108       5218       5219       5230       5229  
      5098       5099       5110       5109       5219       5220       5231       5230  
      5099       5100       5111       5110       5220       5221       5232       5231  
      5100       5101       5112       5111       5221       5222       5233       5232  
      5101       5102       5113       5112       5222       5223       5234       5233  
      5102       5103       5114       5113       5223       5224       5235       5234  
      5103       5104       5115       5114       5224       5225       5236       5235  
      5105       5106       5117       5116       5226       5227       5238       5237  
      5106       5107       5118       5117       5227       5228       5239       5238  
      5107       5108       5119       5118       5228       5229       5240       5239  
      5108       5109       5120       5119       5229       5230       5241       5240  
      5109       5110       5121       5120       5230       5231       5242       5241  
      5110       5111       5122       5121       5231       5232       5243       5242  
      5111       5112       5123       5122       5232       5233       5244       5243  
      5112       5113       5124       5123       5233       5234       5245       5244  
      5113       5114       5125       5124       5234       5235       5246       5245  
      5114       5115       5126       5125       5235       5236       5247       5246  
      5116       5117       5128       5127       5237       5238       5249       5248  
      5117       5118       5129       5128       5238       5239       5250       5249  
      5118       5119       5130       5129       5239       5240       5251       5250  
      5119       5120       5131       5130       5240       5241       5252       5251  
      5120       5121       5132       5131       5241       5242       5253       5252  
      5121       5122       5133       5132       5242       5243       5254       5253  
      5122       5123       5134       5133       5243       5244       5255       5254  
      5123       5124       5135       5134       5244       5245       5256       5255  
      5124       5125       5136       5135       5245       5246       5257       5256  
      5125       5126       5137       5136       5246       5247       5258       5257  
      5127       5128       5139       5138       5248       5249       5260       5259  
      5128       5129       5140       5139       5249       5250       5261       5260  
      5129       5130       5141       5140       5250       5251       5262       5261  
      5130       5131       5142       5141       5251       5252       5263       5262  
      5131       5132       5143       5142       5252       5253       5264       5263  
      5132       5133       5144       5143       5253       5254       5265       5264  
      5133       5134       5145       5144       5254       5255       5266       5265  
      5134       5135       5146       5145       5255       5256       5267       5266  
      5135       5136       5147       5146       5256       5257       5268       5267  
      5136       5137       5148       5147       5257       5258       5269       5268  
      5138       5139       5150       5149       5259       5260       5271       5270  
      5139       5140       5151       5150       5260       5261       5272       5271  
      5140       5141       5152       5151       5261       5262       5273       5272  
      5141       5142       5153       5152       5262       5263       5274       5273  
      5142       5143       5154       5153       5263       5264       5275       5274  
      5143       5144       5155       5154       5264       5265       5276       5275  
      5144       5145       5156       5155       5265       5266       5277       5276  
      5145       5146       5157       5156       5266       5267       5278       5277  
      5146       5147       5158       5157       5267       5268       5279       5278  
      5147       5148       5159       5158       5268       5269       5280       5279  
      5149       5150       5161       5160       5270       5271       5282       5281  
      5150       5151       5162       5161       5271       5272       5283       5282  
      5151       5152       5163       5162       5272       5273       5284       5283  
      5152       5153       5164       5163       5273       5274       5285       5284  
      5153       5154       5165       5164       5274       5275       5286       5285  
      5154       5155       5166       5165       5275       5276       5287       5286  
      5155       5156       5167       5166       5276       5277       5288       5287  
      5156       5157       5168       5167       5277       5278       5289       5288  
      5157       5158       5169       5168       5278       5279       5290       5289  
      5158       5159       5170       5169       5279       5280       5291       5290  
      5160       5161       5172       5171       5281       5282       5293       5292  
      5161       5162       5173       5172       5282       5283       5294       5293  
      5162       5163       5174       5173       5283       5284       5295       5294  
      5163       5164       5175       5174       5284       5285       5296       5295  
      5164       5165       5176       5175       5285       5286       5297       5296  
      5165       5166       5177       5176       5286       5287       5298       5297  
      5166       5167       5178       5177       5287       5288       5299       5298  
      5167       5168       5179       5178       5288       5289       5300       5299  
      5168       5169       5180       5179       5289       5290       5301       5300  
      5169       5170       5181       5180       5290       5291       5302       5301  
      5171       5172       5183       5182       5292       5293       5304       5303  
      5172       5173       5184       5183       5293       5294       5305       5304  
      5173       5174       5185       5184       5294       5295       5306       5305  
      5174       5175       5186       5185       5295       5296       5307       5306  
      5175       5176       5187       5186       5296       5297       5308       5307  
      5176       5177       5188       5187       5297       5298       5309       5308  
      5177       5178       5189       5188       5298       5299       5310       5309  
      5178       5179       5190       5189       5299       5300       5311       5310  
      5179       5180       5191       5190       5300       5301       5312       5311  
      5180       5181       5192       5191       5301       5302       5313       5312  
      5182       5183       5194       5193       5303       5304       5315       5314  
      5183       5184       5195       5194       5304       5305       5316       5315  
      5184       5185       5196       5195       5305       5306       5317       5316  
      5185       5186       5197       5196       5306       5307       5318       5317  
      5186       5187       5198       5197       5307       5308       5319       5318  
      5187       5188       5199       5198       5308       5309       5320       5319  
      5188       5189       5200       5199       5309       5310       5321       5320  
      5189       5190       5201       5200       5310       5311       5322       5321  
      5190       5191       5202       5201       5311       5312       5323       5322  
      5191       5192       5203       5202       5312       5313       5324       5323  
      5204       5205       5216       5215       5325       5326       5337       5336  
      5205       5206       5217       5216       5326       5327       5338       5337  
      5206       5207       5218       5217       5327       5328       5339       5338  
      5207       5208       5219       5218       5328       5329       5340       5339  
      5208       5209       5220       5219       5329       5330       5341       5340  
      5209       5210       5221       5220       5330       5331       5342       5341  
      5210       5211       5222       5221       5331       5332       5343       5342  
      5211       5212       5223       5222       5332       5333       5344       5343  
      5212       5213       5224       5223       5333       5334       5345       5344  
      5213       5214       5225       5224       5334       5335       5346       5345  
      5215       5216       5227       5226       5336       5337       5348       5347  
      5216       5217       5228       5227       5337       5338       5349       5348  
      5217       5218       5229       5228       5338       5339       5350       5349  
      5218       5219       5230       5229       5339       5340       5351       5350  
      5219       5220       5231       5230       5340       5341       5352       5351  
      5220       5221       5232       5231       5341       5342       5353       5352  
      5221       5222       5233       5232       5342       5343       5354       5353  
      5222       5223       5234       5233       5343       5344       5355       5354  
      5223       5224       5235       5234       5344       5345       5356       5355  
      5224       5225       5236       5235       5345       5346       5357       5356  
      5226       5227       5238       5237       5347       5348       5359       5358  
      5227       5228       5239       5238       5348       5349       5360       5359  
      5228       5229       5240       5239       5349       5350       5361       5360  
      5229       5230       5241       5240       5350       5351       5362       5361  
      5230       5231       5242       5241       5351       5352       5363       5362  
      5231       5232       5243       5242       5352       5353       5364       5363  
      5232       5233       5244       5243       5353       5354       5365       5364  
      5233       5234       5245       5244       5354       5355       5366       5365  
      5234       5235       5246       5245       5355       5356       5367       5366  
      5235       5236       5247       5246       5356       5357       5368       5367  
      5237       5238       5249       5248       5358       5359       5370       5369  
      5238       5239       5250       5249       5359       5360       5371       5370  
      5239       5240       5251       5250       5360       5361       5372       5371  
      5240       5241       5252       5251       5361       5362       5373       5372  
      5241       5242       5253       5252       5362       5363       5374       5373  
      5242       5243       5254       5253       5363       5364       5375       5374  
      5243       5244       5255       5254       5364       5365       5376       5375  
      5244       5245       5256       5255       5365       5366       5377       5376  
      5245       5246       5257       5256       5366       5367       5378       5377  
      5246       5247       5258       5257       5367       5368       5379       5378  
      5248       5249       5260       5259       5369       5370       5381       5380  
      5249       5250       5261       5260       5370       5371       5382       5381  
      5250       5251       5262       5261       5371       5372       5383       5382  
      5251       5252       5263       5262       5372       5373       5384       5383  
      5252       5253       5264       5263       5373       5374       5385       5384  
      5253       5254       5265       5264       5374       5375       5386       5385  
      5254       5255       5266       5265       5375       5376       5387       5386  
      5255       5256       5267       5266       5376       5377       5388       5387  
      5256       5257       5268       5267       5377       5378       5389       5388  
      5257       5258       5269       5268       5378       5379       5390       5389  
      5259       5260       5271       5270       5380       5381       5392       5391  
      5260       5261       5272       5271       5381       5382       5393       5392  
      5261       5262       5273       5272       5382       5383       5394       5393  
      5262       5263       5274       5273       5383       5384       5395       5394  
      5263       5264       5275       5274       5384       5385       5396       5395  
      5264       5265       5276       5275       5385       5386       5397       5396  
      5265       5266       5277       5276       5386       5387       5398       5397  
      5266       5267       5278       5277       5387       5388       5399       5398  
      5267       5268       5279       5278       5388       5389       5400       5399  
      5268       5269       5280       5279       5389       5390       5401       5400  
      5270       5271       5282       5281       5391       5392       5403       5402  
      5271       5272       5283       5282       5392       5393       5404       5403  
      5272       5273       5284       5283       5393       5394       5405       5404  
      5273       5274       5285       5284       5394       5395       5406       5405  
      5274       5275       5286       5285       5395       5396       5407       5406  
      5275       5276       5287       5286       5396       5397       5408       5407  
      5276       5277       5288       5287       5397       5398       5409       5408  
      5277       5278       5289       5288       5398       5399       5410       5409  
      5278       5279       5290       5289       5399       5400       5411       5410  
      5279       5280       5291       5290       5400       5401       5412       5411  
      5281       5282       5293       5292       5402       5403       5414       5413  
      5282       5283       5294       5293       5403       5404       5415       5414  
      5283       5284       5295       5294       5404       5405       5416       5415  
      5284       5285       5296       5295       5405       5406       5417       5416  
      5285       5286       5297       5296       5406       5407       5418       5417  
      5286       5287       5298       5297       5407       5408       5419       5418  
      5287       5288       5299       5298       5408       5409       5420       5419  
      5288       5289       5300       5299       5409       5410       5421       5420  
      5289       5290       5301       5300       5410       5411       5422       5421  
      5290       5291       5302       5301       5411       5412       5423       5422  
      5292       5293       5304       5303       5413       5414       5425       5424  
      5293       5294       5305       5304       5414       5415       5426       5425  
      5294       5295       5306       5305       5415       5416       5427       5426  
      5295       5296       5307       5306       5416       5417       5428       5427  
      5296       5297       5308       5307       5417       5418       5429       5428  
      5297       5298       5309       5308       5418       5419       5430       5429  
      5298       5299       5310       5309       5419       5420       5431       5430  
      5299       5300       5311       5310       5420       5421       5432       5431  
      5300       5301       5312       5311       5421       5422       5433       5432  
      5301       5302       5313       5312       5422       5423       5434       5433  
      5303       5304       5315       5314       5424       5425       5436       5435  
      5304       5305       5316       5315       5425       5426       5437       5436  
      5305       5306       5317       5316       5426       5427       5438       5437  
      5306       5307       5318       5317       5427       5428       5439       5438  
      5307       5308       5319       5318       5428       5429       5440       5439  
      5308       5309       5320       5319       5429       5430       5441       5440  
      5309       5310       5321       5320       5430       5431       5442       5441  
      5310       5311       5322       5321       5431       5432       5443       5442  
      5311       5312       5323       5322       5432       5433       5444       5443  
      5312       5313       5324       5323       5433       5434       5445       5444  
      5325       5326       5337       5336       5446       5447       5458       5457  
      5326       5327       5338       5337       5447       5448       5459       5458  
      5327       5328       5339       5338       5448       5449       5460       5459  
      5328       5329       5340       5339       5449       5450       5461       5460  
      5329       5330       5341       5340       5450       5451       5462       5461  
      5330       5331       5342       5341       5451       5452       5463       5462  
      5331       5332       5343       5342       5452       5453       5464       5463  
      5332       5333       5344       5343       5453       5454       5465       5464  
      5333       5334       5345       5344       5454       5455       5466       5465  
      5334       5335       5346       5345       5455       5456       5467       5466  
      5336       5337       5348       5347       5457       5458       5469       5468  
      5337       5338       5349       5348       5458       5459       5470       5469  
      5338       5339       5350       5349       5459       5460       5471       5470  
      5339       5340       5351       5350       5460       5461       5472       5471  
      5340       5341       5352       5351       5461       5462       5473       5472  
      5341       5342       5353       5352       5462       5463       5474       5473  
      5342       5343       5354       5353       5463       5464       5475       5474  
      5343       5344       5355       5354       5464       5465       5476       5475  
      5344       5345       5356       5355       5465       5466       5477       5476  
      5345       5346       5357       5356       5466       5467       5478       5477  
      5347       5348       5359       5358       5468       5469       5480       5479  
      5348       5349       5360       5359       5469       5470       5481       5480  
      5349       5350       5361       5360       5470       5471       5482       5481  
      5350       5351       5362       5361       5471       5472       5483       5482  
      5351       5352       5363       5362       5472       5473       5484       5483  
      5352       5353       5364       5363       5473       5474       5485       5484  
      5353       5354       5365       5364       5474       5475       5486       5485  
      5354       5355       5366       5365       5475       5476       5487       5486  
      5355       5356       5367       5366       5476       5477       5488       5487  
      5356       5357       5368       5367       5477       5478       5489       5488  
      5358       5359       5370       5369       5479       5480       5491       5490  
      5359       5360       5371       5370       5480       5481       5492       5491  
      5360       5361       5372       5371       5481       5482       5493       5492  
      5361       5362       5373       5372       5482       5483       5494       5493  
      5362       5363       5374       5373       5483       5484       5495       5494  
      5363       5364       5375       5374       5484       5485       5496       5495  
      5364       5365       5376       5375       5485       5486       5497       5496  
      5365       5366       5377       5376       5486       5487       5498       5497  
      5366       5367       5378       5377       5487       5488       5499       5498  
      5367       5368       5379       5378       5488       5489       5500       5499  
      5369       5370       5381       5380       5490       5491       5502       5501  
      5370       5371       5382       5381       5491       5492       5503       5502  
      5371       5372       5383       5382       5492       5493       5504       5503  
      5372       5373       5384       5383       5493       5494       5505       5504  
      5373       5374       5385       5384       5494       5495       5506       5505  
      5374       5375       5386       5385       5495       5496       5507       5506  
      5375       5376       5387       5386       5496       5497       5508       5507  
      5376       5377       5388       5387       5497       5498       5509       5508  
      5377       5378       5389       5388       5498       5499       5510       5509  
      5378       5379       5390       5389       5499       5500       5511       5510  
      5380       5381       5392       5391       5501       5502       5513       5512  
      5381       5382       5393       5392       5502       5503       5514       5513  
      5382       5383       5394       5393       5503       5504       5515       5514  
      5383       5384       5395       5394       5504       5505       5516       5515  
      5384       5385       5396       5395       5505       5506       5517       5516  
      5385       5386       5397       5396       5506       5507       5518       5517  
      5386       5387       5398       5397       5507       5508       5519       5518  
      5387       5388       5399       5398       5508       5509       5520       5519  
      5388       5389       5400       5399       5509       5510       5521       5520  
      5389       5390       5401       5400       5510       5511       5522       5521  
      5391       5392       5403       5402       5512       5513       5524       5523  
      5392       5393       5404       5403       5513       5514       5525       5524  
      5393       5394       5405       5404       5514       5515       5526       5525  
      5394       5395       5406       5405       5515       5516       5527       5526  
      5395       5396       5407       5406       5516       5517       5528       5527  
      5396       5397       5408       5407       5517       5518       5529       5528  
      5397       5398       5409       5408       5518       5519       5530       5529  
      5398       5399       5410       5409       5519       5520       5531       5530  
      5399       5400       5411       5410       5520       5521       5532       5531  
      5400       5401       5412       5411       5521       5522       5533       5532  
      5402       5403       5414       5413       5523       5524       5535       5534  
      5403       5404       5415       5414       5524       5525       5536       5535  
      5404       5405       5416       5415       5525       5526       5537       5536  
      5405       5406       5417       5416       5526       5527       5538       5537  
      5406       5407       5418       5417       5527       5528       5539       5538  
      5407       5408       5419       5418       5528       5529       5540       5539  
      5408       5409       5420       5419       5529       5530       5541       5540  
      5409       5410       5421       5420       5530       5531       5542       5541  
      5410       5411       5422       5421       5531       5532       5543       5542  
      5411       5412       5423       5422       5532       5533       5544       5543  
      5413       5414       5425       5424       5534       5535       5546       5545  
      5414       5415       5426       5425       5535       5536       5547       5546  
      5415       5416       5427       5426       5536       5537       5548       5547  
      5416       5417       5428       5427       5537       5538       5549       5548  
      5417       5418       5429       5428       5538       5539       5550       5549  
      5418       5419       5430       5429       5539       5540       5551       5550  
      5419       5420       5431       5430       5540       5541       5552       5551  
      5420       5421       5432       5431       5541       5542       5553       5552  
      5421       5422       5433       5432       5542       5543       5554       5553  
      5422       5423       5434       5433       5543       5544       5555       5554  
      5424       5425       5436       5435       5545       5546       5557       5556  
      5425       5426       5437       5436       5546       5547       5558       5557  
      5426       5427       5438       5437       5547       5548       5559       5558  
      5427       5428       5439       5438       5548       5549       5560       5559  
      5428       5429       5440       5439       5549       5550       5561       5560  
      5429       5430       5441       5440       5550       5551       5562       5561  
      5430       5431       5442       5441       5551       5552       5563       5562  
      5431       5432       5443       5442       5552       5553       5564       5563  
      5432       5433       5444       5443       5553       5554       5565       5564  
      5433       5434       5445       5444       5554       5555       5566       5565  
      5446       5447       5458       5457       5567       5568       5579       5578  
      5447       5448       5459       5458       5568       5569       5580       5579  
      5448       5449       5460       5459       5569       5570       5581       5580  
      5449       5450       5461       5460       5570       5571       5582       5581  
      5450       5451       5462       5461       5571       5572       5583       5582  
      5451       5452       5463       5462       5572       5573       5584       5583  
      5452       5453       5464       5463       5573       5574       5585       5584  
      5453       5454       5465       5464       5574       5575       5586       5585  
      5454       5455       5466       5465       5575       5576       5587       5586  
      5455       5456       5467       5466       5576       5577       5588       5587  
      5457       5458       5469       5468       5578       5579       5590       5589  
      5458       5459       5470       5469       5579       5580       5591       5590  
      5459       5460       5471       5470       5580       5581       5592       5591  
      5460       5461       5472       5471       5581       5582       5593       5592  
      5461       5462       5473       5472       5582       5583       5594       5593  
      5462       5463       5474       5473       5583       5584       5595       5594  
      5463       5464       5475       5474       5584       5585       5596       5595  
      5464       5465       5476       5475       5585       5586       5597       5596  
      5465       5466       5477       5476       5586       5587       5598       5597  
      5466       5467       5478       5477       5587       5588       5599       5598  
      5468       5469       5480       5479       5589       5590       5601       5600  
      5469       5470       5481       5480       5590       5591       5602       5601  
      5470       5471       5482       5481       5591       5592       5603       5602  
      5471       5472       5483       5482       5592       5593       5604       5603  
      5472       5473       5484       5483       5593       5594       5605       5604  
      5473       5474       5485       5484       5594       5595       5606       5605  
      5474       5475       5486       5485       5595       5596       5607       5606  
      5475       5476       5487       5486       5596       5597       5608       5607  
      5476       5477       5488       5487       5597       5598       5609       5608  
      5477       5478       5489       5488       5598       5599       5610       5609  
      5479       5480       5491       5490       5600       5601       5612       5611  
      5480       5481       5492       5491       5601       5602       5613       5612  
      5481       5482       5493       5492       5602       5603       5614       5613  
      5482       5483       5494       5493       5603       5604       5615       5614  
      5483       5484       5495       5494       5604       5605       5616       5615  
      5484       5485       5496       5495       5605       5606       5617       5616  
      5485       5486       5497       5496       5606       5607       5618       5617  
      5486       5487       5498       5497       5607       5608       5619       5618  
      5487       5488       5499       5498       5608       5609       5620       5619  
      5488       5489       5500       5499       5609       5610       5621       5620  
      5490       5491       5502       5501       5611       5612       5623       5622  
      5491       5492       5503       5502       5612       5613       5624       5623  
      5492       5493       5504       5503       5613       5614       5625       5624  
      5493       5494       5505       5504       5614       5615       5626       5625  
      5494       5495       5506       5505       5615       5616       5627       5626  
      5495       5496       5507       5506       5616       5617       5628       5627  
      5496       5497       5508       5507       5617       5618       5629       5628  
      5497       5498       5509       5508       5618       5619       5630       5629  
      5498       5499       5510       5509       5619       5620       5631       5630  
      5499       5500       5511       5510       5620       5621       5632       5631  
      5501       5502       5513       5512       5622       5623       5634       5633  
      5502       5503       5514       5513       5623       5624       5635       5634  
      5503       5504       5515       5514       5624       5625       5636       5635  
      5504       5505       5516       5515       5625       5626       5637       5636  
      5505       5506       5517       5516       5626       5627       5638       5637  
      5506       5507       5518       5517       5627       5628       5639       5638  
      5507       5508       5519       5518       5628       5629       5640       5639  
      5508       5509       5520       5519       5629       5630       5641       5640  
      5509       5510       5521       5520       5630       5631       5642       5641  
      5510       5511       5522       5521       5631       5632       5643       5642  
      5512       5513       5524       5523       5633       5634       5645       5644  
      5513       5514       5525       5524       5634       5635       5646       5645  
      5514       5515       5526       5525       5635       5636       5647       5646  
      5515       5516       5527       5526       5636       5637       5648       5647  
      5516       5517       5528       5527       5637       5638       5649       5648  
      5517       5518       5529       5528       5638       5639       5650       5649  
      5518       5519       5530       5529       5639       5640       5651       5650  
      5519       5520       5531       5530       5640       5641       5652       5651  
      5520       5521       5532       5531       5641       5642       5653       5652  
      5521       5522       5533       5532       5642       5643       5654       5653  
      5523       5524       5535       5534       5644       5645       5656       5655  
      5524       5525       5536       5535       5645       5646       5657       5656  
      5525       5526       5537       5536       5646       5647       5658       5657  
      5526       5527       5538       5537       5647       5648       5659       5658  
      5527       5528       5539       5538       5648       5649       5660       5659  
      5528       5529       5540       5539       5649       5650       5661       5660  
      5529       5530       5541       5540       5650       5651       5662       5661  
      5530       5531       5542       5541       5651       5652       5663       5662  
      5531       5532       5543       5542       5652       5653       5664       5663  
      5532       5533       5544       5543       5653       5654       5665       5664  
      5534       5535       5546       5545       5655       5656       5667       5666  
      5535       5536       5547       5546       5656       5657       5668       5667  
      5536       5537       5548       5547       5657       5658       5669       5668  
      5537       5538       5549       5548       5658       5659       5670       5669  
      5538       5539       5550       5549       5659       5660       5671       5670  
      5539       5540       5551       5550       5660       5661       5672       5671  
      5540       5541       5552       5551       5661       5662       5673       5672  
      5541       5542       5553       5552       5662       5663       5674       5673  
      5542       5543       5554       5553       5663       5664       5675       5674  
      5543       5544       5555       5554       5664       5665       5676       5675  
      5545       5546       5557       5556       5666       5667       5678       5677  
      5546       5547       5558       5557       5667       5668       5679       5678  
      5547       5548       5559       5558       5668       5669       5680       5679  
      5548       5549       5560       5559       5669       5670       5681       5680  
      5549       5550       5561       5560       5670       5671       5682       5681  
      5550       5551       5562       5561       5671       5672       5683       5682  
      5551       5552       5563       5562       5672       5673       5684       5683  
      5552       5553       5564       5563       5673       5674       5685       5684  
      5553       5554       5565       5564       5674       5675       5686       5685  
      5554       5555       5566       5565       5675       5676       5687       5686  
      5567       5568       5579       5578       5688       5689       5700       5699  
      5568       5569       5580       5579       5689       5690       5701       5700  
      5569       5570       5581       5580       5690       5691       5702       5701  
      5570       5571       5582       5581       5691       5692       5703       5702  
      5571       5572       5583       5582       5692       5693       5704       5703  
      5572       5573       5584       5583       5693       5694       5705       5704  
      5573       5574       5585       5584       5694       5695       5706       5705  
      5574       5575       5586       5585       5695       5696       5707       5706  
      5575       5576       5587       5586       5696       5697       5708       5707  
      5576       5577       5588       5587       5697       5698       5709       5708  
      5578       5579       5590       5589       5699       5700       5711       5710  
      5579       5580       5591       5590       5700       5701       5712       5711  
      5580       5581       5592       5591       5701       5702       5713       5712  
      5581       5582       5593       5592       5702       5703       5714       5713  
      5582       5583       5594       5593       5703       5704       5715       5714  
      5583       5584       5595       5594       5704       5705       5716       5715  
      5584       5585       5596       5595       5705       5706       5717       5716  
      5585       5586       5597       5596       5706       5707       5718       5717  
      5586       5587       5598       5597       5707       5708       5719       5718  
      5587       5588       5599       5598       5708       5709       5720       5719  
      5589       5590       5601       5600       5710       5711       5722       5721  
      5590       5591       5602       5601       5711       5712       5723       5722  
      5591       5592       5603       5602       5712       5713       5724       5723  
      5592       5593       5604       5603       5713       5714       5725       5724  
      5593       5594       5605       5604       5714       5715       5726       5725  
      5594       5595       5606       5605       5715       5716       5727       5726  
      5595       5596       5607       5606       5716       5717       5728       5727  
      5596       5597       5608       5607       5717       5718       5729       5728  
      5597       5598       5609       5608       5718       5719       5730       5729  
      5598       5599       5610       5609       5719       5720       5731       5730  
      5600       5601       5612       5611       5721       5722       5733       5732  
      5601       5602       5613       5612       5722       5723       5734       5733  
      5602       5603       5614       5613       5723       5724       5735       5734  
      5603       5604       5615       5614       5724       5725       5736       5735  
      5604       5605       5616       5615       5725       5726       5737       5736  
      5605       5606       5617       5616       5726       5727       5738       5737  
      5606       5607       5618       5617       5727       5728       5739       5738  
      5607       5608       5619       5618       5728       5729       5740       5739  
      5608       5609       5620       5619       5729       5730       5741       5740  
      5609       5610       5621       5620       5730       5731       5742       5741  
      5611       5612       5623       5622       5732       5733       5744       5743  
      5612       5613       5624       5623       5733       5734       5745       5744  
      5613       5614       5625       5624       5734       5735       5746       5745  
      5614       5615       5626       5625       5735       5736       5747       5746  
      5615       5616       5627       5626       5736       5737       5748       5747  
      5616       5617       5628       5627       5737       5738       5749       5748  
      5617       5618       5629       5628       5738       5739       5750       5749  
      5618       5619       5630       5629       5739       5740       5751       5750  
      5619       5620       5631       5630       5740       5741       5752       5751  
      5620       5621       5632       5631       5741       5742       5753       5752  
      5622       5623       5634       5633       5743       5744       5755       5754  
      5623       5624       5635       5634       5744       5745       5756       5755  
      5624       5625       5636       5635       5745       5746       5757       5756  
      5625       5626       5637       5636       5746       5747       5758       5757  
      5626       5627       5638       5637       5747       5748       5759       5758  
      5627       5628       5639       5638       5748       5749       5760       5759  
      5628       5629       5640       5639       5749       5750       5761       5760  
      5629       5630       5641       5640       5750       5751       5762       5761  
      5630       5631       5642       5641       5751       5752       5763       5762  
      5631       5632       5643       5642       5752       5753       5764       5763  
      5633       5634       5645       5644       5754       5755       5766       5765  
      5634       5635       5646       5645       5755       5756       5767       5766  
      5635       5636       5647       5646       5756       5757       5768       5767  
      5636       5637       5648       5647       5757       5758       5769       5768  
      5637       5638       5649       5648       5758       5759       5770       5769  
      5638       5639       5650       5649       5759       5760       5771       5770  
      5639       5640       5651       5650       5760       5761       5772       5771  
      5640       5641       5652       5651       5761       5762       5773       5772  
      5641       5642       5653       5652       5762       5763       5774       5773  
      5642       5643       5654       5653       5763       5764       5775       5774  
      5644       5645       5656       5655       5765       5766       5777       5776  
      5645       5646       5657       5656       5766       5767       5778       5777  
      5646       5647       5658       5657       5767       5768       5779       5778  
      5647       5648       5659       5658       5768       5769       5780       5779  
      5648       5649       5660       5659       5769       5770       5781       5780  
      5649       5650       5661       5660       5770       5771       5782       5781  
      5650       5651       5662       5661       5771       5772       5783       5782  
      5651       5652       5663       5662       5772       5773       5784       5783  
      5652       5653       5664       5663       5773       5774       5785       5784  
      5653       5654       5665       5664       5774       5775       5786       5785  
      5655       5656       5667       5666       5776       5777       5788       5787  
      5656       5657       5668       5667       5777       5778       5789       5788  
      5657       5658       5669       5668       5778       5779       5790       5789  
      5658       5659       5670       5669       5779       5780       5791       5790  
      5659       5660       5671       5670       5780       5781       5792       5791  
      5660       5661       5672       5671       5781       5782       5793       5792  
      5661       5662       5673       5672       5782       5783       5794       5793  
      5662       5663       5674       5673       5783       5784       5795       5794  
      5663       5664       5675       5674       5784       5785       5796       5795  
      5664       5665       5676       5675       5785       5786       5797       5796  
      5666       5667       5678       5677       5787       5788       5799       5798  
      5667       5668       5679       5678       5788       5789       5800       5799  
      5668       5669       5680       5679       5789       5790       5801       5800  
      5669       5670       5681       5680       5790       5791       5802       5801  
      5670       5671       5682       5681       5791       5792       5803       5802  
      5671       5672       5683       5682       5792       5793       5804       5803  
      5672       5673       5684       5683       5793       5794       5805       5804  
      5673       5674       5685       5684       5794       5795       5806       5805  
      5674       5675       5686       5685       5795       5796       5807       5806  
      5675       5676       5687       5686       5796       5797       5808       5807  
      5688       5689       5700       5699       5809       5810       5821       5820  
      5689       5690       5701       5700       5810       5811       5822       5821  
      5690       5691       5702       5701       5811       5812       5823       5822  
      5691       5692       5703       5702       5812       5813       5824       5823  
      5692       5693       5704       5703       5813       5814       5825       5824  
      5693       5694       5705       5704       5814       5815       5826       5825  
      5694       5695       5706       5705       5815       5816       5827       5826  
      5695       5696       5707       5706       5816       5817       5828       5827  
      5696       5697       5708       5707       5817       5818       5829       5828  
      5697       5698       5709       5708       5818       5819       5830       5829  
      5699       5700       5711       5710       5820       5821       5832       5831  
      5700       5701       5712       5711       5821       5822       5833       5832  
      5701       5702       5713       5712       5822       5823       5834       5833  
      5702       5703       5714       5713       5823       5824       5835       5834  
      5703       5704       5715       5714       5824       5825       5836       5835  
      5704       5705       5716       5715       5825       5826       5837       5836  
      5705       5706       5717       5716       5826       5827       5838       5837  
      5706       5707       5718       5717       5827       5828       5839       5838  
      5707       5708       5719       5718       5828       5829       5840       5839  
      5708       5709       5720       5719       5829       5830       5841       5840  
      5710       5711       5722       5721       5831       5832       5843       5842  
      5711       5712       5723       5722       5832       5833       5844       5843  
      5712       5713       5724       5723       5833       5834       5845       5844  
      5713       5714       5725       5724       5834       5835       5846       5845  
      5714       5715       5726       5725       5835       5836       5847       5846  
      5715       5716       5727       5726       5836       5837       5848       5847  
      5716       5717       5728       5727       5837       5838       5849       5848  
      5717       5718       5729       5728       5838       5839       5850       5849  
      5718       5719       5730       5729       5839       5840       5851       5850  
      5719       5720       5731       5730       5840       5841       5852       5851  
      5721       5722       5733       5732       5842       5843       5854       5853  
      5722       5723       5734       5733       5843       5844       5855       5854  
      5723       5724       5735       5734       5844       5845       5856       5855  
      5724       5725       5736       5735       5845       5846       5857       5856  
      5725       5726       5737       5736       5846       5847       5858       5857  
      5726       5727       5738       5737       5847       5848       5859       5858  
      5727       5728       5739       5738       5848       5849       5860       5859  
      5728       5729       5740       5739       5849       5850       5861       5860  
      5729       5730       5741       5740       5850       5851       5862       5861  
      5730       5731       5742       5741       5851       5852       5863       5862  
      5732       5733       5744       5743       5853       5854       5865       5864  
      5733       5734       5745       5744       5854       5855       5866       5865  
      5734       5735       5746       5745       5855       5856       5867       5866  
      5735       5736       5747       5746       5856       5857       5868       5867  
      5736       5737       5748       5747       5857       5858       5869       5868  
      5737       5738       5749       5748       5858       5859       5870       5869  
      5738       5739       5750       5749       5859       5860       5871       5870  
      5739       5740       5751       5750       5860       5861       5872       5871  
      5740       5741       5752       5751       5861       5862       5873       5872  
      5741       5742       5753       5752       5862       5863       5874       5873  
      5743       5744       5755       5754       5864       5865       5876       5875  
      5744       5745       5756       5755       5865       5866       5877       5876  
      5745       5746       5757       5756       5866       5867       5878       5877  
      5746       5747       5758       5757       5867       5868       5879       5878  
      5747       5748       5759       5758       5868       5869       5880       5879  
      5748       5749       5760       5759       5869       5870       5881       5880  
      5749       5750       5761       5760       5870       5871       5882       5881  
      5750       5751       5762       5761       5871       5872       5883       5882  
      5751       5752       5763       5762       5872       5873       5884       5883  
      5752       5753       5764       5763       5873       5874       5885       5884  
      5754       5755       5766       5765       5875       5876       5887       5886  
      5755       5756       5767       5766       5876       5877       5888       5887  
      5756       5757       5768       5767       5877       5878       5889       5888  
      5757       5758       5769       5768       5878       5879       5890       5889  
      5758       5759       5770       5769       5879       5880       5891       5890  
      5759       5760       5771       5770       5880       5881       5892       5891  
      5760       5761       5772       5771       5881       5882       5893       5892  
      5761       5762       5773       5772       5882       5883       5894       5893  
      5762       5763       5774       5773       5883       5884       5895       5894  
      5763       5764       5775       5774       5884       5885       5896       5895  
      5765       5766       5777       5776       5886       5887       5898       5897  
      5766       5767       5778       5777       5887       5888       5899       5898  
      5767       5768       5779       5778       5888       5889       5900       5899  
      5768       5769       5780       5779       5889       5890       5901       5900  
      5769       5770       5781       5780       5890       5891       5902       5901  
      5770       5771       5782       5781       5891       5892       5903       5902  
      5771       5772       5783       5782       5892       5893       5904       5903  
      5772       5773       5784       5783       5893       5894       5905       5904  
      5773       5774       5785       5784       5894       5895       5906       5905  
      5774       5775       5786       5785       5895       5896       5907       5906  
      5776       5777       5788       5787       5897       5898       5909       5908  
      5777       5778       5789       5788       5898       5899       5910       5909  
      5778       5779       5790       5789       5899       5900       5911       5910  
      5779       5780       5791       5790       5900       5901       5912       5911  
      5780       5781       5792       5791       5901       5902       5913       5912  
      5781       5782       5793       5792       5902       5903       5914       5913  
      5782       5783       5794       5793       5903       5904       5915       5914  
      5783       5784       5795       5794       5904       5905       5916       5915  
      5784       5785       5796       5795       5905       5906       5917       5916  
      5785       5786       5797       5796       5906       5907       5918       5917  
      5787       5788       5799       5798       5908       5909       5920       5919  
      5788       5789       5800       5799       5909       5910       5921       5920  
      5789       5790       5801       5800       5910       5911       5922       5921  
      5790       5791       5802       5801       5911       5912       5923       5922  
      5791       5792       5803       5802       5912       5913       5924       5923  
      5792       5793       5804       5803       5913       5914       5925       5924  
      5793       5794       5805       5804       5914       5915       5926       5925  
      5794       5795       5806       5805       5915       5916       5927       5926  
      5795       5796       5807       5806       5916       5917       5928       5927  
      5796       5797       5808       5807       5917       5918       5929       5928  
      5809       5810       5821       5820       5930       5931       5942       5941  
      5810       5811       5822       5821       5931       5932       5943       5942  
      5811       5812       5823       5822       5932       5933       5944       5943  
      5812       5813       5824       5823       5933       5934       5945       5944  
      5813       5814       5825       5824       5934       5935       5946       5945  
      5814       5815       5826       5825       5935       5936       5947       5946  
      5815       5816       5827       5826       5936       5937       5948       5947  
      5816       5817       5828       5827       5937       5938       5949       5948  
      5817       5818       5829       5828       5938       5939       5950       5949  
      5818       5819       5830       5829       5939       5940       5951       5950  
      5820       5821       5832       5831       5941       5942       5953       5952  
      5821       5822       5833       5832       5942       5943       5954       5953  
      5822       5823       5834       5833       5943       5944       5955       5954  
      5823       5824       5835       5834       5944       5945       5956       5955  
      5824       5825       5836       5835       5945       5946       5957       5956  
      5825       5826       5837       5836       5946       5947       5958       5957  
      5826       5827       5838       5837       5947       5948       5959       5958  
      5827       5828       5839       5838       5948       5949       5960       5959  
      5828       5829       5840       5839       5949       5950       5961       5960  
      5829       5830       5841       5840       5950       5951       5962       5961  
      5831       5832       5843       5842       5952       5953       5964       5963  
      5832       5833       5844       5843       5953       5954       5965       5964  
      5833       5834       5845       5844       5954       5955       5966       5965  
      5834       5835       5846       5845       5955       5956       5967       5966  
      5835       5836       5847       5846       5956       5957       5968       5967  
      5836       5837       5848       5847       5957       5958       5969       5968  
      5837       5838       5849       5848       5958       5959       5970       5969  
      5838       5839       5850       5849       5959       5960       5971       5970  
      5839       5840       5851       5850       5960       5961       5972       5971  
      5840       5841       5852       5851       5961       5962       5973       5972  
      5842       5843       5854       5853       5963       5964       5975       5974  
      5843       5844       5855       5854       5964       5965       5976       5975  
      5844       5845       5856       5855       5965       5966       5977       5976  
      5845       5846       5857       5856       5966       5967       5978       5977  
      5846       5847       5858       5857       5967       5968       5979       5978  
      5847       5848       5859       5858       5968       5969       5980       5979  
      5848       5849       5860       5859       5969       5970       5981       5980  
      5849       5850       5861       5860       5970       5971       5982       5981  
      5850       5851       5862       5861       5971       5972       5983       5982  
      5851       5852       5863       5862       5972       5973       5984       5983  
      5853       5854       5865       5864       5974       5975       5986       5985  
      5854       5855       5866       5865       5975       5976       5987       5986  
      5855       5856       5867       5866       5976       5977       5988       5987  
      5856       5857       5868       5867       5977       5978       5989       5988  
      5857       5858       5869       5868       5978       5979       5990       5989  
      5858       5859       5870       5869       5979       5980       5991       5990  
      5859       5860       5871       5870       5980       5981       5992       5991  
      5860       5861       5872       5871       5981       5982       5993       5992  
      5861       5862       5873       5872       5982       5983       5994       5993  
      5862       5863       5874       5873       5983       5984       5995       5994  
      5864       5865       5876       5875       5985       5986       5997       5996  
      5865       5866       5877       5876       5986       5987       5998       5997  
      5866       5867       5878       5877       5987       5988       5999       5998  
      5867       5868       5879       5878       5988       5989       6000       5999  
      5868       5869       5880       5879       5989       5990       6001       6000  
      5869       5870       5881       5880       5990       5991       6002       6001  
      5870       5871       5882       5881       5991       5992       6003       6002  
      5871       5872       5883       5882       5992       5993       6004       6003  
      5872       5873       5884       5883       5993       5994       6005       6004  
      5873       5874       5885       5884       5994       5995       6006       6005  
      5875       5876       5887       5886       5996       5997       6008       6007  
      5876       5877       5888       5887       5997       5998       6009       6008  
      5877       5878       5889       5888       5998       5999       6010       6009  
      5878       5879       5890       5889       5999       6000       6011       6010  
      5879       5880       5891       5890       6000       6001       6012       6011  
      5880       5881       5892       5891       6001       6002       6013       6012  
      5881       5882       5893       5892       6002       6003       6014       6013  
      5882       5883       5894       5893       6003       6004       6015       6014  
      5883       5884       5895       5894       6004       6005       6016       6015  
      5884       5885       5896       5895       6005       6006       6017       6016  
      5886       5887       5898       5897       6007       6008       6019       6018  
      5887       5888       5899       5898       6008       6009       6020       6019  
      5888       5889       5900       5899       6009       6010       6021       6020  
      5889       5890       5901       5900       6010       6011       6022       6021  
      5890       5891       5902       5901       6011       6012       6023       6022  
      5891       5892       5903       5902       6012       6013       6024       6023  
      5892       5893       5904       5903       6013       6014       6025       6024  
      5893       5894       5905       5904       6014       6015       6026       6025  
      5894       5895       5906       5905       6015       6016       6027       6026  
      5895       5896       5907       5906       6016       6017       6028       6027  
      5897       5898       5909       5908       6018       6019       6030       6029  
      5898       5899       5910       5909       6019       6020       6031       6030  
      5899       5900       5911       5910       6020       6021       6032       6031  
      5900       5901       5912       5911       6021       6022       6033       6032  
      5901       5902       5913       5912       6022       6023       6034       6033  
      5902       5903       5914       5913       6023       6024       6035       6034  
      5903       5904       5915       5914       6024       6025       6036       6035  
      5904       5905       5916       5915       6025       6026       6037       6036  
      5905       5906       5917       5916       6026       6027       6038       6037  
      5906       5907       5918       5917       6027       6028       6039       6038  
      5908       5909       5920       5919       6029       6030       6041       6040  
      5909       5910       5921       5920       6030       6031       6042       6041  
      5910       5911       5922       5921       6031       6032       6043       6042  
      5911       5912       5923       5922       6032       6033       6044       6043  
      5912       5913       5924       5923       6033       6034       6045       6044  
      5913       5914       5925       5924       6034       6035       6046       6045  
      5914       5915       5926       5925       6035       6036       6047       6046  
      5915       5916       5927       5926       6036       6037       6048       6047  
      5916       5917       5928       5927       6037       6038       6049       6048  
      5917       5918       5929       5928       6038       6039       6050       6049  
      5930       5931       5942       5941       6051       6052       6063       6062  
      5931       5932       5943       5942       6052       6053       6064       6063  
      5932       5933       5944       5943       6053       6054       6065       6064  
      5933       5934       5945       5944       6054       6055       6066       6065  
      5934       5935       5946       5945       6055       6056       6067       6066  
      5935       5936       5947       5946       6056       6057       6068       6067  
      5936       5937       5948       5947       6057       6058       6069       6068  
      5937       5938       5949       5948       6058       6059       6070       6069  
      5938       5939       5950       5949       6059       6060       6071       6070  
      5939       5940       5951       5950       6060       6061       6072       6071  
      5941       5942       5953       5952       6062       6063       6074       6073  
      5942       5943       5954       5953       6063       6064       6075       6074  
      5943       5944       5955       5954       6064       6065       6076       6075  
      5944       5945       5956       5955       6065       6066       6077       6076  
      5945       5946       5957       5956       6066       6067       6078       6077  
      5946       5947       5958       5957       6067       6068       6079       6078  
      5947       5948       5959       5958       6068       6069       6080       6079  
      5948       5949       5960       5959       6069       6070       6081       6080  
      5949       5950       5961       5960       6070       6071       6082       6081  
      5950       5951       5962       5961       6071       6072       6083       6082  
      5952       5953       5964       5963       6073       6074       6085       6084  
      5953       5954       5965       5964       6074       6075       6086       6085  
      5954       5955       5966       5965       6075       6076       6087       6086  
      5955       5956       5967       5966       6076       6077       6088       6087  
      5956       5957       5968       5967       6077       6078       6089       6088  
      5957       5958       5969       5968       6078       6079       6090       6089  
      5958       5959       5970       5969       6079       6080       6091       6090  
      5959       5960       5971       5970       6080       6081       6092       6091  
      5960       5961       5972       5971       6081       6082       6093       6092  
      5961       5962       5973       5972       6082       6083       6094       6093  
      5963       5964       5975       5974       6084       6085       6096       6095  
      5964       5965       5976       5975       6085       6086       6097       6096  
      5965       5966       5977       5976       6086       6087       6098       6097  
      5966       5967       5978       5977       6087       6088       6099       6098  
      5967       5968       5979       5978       6088       6089       6100       6099  
      5968       5969       5980       5979       6089       6090       6101       6100  
      5969       5970       5981       5980       6090       6091       6102       6101  
      5970       5971       5982       5981       6091       6092       6103       6102  
      5971       5972       5983       5982       6092       6093       6104       6103  
      5972       5973       5984       5983       6093       6094       6105       6104  
      5974       5975       5986       5985       6095       6096       6107       6106  
      5975       5976       5987       5986       6096       6097       6108       6107  
      5976       5977       5988       5987       6097       6098       6109       6108  
      5977       5978       5989       5988       6098       6099       6110       6109  
      5978       5979       5990       5989       6099       6100       6111       6110  
      5979       5980       5991       5990       6100       6101       6112       6111  
      5980       5981       5992       5991       6101       6102       6113       6112  
      5981       5982       5993       5992       6102       6103       6114       6113  
      5982       5983       5994       5993       6103       6104       6115       6114  
      5983       5984       5995       5994       6104       6105       6116       6115  
      5985       5986       5997       5996       6106       6107       6118       6117  
      5986       5987       5998       5997       6107       6108       6119       6118  
      5987       5988       5999       5998       6108       6109       6120       6119  
      5988       5989       6000       5999       6109       6110       6121       6120  
      5989       5990       6001       6000       6110       6111       6122       6121  
      5990       5991       6002       6001       6111       6112       6123       6122  
      5991       5992       6003       6002       6112       6113       6124       6123  
      5992       5993       6004       6003       6113       6114       6125       6124  
      5993       5994       6005       6004       6114       6115       6126       6125  
      5994       5995       6006       6005       6115       6116       6127       6126  
      5996       5997       6008       6007       6117       6118       6129       6128  
      5997       5998       6009       6008       6118       6119       6130       6129  
      5998       5999       6010       6009       6119       6120       6131       6130  
      5999       6000       6011       6010       6120       6121       6132       6131  
      6000       6001       6012       6011       6121       6122       6133       6132  
      6001       6002       6013       6012       6122       6123       6134       6133  
      6002       6003       6014       6013       6123       6124       6135       6134  
      6003       6004       6015       6014       6124       6125       6136       6135  
      6004       6005       6016       6015       6125       6126       6137       6136  
      6005       6006       6017       6016       6126       6127       6138       6137  
      6007       6008       6019       6018       6128       6129       6140       6139  
      6008       6009       6020       6019       6129       6130       6141       6140  
      6009       6010       6021       6020       6130       6131       6142       6141  
      6010       6011       6022       6021       6131       6132       6143       6142  
      6011       6012       6023       6022       6132       6133       6144       6143  
      6012       6013       6024       6023       6133       6134       6145       6144  
      6013       6014       6025       6024       6134       6135       6146       6145  
      6014       6015       6026       6025       6135       6136       6147       6146  
      6015       6016       6027       6026       6136       6137       6148       6147  
      6016       6017       6028       6027       6137       6138       6149       6148  
      6018       6019       6030       6029       6139       6140       6151       6150  
      6019       6020       6031       6030       6140       6141       6152       6151  
      6020       6021       6032       6031       6141       6142       6153       6152  
      6021       6022       6033       6032       6142       6143       6154       6153  
      6022       6023       6034       6033       6143       6144       6155       6154  
      6023       6024       6035       6034       6144       6145       6156       6155  
      6024       6025       6036       6035       6145       6146       6157       6156  
      6025       6026       6037       6036       6146       6147       6158       6157  
      6026       6027       6038       6037       6147       6148       6159       6158  
      6027       6028       6039       6038       6148       6149       6160       6159  
      6029       6030       6041       6040       6150       6151       6162       6161  
      6030       6031       6042       6041       6151       6152       6163       6162  
      6031       6032       6043       6042       6152       6153       6164       6163  
      6032       6033       6044       6043       6153       6154       6165       6164  
      6033       6034       6045       6044       6154       6155       6166       6165  
      6034       6035       6046       6045       6155       6156       6167       6166  
      6035       6036       6047       6046       6156       6157       6168       6167  
      6036       6037       6048       6047       6157       6158       6169       6168  
      6037       6038       6049       6048       6158       6159       6170       6169  
      6038       6039       6050       6049       6159       6160       6171       6170  
      6051       6052       6063       6062       6172       6173       6184       6183  
      6052       6053       6064       6063       6173       6174       6185       6184  
      6053       6054       6065       6064       6174       6175       6186       6185  
      6054       6055       6066       6065       6175       6176       6187       6186  
      6055       6056       6067       6066       6176       6177       6188       6187  
      6056       6057       6068       6067       6177       6178       6189       6188  
      6057       6058       6069       6068       6178       6179       6190       6189  
      6058       6059       6070       6069       6179       6180       6191       6190  
      6059       6060       6071       6070       6180       6181       6192       6191  
      6060       6061       6072       6071       6181       6182       6193       6192  
      6062       6063       6074       6073       6183       6184       6195       6194  
      6063       6064       6075       6074       6184       6185       6196       6195  
      6064       6065       6076       6075       6185       6186       6197       6196  
      6065       6066       6077       6076       6186       6187       6198       6197  
      6066       6067       6078       6077       6187       6188       6199       6198  
      6067       6068       6079       6078       6188       6189       6200       6199  
      6068       6069       6080       6079       6189       6190       6201       6200  
      6069       6070       6081       6080       6190       6191       6202       6201  
      6070       6071       6082       6081       6191       6192       6203       6202  
      6071       6072       6083       6082       6192       6193       6204       6203  
      6073       6074       6085       6084       6194       6195       6206       6205  
      6074       6075       6086       6085       6195       6196       6207       6206  
      6075       6076       6087       6086       6196       6197       6208       6207  
      6076       6077       6088       6087       6197       6198       6209       6208  
      6077       6078       6089       6088       6198       6199       6210       6209  
      6078       6079       6090       6089       6199       6200       6211       6210  
      6079       6080       6091       6090       6200       6201       6212       6211  
      6080       6081       6092       6091       6201       6202       6213       6212  
      6081       6082       6093       6092       6202       6203       6214       6213  
      6082       6083       6094       6093       6203       6204       6215       6214  
      6084       6085       6096       6095       6205       6206       6217       6216  
      6085       6086       6097       6096       6206       6207       6218       6217  
      6086       6087       6098       6097       6207       6208       6219       6218  
      6087       6088       6099       6098       6208       6209       6220       6219  
      6088       6089       6100       6099       6209       6210       6221       6220  
      6089       6090       6101       6100       6210       6211       6222       6221  
      6090       6091       6102       6101       6211       6212       6223       6222  
      6091       6092       6103       6102       6212       6213       6224       6223  
      6092       6093       6104       6103       6213       6214       6225       6224  
      6093       6094       6105       6104       6214       6215       6226       6225  
      6095       6096       6107       6106       6216       6217       6228       6227  
      6096       6097       6108       6107       6217       6218       6229       6228  
      6097       6098       6109       6108       6218       6219       6230       6229  
      6098       6099       6110       6109       6219       6220       6231       6230  
      6099       6100       6111       6110       6220       6221       6232       6231  
      6100       6101       6112       6111       6221       6222       6233       6232  
      6101       6102       6113       6112       6222       6223       6234       6233  
      6102       6103       6114       6113       6223       6224       6235       6234  
      6103       6104       6115       6114       6224       6225       6236       6235  
      6104       6105       6116       6115       6225       6226       6237       6236  
      6106       6107       6118       6117       6227       6228       6239       6238  
      6107       6108       6119       6118       6228       6229       6240       6239  
      6108       6109       6120       6119       6229       6230       6241       6240  
      6109       6110       6121       6120       6230       6231       6242       6241  
      6110       6111       6122       6121       6231       6232       6243       6242  
      6111       6112       6123       6122       6232       6233       6244       6243  
      6112       6113       6124       6123       6233       6234       6245       6244  
      6113       6114       6125       6124       6234       6235       6246       6245  
      6114       6115       6126       6125       6235       6236       6247       6246  
      6115       6116       6127       6126       6236       6237       6248       6247  
      6117       6118       6129       6128       6238       6239       6250       6249  
      6118       6119       6130       6129       6239       6240       6251       6250  
      6119       6120       6131       6130       6240       6241       6252       6251  
      6120       6121       6132       6131       6241       6242       6253       6252  
      6121       6122       6133       6132       6242       6243       6254       6253  
      6122       6123       6134       6133       6243       6244       6255       6254  
      6123       6124       6135       6134       6244       6245       6256       6255  
      6124       6125       6136       6135       6245       6246       6257       6256  
      6125       6126       6137       6136       6246       6247       6258       6257  
      6126       6127       6138       6137       6247       6248       6259       6258  
      6128       6129       6140       6139       6249       6250       6261       6260  
      6129       6130       6141       6140       6250       6251       6262       6261  
      6130       6131       6142       6141       6251       6252       6263       6262  
      6131       6132       6143       6142       6252       6253       6264       6263  
      6132       6133       6144       6143       6253       6254       6265       6264  
      6133       6134       6145       6144       6254       6255       6266       6265  
      6134       6135       6146       6145       6255       6256       6267       6266  
      6135       6136       6147       6146       6256       6257       6268       6267  
      6136       6137       6148       6147       6257       6258       6269       6268  
      6137       6138       6149       6148       6258       6259       6270       6269  
      6139       6140       6151       6150       6260       6261       6272       6271  
      6140       6141       6152       6151       6261       6262       6273       6272  
      6141       6142       6153       6152       6262       6263       6274       6273  
      6142       6143       6154       6153       6263       6264       6275       6274  
      6143       6144       6155       6154       6264       6265       6276       6275  
      6144       6145       6156       6155       6265       6266       6277       6276  
      6145       6146       6157       6156       6266       6267       6278       6277  
      6146       6147       6158       6157       6267       6268       6279       6278  
      6147       6148       6159       6158       6268       6269       6280       6279  
      6148       6149       6160       6159       6269       6270       6281       6280  
      6150       6151       6162       6161       6271       6272       6283       6282  
      6151       6152       6163       6162       6272       6273       6284       6283  
      6152       6153       6164       6163       6273       6274       6285       6284  
      6153       6154       6165       6164       6274       6275       6286       6285  
      6154       6155       6166       6165       6275       6276       6287       6286  
      6155       6156       6167       6166       6276       6277       6288       6287  
      6156       6157       6168       6167       6277       6278       6289       6288  
      6157       6158       6169       6168       6278       6279       6290       6289  
      6158       6159       6170       6169       6279       6280       6291       6290  
      6159       6160       6171       6170       6280       6281       6292       6291  
      6172       6173       6184       6183       6293       6294       6305       6304  
      6173       6174       6185       6184       6294       6295       6306       6305  
      6174       6175       6186       6185       6295       6296       6307       6306  
      6175       6176       6187       6186       6296       6297       6308       6307  
      6176       6177       6188       6187       6297       6298       6309       6308  
      6177       6178       6189       6188       6298       6299       6310       6309  
      6178       6179       6190       6189       6299       6300       6311       6310  
      6179       6180       6191       6190       6300       6301       6312       6311  
      6180       6181       6192       6191       6301       6302       6313       6312  
      6181       6182       6193       6192       6302       6303       6314       6313  
      6183       6184       6195       6194       6304       6305       6316       6315  
      6184       6185       6196       6195       6305       6306       6317       6316  
      6185       6186       6197       6196       6306       6307       6318       6317  
      6186       6187       6198       6197       6307       6308       6319       6318  
      6187       6188       6199       6198       6308       6309       6320       6319  
      6188       6189       6200       6199       6309       6310       6321       6320  
      6189       6190       6201       6200       6310       6311       6322       6321  
      6190       6191       6202       6201       6311       6312       6323       6322  
      6191       6192       6203       6202       6312       6313       6324       6323  
      6192       6193       6204       6203       6313       6314       6325       6324  
      6194       6195       6206       6205       6315       6316       6327       6326  
      6195       6196       6207       6206       6316       6317       6328       6327  
      6196       6197       6208       6207       6317       6318       6329       6328  
      6197       6198       6209       6208       6318       6319       6330       6329  
      6198       6199       6210       6209       6319       6320       6331       6330  
      6199       6200       6211       6210       6320       6321       6332       6331  
      6200       6201       6212       6211       6321       6322       6333       6332  
      6201       6202       6213       6212       6322       6323       6334       6333  
      6202       6203       6214       6213       6323       6324       6335       6334  
      6203       6204       6215       6214       6324       6325       6336       6335  
      6205       6206       6217       6216       6326       6327       6338       6337  
      6206       6207       6218       6217       6327       6328       6339       6338  
      6207       6208       6219       6218       6328       6329       6340       6339  
      6208       6209       6220       6219       6329       6330       6341       6340  
      6209       6210       6221       6220       6330       6331       6342       6341  
      6210       6211       6222       6221       6331       6332       6343       6342  
      6211       6212       6223       6222       6332       6333       6344       6343  
      6212       6213       6224       6223       6333       6334       6345       6344  
      6213       6214       6225       6224       6334       6335       6346       6345  
      6214       6215       6226       6225       6335       6336       6347       6346  
      6216       6217       6228       6227       6337       6338       6349       6348  
      6217       6218       6229       6228       6338       6339       6350       6349  
      6218       6219       6230       6229       6339       6340       6351       6350  
      6219       6220       6231       6230       6340       6341       6352       6351  
      6220       6221       6232       6231       6341       6342       6353       6352  
      6221       6222       6233       6232       6342       6343       6354       6353  
      6222       6223       6234       6233       6343       6344       6355       6354  
      6223       6224       6235       6234       6344       6345       6356       6355  
      6224       6225       6236       6235       6345       6346       6357       6356  
      6225       6226       6237       6236       6346       6347       6358       6357  
      6227       6228       6239       6238       6348       6349       6360       6359  
      6228       6229       6240       6239       6349       6350       6361       6360  
      6229       6230       6241       6240       6350       6351       6362       6361  
      6230       6231       6242       6241       6351       6352       6363       6362  
      6231       6232       6243       6242       6352       6353       6364       6363  
      6232       6233       6244       6243       6353       6354       6365       6364  
      6233       6234       6245       6244       6354       6355       6366       6365  
      6234       6235       6246       6245       6355       6356       6367       6366  
      6235       6236       6247       6246       6356       6357       6368       6367  
      6236       6237       6248       6247       6357       6358       6369       6368  
      6238       6239       6250       6249       6359       6360       6371       6370  
      6239       6240       6251       6250       6360       6361       6372       6371  
      6240       6241       6252       6251       6361       6362       6373       6372  
      6241       6242       6253       6252       6362       6363       6374       6373  
      6242       6243       6254       6253       6363       6364       6375       6374  
      6243       6244       6255       6254       6364       6365       6376       6375  
      6244       6245       6256       6255       6365       6366       6377       6376  
      6245       6246       6257       6256       6366       6367       6378       6377  
      6246       6247       6258       6257       6367       6368       6379       6378  
      6247       6248       6259       6258       6368       6369       6380       6379  
      6249       6250       6261       6260       6370       6371       6382       6381  
      6250       6251       6262       6261       6371       6372       6383       6382  
      6251       6252       6263       6262       6372       6373       6384       6383  
      6252       6253       6264       6263       6373       6374       6385       6384  
      6253       6254       6265       6264       6374       6375       6386       6385  
      6254       6255       6266       6265       6375       6376       6387       6386  
      6255       6256       6267       6266       6376       6377       6388       6387  
      6256       6257       6268       6267       6377       6378       6389       6388  
      6257       6258       6269       6268       6378       6379       6390       6389  
      6258       6259       6270       6269       6379       6380       6391       6390  
      6260       6261       6272       6271       6381       6382       6393       6392  
      6261       6262       6273       6272       6382       6383       6394       6393  
      6262       6263       6274       6273       6383       6384       6395       6394  
      6263       6264       6275       6274       6384       6385       6396       6395  
      6264       6265       6276       6275       6385       6386       6397       6396  
      6265       6266       6277       6276       6386       6387       6398       6397  
      6266       6267       6278       6277       6387       6388       6399       6398  
      6267       6268       6279       6278       6388       6389       6400       6399  
      6268       6269       6280       6279       6389       6390       6401       6400  
      6269       6270       6281       6280       6390       6391       6402       6401  
      6271       6272       6283       6282       6392       6393       6404       6403  
      6272       6273       6284       6283       6393       6394       6405       6404  
      6273       6274       6285       6284       6394       6395       6406       6405  
      6274       6275       6286       6285       6395       6396       6407       6406  
      6275       6276       6287       6286       6396       6397       6408       6407  
      6276       6277       6288       6287       6397       6398       6409       6408  
      6277       6278       6289       6288       6398       6399       6410       6409  
      6278       6279       6290       6289       6399       6400       6411       6410  
      6279       6280       6291       6290       6400       6401       6412       6411  
      6280       6281       6292       6291       6401       6402       6413       6412  
      6293       6294       6305       6304       6414       6415       6426       6425  
      6294       6295       6306       6305       6415       6416       6427       6426  
      6295       6296       6307       6306       6416       6417       6428       6427  
      6296       6297       6308       6307       6417       6418       6429       6428  
      6297       6298       6309       6308       6418       6419       6430       6429  
      6298       6299       6310       6309       6419       6420       6431       6430  
      6299       6300       6311       6310       6420       6421       6432       6431  
      6300       6301       6312       6311       6421       6422       6433       6432  
      6301       6302       6313       6312       6422       6423       6434       6433  
      6302       6303       6314       6313       6423       6424       6435       6434  
      6304       6305       6316       6315       6425       6426       6437       6436  
      6305       6306       6317       6316       6426       6427       6438       6437  
      6306       6307       6318       6317       6427       6428       6439       6438  
      6307       6308       6319       6318       6428       6429       6440       6439  
      6308       6309       6320       6319       6429       6430       6441       6440  
      6309       6310       6321       6320       6430       6431       6442       6441  
      6310       6311       6322       6321       6431       6432       6443       6442  
      6311       6312       6323       6322       6432       6433       6444       6443  
      6312       6313       6324       6323       6433       6434       6445       6444  
      6313       6314       6325       6324       6434       6435       6446       6445  
      6315       6316       6327       6326       6436       6437       6448       6447  
      6316       6317       6328       6327       6437       6438       6449       6448  
      6317       6318       6329       6328       6438       6439       6450       6449  
      6318       6319       6330       6329       6439       6440       6451       6450  
      6319       6320       6331       6330       6440       6441       6452       6451  
      6320       6321       6332       6331       6441       6442       6453       6452  
      6321       6322       6333       6332       6442       6443       6454       6453  
      6322       6323       6334       6333       6443       6444       6455       6454  
      6323       6324       6335       6334       6444       6445       6456       6455  
      6324       6325       6336       6335       6445       6446       6457       6456  
      6326       6327       6338       6337       6447       6448       6459       6458  
      6327       6328       6339       6338       6448       6449       6460       6459  
      6328       6329       6340       6339       6449       6450       6461       6460  
      6329       6330       6341       6340       6450       6451       6462       6461  
      6330       6331       6342       6341       6451       6452       6463       6462  
      6331       6332       6343       6342       6452       6453       6464       6463  
      6332       6333       6344       6343       6453       6454       6465       6464  
      6333       6334       6345       6344       6454       6455       6466       6465  
      6334       6335       6346       6345       6455       6456       6467       6466  
      6335       6336       6347       6346       6456       6457       6468       6467  
      6337       6338       6349       6348       6458       6459       6470       6469  
      6338       6339       6350       6349       6459       6460       6471       6470  
      6339       6340       6351       6350       6460       6461       6472       6471  
      6340       6341       6352       6351       6461       6462       6473       6472  
      6341       6342       6353       6352       6462       6463       6474       6473  
      6342       6343       6354       6353       6463       6464       6475       6474  
      6343       6344       6355       6354       6464       6465       6476       6475  
      6344       6345       6356       6355       6465       6466       6477       6476  
      6345       6346       6357       6356       6466       6467       6478       6477  
      6346       6347       6358       6357       6467       6468       6479       6478  
      6348       6349       6360       6359       6469       6470       6481       6480  
      6349       6350       6361       6360       6470       6471       6482       6481  
      6350       6351       6362       6361       6471       6472       6483       6482  
      6351       6352       6363       6362       6472       6473       6484       6483  
      6352       6353       6364       6363       6473       6474       6485       6484  
      6353       6354       6365       6364       6474       6475       6486       6485  
      6354       6355       6366       6365       6475       6476       6487       6486  
      6355       6356       6367       6366       6476       6477       6488       6487  
      6356       6357       6368       6367       6477       6478       6489       6488  
      6357       6358       6369       6368       6478       6479       6490       6489  
      6359       6360       6371       6370       6480       6481       6492       6491  
      6360       6361       6372       6371       6481       6482       6493       6492  
      6361       6362       6373       6372       6482       6483       6494       6493  
      6362       6363       6374       6373       6483       6484       6495       6494  
      6363       6364       6375       6374       6484       6485       6496       6495  
      6364       6365       6376       6375       6485       6486       6497       6496  
      6365       6366       6377       6376       6486       6487       6498       6497  
      6366       6367       6378       6377       6487       6488       6499       6498  
      6367       6368       6379       6378       6488       6489       6500       6499  
      6368       6369       6380       6379       6489       6490       6501       6500  
      6370       6371       6382       6381       6491       6492       6503       6502  
      6371       6372       6383       6382       6492       6493       6504       6503  
      6372       6373       6384       6383       6493       6494       6505       6504  
      6373       6374       6385       6384       6494       6495       6506       6505  
      6374       6375       6386       6385       6495       6496       6507       6506  
      6375       6376       6387       6386       6496       6497       6508       6507  
      6376       6377       6388       6387       6497       6498       6509       6508  
      6377       6378       6389       6388       6498       6499       6510       6509  
      6378       6379       6390       6389       6499       6500       6511       6510  
      6379       6380       6391       6390       6500       6501       6512       6511  
      6381       6382       6393       6392       6502       6503       6514       6513  
      6382       6383       6394       6393       6503       6504       6515       6514  
      6383       6384       6395       6394       6504       6505       6516       6515  
      6384       6385       6396       6395       6505       6506       6517       6516  
      6385       6386       6397       6396       6506       6507       6518       6517  
      6386       6387       6398       6397       6507       6508       6519       6518  
      6387       6388       6399       6398       6508       6509       6520       6519  
      6388       6389       6400       6399       6509       6510       6521       6520  
      6389       6390       6401       6400       6510       6511       6522       6521  
      6390       6391       6402       6401       6511       6512       6523       6522  
      6392       6393       6404       6403       6513       6514       6525       6524  
      6393       6394       6405       6404       6514       6515       6526       6525  
      6394       6395       6406       6405       6515       6516       6527       6526  
      6395       6396       6407       6406       6516       6517       6528       6527  
      6396       6397       6408       6407       6517       6518       6529       6528  
      6397       6398       6409       6408       6518       6519       6530       6529  
      6398       6399       6410       6409       6519       6520       6531       6530  
      6399       6400       6411       6410       6520       6521       6532       6531  
      6400       6401       6412       6411       6521       6522       6533       6532  
      6401       6402       6413       6412       6522       6523       6534       6533  
      6414       6415       6426       6425       6535       6536       6547       6546  
      6415       6416       6427       6426       6536       6537       6548       6547  
      6416       6417       6428       6427       6537       6538       6549       6548  
      6417       6418       6429       6428       6538       6539       6550       6549  
      6418       6419       6430       6429       6539       6540       6551       6550  
      6419       6420       6431       6430       6540       6541       6552       6551  
      6420       6421       6432       6431       6541       6542       6553       6552  
      6421       6422       6433       6432       6542       6543       6554       6553  
      6422       6423       6434       6433       6543       6544       6555       6554  
      6423       6424       6435       6434       6544       6545       6556       6555  
      6425       6426       6437       6436       6546       6547       6558       6557  
      6426       6427       6438       6437       6547       6548       6559       6558  
      6427       6428       6439       6438       6548       6549       6560       6559  
      6428       6429       6440       6439       6549       6550       6561       6560  
      6429       6430       6441       6440       6550       6551       6562       6561  
      6430       6431       6442       6441       6551       6552       6563       6562  
      6431       6432       6443       6442       6552       6553       6564       6563  
      6432       6433       6444       6443       6553       6554       6565       6564  
      6433       6434       6445       6444       6554       6555       6566       6565  
      6434       6435       6446       6445       6555       6556       6567       6566  
      6436       6437       6448       6447       6557       6558       6569       6568  
      6437       6438       6449       6448       6558       6559       6570       6569  
      6438       6439       6450       6449       6559       6560       6571       6570  
      6439       6440       6451       6450       6560       6561       6572       6571  
      6440       6441       6452       6451       6561       6562       6573       6572  
      6441       6442       6453       6452       6562       6563       6574       6573  
      6442       6443       6454       6453       6563       6564       6575       6574  
      6443       6444       6455       6454       6564       6565       6576       6575  
      6444       6445       6456       6455       6565       6566       6577       6576  
      6445       6446       6457       6456       6566       6567       6578       6577  
      6447       6448       6459       6458       6568       6569       6580       6579  
      6448       6449       6460       6459       6569       6570       6581       6580  
      6449       6450       6461       6460       6570       6571       6582       6581  
      6450       6451       6462       6461       6571       6572       6583       6582  
      6451       6452       6463       6462       6572       6573       6584       6583  
      6452       6453       6464       6463       6573       6574       6585       6584  
      6453       6454       6465       6464       6574       6575       6586       6585  
      6454       6455       6466       6465       6575       6576       6587       6586  
      6455       6456       6467       6466       6576       6577       6588       6587  
      6456       6457       6468       6467       6577       6578       6589       6588  
      6458       6459       6470       6469       6579       6580       6591       6590  
      6459       6460       6471       6470       6580       6581       6592       6591  
      6460       6461       6472       6471       6581       6582       6593       6592  
      6461       6462       6473       6472       6582       6583       6594       6593  
      6462       6463       6474       6473       6583       6584       6595       6594  
      6463       6464       6475       6474       6584       6585       6596       6595  
      6464       6465       6476       6475       6585       6586       6597       6596  
      6465       6466       6477       6476       6586       6587       6598       6597  
      6466       6467       6478       6477       6587       6588       6599       6598  
      6467       6468       6479       6478       6588       6589       6600       6599  
      6469       6470       6481       6480       6590       6591       6602       6601  
      6470       6471       6482       6481       6591       6592       6603       6602  
      6471       6472       6483       6482       6592       6593       6604       6603  
      6472       6473       6484       6483       6593       6594       6605       6604  
      6473       6474       6485       6484       6594       6595       6606       6605  
      6474       6475       6486       6485       6595       6596       6607       6606  
      6475       6476       6487       6486       6596       6597       6608       6607  
      6476       6477       6488       6487       6597       6598       6609       6608  
      6477       6478       6489       6488       6598       6599       6610       6609  
      6478       6479       6490       6489       6599       6600       6611       6610  
      6480       6481       6492       6491       6601       6602       6613       6612  
      6481       6482       6493       6492       6602       6603       6614       6613  
      6482       6483       6494       6493       6603       6604       6615       6614  
      6483       6484       6495       6494       6604       6605       6616       6615  
      6484       6485       6496       6495       6605       6606       6617       6616  
      6485       6486       6497       6496       6606       6607       6618       6617  
      6486       6487       6498       6497       6607       6608       6619       6618  
      6487       6488       6499       6498       6608       6609       6620       6619  
      6488       6489       6500       6499       6609       6610       6621       6620  
      6489       6490       6501       6500       6610       6611       6622       6621  
      6491       6492       6503       6502       6612       6613       6624       6623  
      6492       6493       6504       6503       6613       6614       6625       6624  
      6493       6494       6505       6504       6614       6615       6626       6625  
      6494       6495       6506       6505       6615       6616       6627       6626  
      6495       6496       6507       6506       6616       6617       6628       6627  
      6496       6497       6508       6507       6617       6618       6629       6628  
      6497       6498       6509       6508       6618       6619       6630       6629  
      6498       6499       6510       6509       6619       6620       6631       6630  
      6499       6500       6511       6510       6620       6621       6632       6631  
      6500       6501       6512       6511       6621       6622       6633       6632  
      6502       6503       6514       6513       6623       6624       6635       6634  
      6503       6504       6515       6514       6624       6625       6636       6635  
      6504       6505       6516       6515       6625       6626       6637       6636  
      6505       6506       6517       6516       6626       6627       6638       6637  
      6506       6507       6518       6517       6627       6628       6639       6638  
      6507       6508       6519       6518       6628       6629       6640       6639  
      6508       6509       6520       6519       6629       6630       6641       6640  
      6509       6510       6521       6520       6630       6631       6642       6641  
      6510       6511       6522       6521       6631       6632       6643       6642  
      6511       6512       6523       6522       6632       6633       6644       6643  
      6513       6514       6525       6524       6634       6635       6646       6645  
      6514       6515       6526       6525       6635       6636       6647       6646  
      6515       6516       6527       6526       6636       6637       6648       6647  
      6516       6517       6528       6527       6637       6638       6649       6648  
      6517       6518       6529       6528       6638       6639       6650       6649  
      6518       6519       6530       6529       6639       6640       6651       6650  
      6519       6520       6531       6530       6640       6641       6652       6651  
      6520       6521       6532       6531       6641       6642       6653       6652  
      6521       6522       6533       6532       6642       6643       6654       6653  
      6522       6523       6534       6533       6643       6644       6655       6654  
      6535       6536       6547       6546       6656       6657       6668       6667  
      6536       6537       6548       6547       6657       6658       6669       6668  
      6537       6538       6549       6548       6658       6659       6670       6669  
      6538       6539       6550       6549       6659       6660       6671       6670  
      6539       6540       6551       6550       6660       6661       6672       6671  
      6540       6541       6552       6551       6661       6662       6673       6672  
      6541       6542       6553       6552       6662       6663       6674       6673  
      6542       6543       6554       6553       6663       6664       6675       6674  
      6543       6544       6555       6554       6664       6665       6676       6675  
      6544       6545       6556       6555       6665       6666       6677       6676  
      6546       6547       6558       6557       6667       6668       6679       6678  
      6547       6548       6559       6558       6668       6669       6680       6679  
      6548       6549       6560       6559       6669       6670       6681       6680  
      6549       6550       6561       6560       6670       6671       6682       6681  
      6550       6551       6562       6561       6671       6672       6683       6682  
      6551       6552       6563       6562       6672       6673       6684       6683  
      6552       6553       6564       6563       6673       6674       6685       6684  
      6553       6554       6565       6564       6674       6675       6686       6685  
      6554       6555       6566       6565       6675       6676       6687       6686  
      6555       6556       6567       6566       6676       6677       6688       6687  
      6557       6558       6569       6568       6678       6679       6690       6689  
      6558       6559       6570       6569       6679       6680       6691       6690  
      6559       6560       6571       6570       6680       6681       6692       6691  
      6560       6561       6572       6571       6681       6682       6693       6692  
      6561       6562       6573       6572       6682       6683       6694       6693  
      6562       6563       6574       6573       6683       6684       6695       6694  
      6563       6564       6575       6574       6684       6685       6696       6695  
      6564       6565       6576       6575       6685       6686       6697       6696  
      6565       6566       6577       6576       6686       6687       6698       6697  
      6566       6567       6578       6577       6687       6688       6699       6698  
      6568       6569       6580       6579       6689       6690       6701       6700  
      6569       6570       6581       6580       6690       6691       6702       6701  
      6570       6571       6582       6581       6691       6692       6703       6702  
      6571       6572       6583       6582       6692       6693       6704       6703  
      6572       6573       6584       6583       6693       6694       6705       6704  
      6573       6574       6585       6584       6694       6695       6706       6705  
      6574       6575       6586       6585       6695       6696       6707       6706  
      6575       6576       6587       6586       6696       6697       6708       6707  
      6576       6577       6588       6587       6697       6698       6709       6708  
      6577       6578       6589       6588       6698       6699       6710       6709  
      6579       6580       6591       6590       6700       6701       6712       6711  
      6580       6581       6592       6591       6701       6702       6713       6712  
      6581       6582       6593       6592       6702       6703       6714       6713  
      6582       6583       6594       6593       6703       6704       6715       6714  
      6583       6584       6595       6594       6704       6705       6716       6715  
      6584       6585       6596       6595       6705       6706       6717       6716  
      6585       6586       6597       6596       6706       6707       6718       6717  
      6586       6587       6598       6597       6707       6708       6719       6718  
      6587       6588       6599       6598       6708       6709       6720       6719  
      6588       6589       6600       6599       6709       6710       6721       6720  
      6590       6591       6602       6601       6711       6712       6723       6722  
      6591       6592       6603       6602       6712       6713       6724       6723  
      6592       6593       6604       6603       6713       6714       6725       6724  
      6593       6594       6605       6604       6714       6715       6726       6725  
      6594       6595       6606       6605       6715       6716       6727       6726  
      6595       6596       6607       6606       6716       6717       6728       6727  
      6596       6597       6608       6607       6717       6718       6729       6728  
      6597       6598       6609       6608       6718       6719       6730       6729  
      6598       6599       6610       6609       6719       6720       6731       6730  
      6599       6600       6611       6610       6720       6721       6732       6731  
      6601       6602       6613       6612       6722       6723       6734       6733  
      6602       6603       6614       6613       6723       6724       6735       6734  
      6603       6604       6615       6614       6724       6725       6736       6735  
      6604       6605       6616       6615       6725       6726       6737       6736  
      6605       6606       6617       6616       6726       6727       6738       6737  
      6606       6607       6618       6617       6727       6728       6739       6738  
      6607       6608       6619       6618       6728       6729       6740       6739  
      6608       6609       6620       6619       6729       6730       6741       6740  
      6609       6610       6621       6620       6730       6731       6742       6741  
      6610       6611       6622       6621       6731       6732       6743       6742  
      6612       6613       6624       6623       6733       6734       6745       6744  
      6613       6614       6625       6624       6734       6735       6746       6745  
      6614       6615       6626       6625       6735       6736       6747       6746  
      6615       6616       6627       6626       6736       6737       6748       6747  
      6616       6617       6628       6627       6737       6738       6749       6748  
      6617       6618       6629       6628       6738       6739       6750       6749  
      6618       6619       6630       6629       6739       6740       6751       6750  
      6619       6620       6631       6630       6740       6741       6752       6751  
      6620       6621       6632       6631       6741       6742       6753       6752  
      6621       6622       6633       6632       6742       6743       6754       6753  
      6623       6624       6635       6634       6744       6745       6756       6755  
      6624       6625       6636       6635       6745       6746       6757       6756  
      6625       6626       6637       6636       6746       6747       6758       6757  
      6626       6627       6638       6637       6747       6748       6759       6758  
      6627       6628       6639       6638       6748       6749       6760       6759  
      6628       6629       6640       6639       6749       6750       6761       6760  
      6629       6630       6641       6640       6750       6751       6762       6761  
      6630       6631       6642       6641       6751       6752       6763       6762  
      6631       6632       6643       6642       6752       6753       6764       6763  
      6632       6633       6644       6643       6753       6754       6765       6764  
      6634       6635       6646       6645       6755       6756       6767       6766  
      6635       6636       6647       6646       6756       6757       6768       6767  
      6636       6637       6648       6647       6757       6758       6769       6768  
      6637       6638       6649       6648       6758       6759       6770       6769  
      6638       6639       6650       6649       6759       6760       6771       6770  
      6639       6640       6651       6650       6760       6761       6772       6771  
      6640       6641       6652       6651       6761       6762       6773       6772  
      6641       6642       6653       6652       6762       6763       6774       6773  
      6642       6643       6654       6653       6763       6764       6775       6774  
      6643       6644       6655       6654       6764       6765       6776       6775  
      6656       6657       6668       6667       6777       6778       6789       6788  
      6657       6658       6669       6668       6778       6779       6790       6789  
      6658       6659       6670       6669       6779       6780       6791       6790  
      6659       6660       6671       6670       6780       6781       6792       6791  
      6660       6661       6672       6671       6781       6782       6793       6792  
      6661       6662       6673       6672       6782       6783       6794       6793  
      6662       6663       6674       6673       6783       6784       6795       6794  
      6663       6664       6675       6674       6784       6785       6796       6795  
      6664       6665       6676       6675       6785       6786       6797       6796  
      6665       6666       6677       6676       6786       6787       6798       6797  
      6667       6668       6679       6678       6788       6789       6800       6799  
      6668       6669       6680       6679       6789       6790       6801       6800  
      6669       6670       6681       6680       6790       6791       6802       6801  
      6670       6671       6682       6681       6791       6792       6803       6802  
      6671       6672       6683       6682       6792       6793       6804       6803  
      6672       6673       6684       6683       6793       6794       6805       6804  
      6673       6674       6685       6684       6794       6795       6806       6805  
      6674       6675       6686       6685       6795       6796       6807       6806  
      6675       6676       6687       6686       6796       6797       6808       6807  
      6676       6677       6688       6687       6797       6798       6809       6808  
      6678       6679       6690       6689       6799       6800       6811       6810  
      6679       6680       6691       6690       6800       6801       6812       6811  
      6680       6681       6692       6691       6801       6802       6813       6812  
      6681       6682       6693       6692       6802       6803       6814       6813  
      6682       6683       6694       6693       6803       6804       6815       6814  
      6683       6684       6695       6694       6804       6805       6816       6815  
      6684       6685       6696       6695       6805       6806       6817       6816  
      6685       6686       6697       6696       6806       6807       6818       6817  
      6686       6687       6698       6697       6807       6808       6819       6818  
      6687       6688       6699       6698       6808       6809       6820       6819  
      6689       6690       6701       6700       6810       6811       6822       6821  
      6690       6691       6702       6701       6811       6812       6823       6822  
      6691       6692       6703       6702       6812       6813       6824       6823  
      6692       6693       6704       6703       6813       6814       6825       6824  
      6693       6694       6705       6704       6814       6815       6826       6825  
      6694       6695       6706       6705       6815       6816       6827       6826  
      6695       6696       6707       6706       6816       6817       6828       6827  
      6696       6697       6708       6707       6817       6818       6829       6828  
      6697       6698       6709       6708       6818       6819       6830       6829  
      6698       6699       6710       6709       6819       6820       6831       6830  
      6700       6701       6712       6711       6821       6822       6833       6832  
      6701       6702       6713       6712       6822       6823       6834       6833  
      6702       6703       6714       6713       6823       6824       6835       6834  
      6703       6704       6715       6714       6824       6825       6836       6835  
      6704       6705       6716       6715       6825       6826       6837       6836  
      6705       6706       6717       6716       6826       6827       6838       6837  
      6706       6707       6718       6717       6827       6828       6839       6838  
      6707       6708       6719       6718       6828       6829       6840       6839  
      6708       6709       6720       6719       6829       6830       6841       6840  
      6709       6710       6721       6720       6830       6831       6842       6841  
      6711       6712       6723       6722       6832       6833       6844       6843  
      6712       6713       6724       6723       6833       6834       6845       6844  
      6713       6714       6725       6724       6834       6835       6846       6845  
      6714       6715       6726       6725       6835       6836       6847       6846  
      6715       6716       6727       6726       6836       6837       6848       6847  
      6716       6717       6728       6727       6837       6838       6849       6848  
      6717       6718       6729       6728       6838       6839       6850       6849  
      6718       6719       6730       6729       6839       6840       6851       6850  
      6719       6720       6731       6730       6840       6841       6852       6851  
      6720       6721       6732       6731       6841       6842       6853       6852  
      6722       6723       6734       6733       6843       6844       6855       6854  
      6723       6724       6735       6734       6844       6845       6856       6855  
      6724       6725       6736       6735       6845       6846       6857       6856  
      6725       6726       6737       6736       6846       6847       6858       6857  
      6726       6727       6738       6737       6847       6848       6859       6858  
      6727       6728       6739       6738       6848       6849       6860       6859  
      6728       6729       6740       6739       6849       6850       6861       6860  
      6729       6730       6741       6740       6850       6851       6862       6861  
      6730       6731       6742       6741       6851       6852       6863       6862  
      6731       6732       6743       6742       6852       6853       6864       6863  
      6733       6734       6745       6744       6854       6855       6866       6865  
      6734       6735       6746       6745       6855       6856       6867       6866  
      6735       6736       6747       6746       6856       6857       6868       6867  
      6736       6737       6748       6747       6857       6858       6869       6868  
      6737       6738       6749       6748       6858       6859       6870       6869  
      6738       6739       6750       6749       6859       6860       6871       6870  
      6739       6740       6751       6750       6860       6861       6872       6871  
      6740       6741       6752       6751       6861       6862       6873       6872  
      6741       6742       6753       6752       6862       6863       6874       6873  
      6742       6743       6754       6753       6863       6864       6875       6874  
      6744       6745       6756       6755       6865       6866       6877       6876  
      6745       6746       6757       6756       6866       6867       6878       6877  
      6746       6747       6758       6757       6867       6868       6879       6878  
      6747       6748       6759       6758       6868       6869       6880       6879  
      6748       6749       6760       6759       6869       6870       6881       6880  
      6749       6750       6761       6760       6870       6871       6882       6881  
      6750       6751       6762       6761       6871       6872       6883       6882  
      6751       6752       6763       6762       6872       6873       6884       6883  
      6752       6753       6764       6763       6873       6874       6885       6884  
      6753       6754       6765       6764       6874       6875       6886       6885  
      6755       6756       6767       6766       6876       6877       6888       6887  
      6756       6757       6768       6767       6877       6878       6889       6888  
      6757       6758       6769       6768       6878       6879       6890       6889  
      6758       6759       6770       6769       6879       6880       6891       6890  
      6759       6760       6771       6770       6880       6881       6892       6891  
      6760       6761       6772       6771       6881       6882       6893       6892  
      6761       6762       6773       6772       6882       6883       6894       6893  
      6762       6763       6774       6773       6883       6884       6895       6894  
      6763       6764       6775       6774       6884       6885       6896       6895  
      6764       6765       6776       6775       6885       6886       6897       6896  
      6777       6778       6789       6788       6898       6899       6910       6909  
      6778       6779       6790       6789       6899       6900       6911       6910  
      6779       6780       6791       6790       6900       6901       6912       6911  
      6780       6781       6792       6791       6901       6902       6913       6912  
      6781       6782       6793       6792       6902       6903       6914       6913  
      6782       6783       6794       6793       6903       6904       6915       6914  
      6783       6784       6795       6794       6904       6905       6916       6915  
      6784       6785       6796       6795       6905       6906       6917       6916  
      6785       6786       6797       6796       6906       6907       6918       6917  
      6786       6787       6798       6797       6907       6908       6919       6918  
      6788       6789       6800       6799       6909       6910       6921       6920  
      6789       6790       6801       6800       6910       6911       6922       6921  
      6790       6791       6802       6801       6911       6912       6923       6922  
      6791       6792       6803       6802       6912       6913       6924       6923  
      6792       6793       6804       6803       6913       6914       6925       6924  
      6793       6794       6805       6804       6914       6915       6926       6925  
      6794       6795       6806       6805       6915       6916       6927       6926  
      6795       6796       6807       6806       6916       6917       6928       6927  
      6796       6797       6808       6807       6917       6918       6929       6928  
      6797       6798       6809       6808       6918       6919       6930       6929  
      6799       6800       6811       6810       6920       6921       6932       6931  
      6800       6801       6812       6811       6921       6922       6933       6932  
      6801       6802       6813       6812       6922       6923       6934       6933  
      6802       6803       6814       6813       6923       6924       6935       6934  
      6803       6804       6815       6814       6924       6925       6936       6935  
      6804       6805       6816       6815       6925       6926       6937       6936  
      6805       6806       6817       6816       6926       6927       6938       6937  
      6806       6807       6818       6817       6927       6928       6939       6938  
      6807       6808       6819       6818       6928       6929       6940       6939  
      6808       6809       6820       6819       6929       6930       6941       6940  
      6810       6811       6822       6821       6931       6932       6943       6942  
      6811       6812       6823       6822       6932       6933       6944       6943  
      6812       6813       6824       6823       6933       6934       6945       6944  
      6813       6814       6825       6824       6934       6935       6946       6945  
      6814       6815       6826       6825       6935       6936       6947       6946  
      6815       6816       6827       6826       6936       6937       6948       6947  
      6816       6817       6828       6827       6937       6938       6949       6948  
      6817       6818       6829       6828       6938       6939       6950       6949  
      6818       6819       6830       6829       6939       6940       6951       6950  
      6819       6820       6831       6830       6940       6941       6952       6951  
      6821       6822       6833       6832       6942       6943       6954       6953  
      6822       6823       6834       6833       6943       6944       6955       6954  
      6823       6824       6835       6834       6944       6945       6956       6955  
      6824       6825       6836       6835       6945       6946       6957       6956  
      6825       6826       6837       6836       6946       6947       6958       6957  
      6826       6827       6838       6837       6947       6948       6959       6958  
      6827       6828       6839       6838       6948       6949       6960       6959  
      6828       6829       6840       6839       6949       6950       6961       6960  
      6829       6830       6841       6840       6950       6951       6962       6961  
      6830       6831       6842       6841       6951       6952       6963       6962  
      6832       6833       6844       6843       6953       6954       6965       6964  
      6833       6834       6845       6844       6954       6955       6966       6965  
      6834       6835       6846       6845       6955       6956       6967       6966  
      6835       6836       6847       6846       6956       6957       6968       6967  
      6836       6837       6848       6847       6957       6958       6969       6968  
      6837       6838       6849       6848       6958       6959       6970       6969  
      6838       6839       6850       6849       6959       6960       6971       6970  
      6839       6840       6851       6850       6960       6961       6972       6971  
      6840       6841       6852       6851       6961       6962       6973       6972  
      6841       6842       6853       6852       6962       6963       6974       6973  
      6843       6844       6855       6854       6964       6965       6976       6975  
      6844       6845       6856       6855       6965       6966       6977       6976  
      6845       6846       6857       6856       6966       6967       6978       6977  
      6846       6847       6858       6857       6967       6968       6979       6978  
      6847       6848       6859       6858       6968       6969       6980       6979  
      6848       6849       6860       6859       6969       6970       6981       6980  
      6849       6850       6861       6860       6970       6971       6982       6981  
      6850       6851       6862       6861       6971       6972       6983       6982  
      6851       6852       6863       6862       6972       6973       6984       6983  
      6852       6853       6864       6863       6973       6974       6985       6984  
      6854       6855       6866       6865       6975       6976       6987       6986  
      6855       6856       6867       6866       6976       6977       6988       6987  
      6856       6857       6868       6867       6977       6978       6989       6988  
      6857       6858       6869       6868       6978       6979       6990       6989  
      6858       6859       6870       6869       6979       6980       6991       6990  
      6859       6860       6871       6870       6980       6981       6992       6991  
      6860       6861       6872       6871       6981       6982       6993       6992  
      6861       6862       6873       6872       6982       6983       6994       6993  
      6862       6863       6874       6873       6983       6984       6995       6994  
      6863       6864       6875       6874       6984       6985       6996       6995  
      6865       6866       6877       6876       6986       6987       6998       6997  
      6866       6867       6878       6877       6987       6988       6999       6998  
      6867       6868       6879       6878       6988       6989       7000       6999  
      6868       6869       6880       6879       6989       6990       7001       7000  
      6869       6870       6881       6880       6990       6991       7002       7001  
      6870       6871       6882       6881       6991       6992       7003       7002  
      6871       6872       6883       6882       6992       6993       7004       7003  
      6872       6873       6884       6883       6993       6994       7005       7004  
      6873       6874       6885       6884       6994       6995       7006       7005  
      6874       6875       6886       6885       6995       6996       7007       7006  
      6876       6877       6888       6887       6997       6998       7009       7008  
      6877       6878       6889       6888       6998       6999       7010       7009  
      6878       6879       6890       6889       6999       7000       7011       7010  
      6879       6880       6891       6890       7000       7001       7012       7011  
      6880       6881       6892       6891       7001       7002       7013       7012  
      6881       6882       6893       6892       7002       7003       7014       7013  
      6882       6883       6894       6893       7003       7004       7015       7014  
      6883       6884       6895       6894       7004       7005       7016       7015  
      6884       6885       6896       6895       7005       7006       7017       7016  
      6885       6886       6897       6896       7006       7007       7018       7017  
      6898       6899       6910       6909       7019       7020       7031       7030  
      6899       6900       6911       6910       7020       7021       7032       7031  
      6900       6901       6912       6911       7021       7022       7033       7032  
      6901       6902       6913       6912       7022       7023       7034       7033  
      6902       6903       6914       6913       7023       7024       7035       7034  
      6903       6904       6915       6914       7024       7025       7036       7035  
      6904       6905       6916       6915       7025       7026       7037       7036  
      6905       6906       6917       6916       7026       7027       7038       7037  
      6906       6907       6918       6917       7027       7028       7039       7038  
      6907       6908       6919       6918       7028       7029       7040       7039  
      6909       6910       6921       6920       7030       7031       7042       7041  
      6910       6911       6922       6921       7031       7032       7043       7042  
      6911       6912       6923       6922       7032       7033       7044       7043  
      6912       6913       6924       6923       7033       7034       7045       7044  
      6913       6914       6925       6924       7034       7035       7046       7045  
      6914       6915       6926       6925       7035       7036       7047       7046  
      6915       6916       6927       6926       7036       7037       7048       7047  
      6916       6917       6928       6927       7037       7038       7049       7048  
      6917       6918       6929       6928       7038       7039       7050       7049  
      6918       6919       6930       6929       7039       7040       7051       7050  
      6920       6921       6932       6931       7041       7042       7053       7052  
      6921       6922       6933       6932       7042       7043       7054       7053  
      6922       6923       6934       6933       7043       7044       7055       7054  
      6923       6924       6935       6934       7044       7045       7056       7055  
      6924       6925       6936       6935       7045       7046       7057       7056  
      6925       6926       6937       6936       7046       7047       7058       7057  
      6926       6927       6938       6937       7047       7048       7059       7058  
      6927       6928       6939       6938       7048       7049       7060       7059  
      6928       6929       6940       6939       7049       7050       7061       7060  
      6929       6930       6941       6940       7050       7051       7062       7061  
      6931       6932       6943       6942       7052       7053       7064       7063  
      6932       6933       6944       6943       7053       7054       7065       7064  
      6933       6934       6945       6944       7054       7055       7066       7065  
      6934       6935       6946       6945       7055       7056       7067       7066  
      6935       6936       6947       6946       7056       7057       7068       7067  
      6936       6937       6948       6947       7057       7058       7069       7068  
      6937       6938       6949       6948       7058       7059       7070       7069  
      6938       6939       6950       6949       7059       7060       7071       7070  
      6939       6940       6951       6950       7060       7061       7072       7071  
      6940       6941       6952       6951       7061       7062       7073       7072  
      6942       6943       6954       6953       7063       7064       7075       7074  
      6943       6944       6955       6954       7064       7065       7076       7075  
      6944       6945       6956       6955       7065       7066       7077       7076  
      6945       6946       6957       6956       7066       7067       7078       7077  
      6946       6947       6958       6957       7067       7068       7079       7078  
      6947       6948       6959       6958       7068       7069       7080       7079  
      6948       6949       6960       6959       7069       7070       7081       7080  
      6949       6950       6961       6960       7070       7071       7082       7081  
      6950       6951       6962       6961       7071       7072       7083       7082  
      6951       6952       6963       6962       7072       7073       7084       7083  
      6953       6954       6965       6964       7074       7075       7086       7085  
      6954       6955       6966       6965       7075       7076       7087       7086  
      6955       6956       6967       6966       7076       7077       7088       7087  
      6956       6957       6968       6967       7077       7078       7089       7088  
      6957       6958       6969       6968       7078       7079       7090       7089  
      6958       6959       6970       6969       7079       7080       7091       7090  
      6959       6960       6971       6970       7080       7081       7092       7091  
      6960       6961       6972       6971       7081       7082       7093       7092  
      6961       6962       6973       6972       7082       7083       7094       7093  
      6962       6963       6974       6973       7083       7084       7095       7094  
      6964       6965       6976       6975       7085       7086       7097       7096  
      6965       6966       6977       6976       7086       7087       7098       7097  
      6966       6967       6978       6977       7087       7088       7099       7098  
      6967       6968       6979       6978       7088       7089       7100       7099  
      6968       6969       6980       6979       7089       7090       7101       7100  
      6969       6970       6981       6980       7090       7091       7102       7101  
      6970       6971       6982       6981       7091       7092       7103       7102  
      6971       6972       6983       6982       7092       7093       7104       7103  
      6972       6973       6984       6983       7093       7094       7105       7104  
      6973       6974       6985       6984       7094       7095       7106       7105  
      6975       6976       6987       6986       7096       7097       7108       7107  
      6976       6977       6988       6987       7097       7098       7109       7108  
      6977       6978       6989       6988       7098       7099       7110       7109  
      6978       6979       6990       6989       7099       7100       7111       7110  
      6979       6980       6991       6990       7100       7101       7112       7111  
      6980       6981       6992       6991       7101       7102       7113       7112  
      6981       6982       6993       6992       7102       7103       7114       7113  
      6982       6983       6994       6993       7103       7104       7115       7114  
      6983       6984       6995       6994       7104       7105       7116       7115  
      6984       6985       6996       6995       7105       7106       7117       7116  
      6986       6987       6998       6997       7107       7108       7119       7118  
      6987       6988       6999       6998       7108       7109       7120       7119  
      6988       6989       7000       6999       7109       7110       7121       7120  
      6989       6990       7001       7000       7110       7111       7122       7121  
      6990       6991       7002       7001       7111       7112       7123       7122  
      6991       6992       7003       7002       7112       7113       7124       7123  
      6992       6993       7004       7003       7113       7114       7125       7124  
      6993       6994       7005       7004       7114       7115       7126       7125  
      6994       6995       7006       7005       7115       7116       7127       7126  
      6995       6996       7007       7006       7116       7117       7128       7127  
      6997       6998       7009       7008       7118       7119       7130       7129  
      6998       6999       7010       7009       7119       7120       7131       7130  
      6999       7000       7011       7010       7120       7121       7132       7131  
      7000       7001       7012       7011       7121       7122       7133       7132  
      7001       7002       7013       7012       7122       7123       7134       7133  
      7002       7003       7014       7013       7123       7124       7135       7134  
      7003       7004       7015       7014       7124       7125       7136       7135  
      7004       7005       7016       7015       7125       7126       7137       7136  
      7005       7006       7017       7016       7126       7127       7138       7137  
      7006       7007       7018       7017       7127       7128       7139       7138  
      7019       7020       7031       7030       7140       7141       7152       7151  
      7020       7021       7032       7031       7141       7142       7153       7152  
      7021       7022       7033       7032       7142       7143       7154       7153  
      7022       7023       7034       7033       7143       7144       7155       7154  
      7023       7024       7035       7034       7144       7145       7156       7155  
      7024       7025       7036       7035       7145       7146       7157       7156  
      7025       7026       7037       7036       7146       7147       7158       7157  
      7026       7027       7038       7037       7147       7148       7159       7158  
      7027       7028       7039       7038       7148       7149       7160       7159  
      7028       7029       7040       7039       7149       7150       7161       7160  
      7030       7031       7042       7041       7151       7152       7163       7162  
      7031       7032       7043       7042       7152       7153       7164       7163  
      7032       7033       7044       7043       7153       7154       7165       7164  
      7033       7034       7045       7044       7154       7155       7166       7165  
      7034       7035       7046       7045       7155       7156       7167       7166  
      7035       7036       7047       7046       7156       7157       7168       7167  
      7036       7037       7048       7047       7157       7158       7169       7168  
      7037       7038       7049       7048       7158       7159       7170       7169  
      7038       7039       7050       7049       7159       7160       7171       7170  
      7039       7040       7051       7050       7160       7161       7172       7171  
      7041       7042       7053       7052       7162       7163       7174       7173  
      7042       7043       7054       7053       7163       7164       7175       7174  
      7043       7044       7055       7054       7164       7165       7176       7175  
      7044       7045       7056       7055       7165       7166       7177       7176  
      7045       7046       7057       7056       7166       7167       7178       7177  
      7046       7047       7058       7057       7167       7168       7179       7178  
      7047       7048       7059       7058       7168       7169       7180       7179  
      7048       7049       7060       7059       7169       7170       7181       7180  
      7049       7050       7061       7060       7170       7171       7182       7181  
      7050       7051       7062       7061       7171       7172       7183       7182  
      7052       7053       7064       7063       7173       7174       7185       7184  
      7053       7054       7065       7064       7174       7175       7186       7185  
      7054       7055       7066       7065       7175       7176       7187       7186  
      7055       7056       7067       7066       7176       7177       7188       7187  
      7056       7057       7068       7067       7177       7178       7189       7188  
      7057       7058       7069       7068       7178       7179       7190       7189  
      7058       7059       7070       7069       7179       7180       7191       7190  
      7059       7060       7071       7070       7180       7181       7192       7191  
      7060       7061       7072       7071       7181       7182       7193       7192  
      7061       7062       7073       7072       7182       7183       7194       7193  
      7063       7064       7075       7074       7184       7185       7196       7195  
      7064       7065       7076       7075       7185       7186       7197       7196  
      7065       7066       7077       7076       7186       7187       7198       7197  
      7066       7067       7078       7077       7187       7188       7199       7198  
      7067       7068       7079       7078       7188       7189       7200       7199  
      7068       7069       7080       7079       7189       7190       7201       7200  
      7069       7070       7081       7080       7190       7191       7202       7201  
      7070       7071       7082       7081       7191       7192       7203       7202  
      7071       7072       7083       7082       7192       7193       7204       7203  
      7072       7073       7084       7083       7193       7194       7205       7204  
      7074       7075       7086       7085       7195       7196       7207       7206  
      7075       7076       7087       7086       7196       7197       7208       7207  
      7076       7077       7088       7087       7197       7198       7209       7208  
      7077       7078       7089       7088       7198       7199       7210       7209  
      7078       7079       7090       7089       7199       7200       7211       7210  
      7079       7080       7091       7090       7200       7201       7212       7211  
      7080       7081       7092       7091       7201       7202       7213       7212  
      7081       7082       7093       7092       7202       7203       7214       7213  
      7082       7083       7094       7093       7203       7204       7215       7214  
      7083       7084       7095       7094       7204       7205       7216       7215  
      7085       7086       7097       7096       7206       7207       7218       7217  
      7086       7087       7098       7097       7207       7208       7219       7218  
      7087       7088       7099       7098       7208       7209       7220       7219  
      7088       7089       7100       7099       7209       7210       7221       7220  
      7089       7090       7101       7100       7210       7211       7222       7221  
      7090       7091       7102       7101       7211       7212       7223       7222  
      7091       7092       7103       7102       7212       7213       7224       7223  
      7092       7093       7104       7103       7213       7214       7225       7224  
      7093       7094       7105       7104       7214       7215       7226       7225  
      7094       7095       7106       7105       7215       7216       7227       7226  
      7096       7097       7108       7107       7217       7218       7229       7228  
      7097       7098       7109       7108       7218       7219       7230       7229  
      7098       7099       7110       7109       7219       7220       7231       7230  
      7099       7100       7111       7110       7220       7221       7232       7231  
      7100       7101       7112       7111       7221       7222       7233       7232  
      7101       7102       7113       7112       7222       7223       7234       7233  
      7102       7103       7114       7113       7223       7224       7235       7234  
      7103       7104       7115       7114       7224       7225       7236       7235  
      7104       7105       7116       7115       7225       7226       7237       7236  
      7105       7106       7117       7116       7226       7227       7238       7237  
      7107       7108       7119       7118       7228       7229       7240       7239  
      7108       7109       7120       7119       7229       7230       7241       7240  
      7109       7110       7121       7120       7230       7231       7242       7241  
      7110       7111       7122       7121       7231       7232       7243       7242  
      7111       7112       7123       7122       7232       7233       7244       7243  
      7112       7113       7124       7123       7233       7234       7245       7244  
      7113       7114       7125       7124       7234       7235       7246       7245  
      7114       7115       7126       7125       7235       7236       7247       7246  
      7115       7116       7127       7126       7236       7237       7248       7247  
      7116       7117       7128       7127       7237       7238       7249       7248  
      7118       7119       7130       7129       7239       7240       7251       7250  
      7119       7120       7131       7130       7240       7241       7252       7251  
      7120       7121       7132       7131       7241       7242       7253       7252  
      7121       7122       7133       7132       7242       7243       7254       7253  
      7122       7123       7134       7133       7243       7244       7255       7254  
      7123       7124       7135       7134       7244       7245       7256       7255  
      7124       7125       7136       7135       7245       7246       7257       7256  
      7125       7126       7137       7136       7246       7247       7258       7257  
      7126       7127       7138       7137       7247       7248       7259       7258  
      7127       7128       7139       7138       7248       7249       7260       7259  
      7140       7141       7152       7151       7261       7262       7273       7272  
      7141       7142       7153       7152       7262       7263       7274       7273  
      7142       7143       7154       7153       7263       7264       7275       7274  
      7143       7144       7155       7154       7264       7265       7276       7275  
      7144       7145       7156       7155       7265       7266       7277       7276  
      7145       7146       7157       7156       7266       7267       7278       7277  
      7146       7147       7158       7157       7267       7268       7279       7278  
      7147       7148       7159       7158       7268       7269       7280       7279  
      7148       7149       7160       7159       7269       7270       7281       7280  
      7149       7150       7161       7160       7270       7271       7282       7281  
      7151       7152       7163       7162       7272       7273       7284       7283  
      7152       7153       7164       7163       7273       7274       7285       7284  
      7153       7154       7165       7164       7274       7275       7286       7285  
      7154       7155       7166       7165       7275       7276       7287       7286  
      7155       7156       7167       7166       7276       7277       7288       7287  
      7156       7157       7168       7167       7277       7278       7289       7288  
      7157       7158       7169       7168       7278       7279       7290       7289  
      7158       7159       7170       7169       7279       7280       7291       7290  
      7159       7160       7171       7170       7280       7281       7292       7291  
      7160       7161       7172       7171       7281       7282       7293       7292  
      7162       7163       7174       7173       7283       7284       7295       7294  
      7163       7164       7175       7174       7284       7285       7296       7295  
      7164       7165       7176       7175       7285       7286       7297       7296  
      7165       7166       7177       7176       7286       7287       7298       7297  
      7166       7167       7178       7177       7287       7288       7299       7298  
      7167       7168       7179       7178       7288       7289       7300       7299  
      7168       7169       7180       7179       7289       7290       7301       7300  
      7169       7170       7181       7180       7290       7291       7302       7301  
      7170       7171       7182       7181       7291       7292       7303       7302  
      7171       7172       7183       7182       7292       7293       7304       7303  
      7173       7174       7185       7184       7294       7295       7306       7305  
      7174       7175       7186       7185       7295       7296       7307       7306  
      7175       7176       7187       7186       7296       7297       7308       7307  
      7176       7177       7188       7187       7297       7298       7309       7308  
      7177       7178       7189       7188       7298       7299       7310       7309  
      7178       7179       7190       7189       7299       7300       7311       7310  
      7179       7180       7191       7190       7300       7301       7312       7311  
      7180       7181       7192       7191       7301       7302       7313       7312  
      7181       7182       7193       7192       7302       7303       7314       7313  
      7182       7183       7194       7193       7303       7304       7315       7314  
      7184       7185       7196       7195       7305       7306       7317       7316  
      7185       7186       7197       7196       7306       7307       7318       7317  
      7186       7187       7198       7197       7307       7308       7319       7318  
      7187       7188       7199       7198       7308       7309       7320       7319  
      7188       7189       7200       7199       7309       7310       7321       7320  
      7189       7190       7201       7200       7310       7311       7322       7321  
      7190       7191       7202       7201       7311       7312       7323       7322  
      7191       7192       7203       7202       7312       7313       7324       7323  
      7192       7193       7204       7203       7313       7314       7325       7324  
      7193       7194       7205       7204       7314       7315       7326       7325  
      7195       7196       7207       7206       7316       7317       7328       7327  
      7196       7197       7208       7207       7317       7318       7329       7328  
      7197       7198       7209       7208       7318       7319       7330       7329  
      7198       7199       7210       7209       7319       7320       7331       7330  
      7199       7200       7211       7210       7320       7321       7332       7331  
      7200       7201       7212       7211       7321       7322       7333       7332  
      7201       7202       7213       7212       7322       7323       7334       7333  
      7202       7203       7214       7213       7323       7324       7335       7334  
      7203       7204       7215       7214       7324       7325       7336       7335  
      7204       7205       7216       7215       7325       7326       7337       7336  
      7206       7207       7218       7217       7327       7328       7339       7338  
      7207       7208       7219       7218       7328       7329       7340       7339  
      7208       7209       7220       7219       7329       7330       7341       7340  
      7209       7210       7221       7220       7330       7331       7342       7341  
      7210       7211       7222       7221       7331       7332       7343       7342  
      7211       7212       7223       7222       7332       7333       7344       7343  
      7212       7213       7224       7223       7333       7334       7345       7344  
      7213       7214       7225       7224       7334       7335       7346       7345  
      7214       7215       7226       7225       7335       7336       7347       7346  
      7215       7216       7227       7226       7336       7337       7348       7347  
      7217       7218       7229       7228       7338       7339       7350       7349  
      7218       7219       7230       7229       7339       7340       7351       7350  
      7219       7220       7231       7230       7340       7341       7352       7351  
      7220       7221       7232       7231       7341       7342       7353       7352  
      7221       7222       7233       7232       7342       7343       7354       7353  
      7222       7223       7234       7233       7343       7344       7355       7354  
      7223       7224       7235       7234       7344       7345       7356       7355  
      7224       7225       7236       7235       7345       7346       7357       7356  
      7225       7226       7237       7236       7346       7347       7358       7357  
      7226       7227       7238       7237       7347       7348       7359       7358  
      7228       7229       7240       7239       7349       7350       7361       7360  
      7229       7230       7241       7240       7350       7351       7362       7361  
      7230       7231       7242       7241       7351       7352       7363       7362  
      7231       7232       7243       7242       7352       7353       7364       7363  
      7232       7233       7244       7243       7353       7354       7365       7364  
      7233       7234       7245       7244       7354       7355       7366       7365  
      7234       7235       7246       7245       7355       7356       7367       7366  
      7235       7236       7247       7246       7356       7357       7368       7367  
      7236       7237       7248       7247       7357       7358       7369       7368  
      7237       7238       7249       7248       7358       7359       7370       7369  
      7239       7240       7251       7250       7360       7361       7372       7371  
      7240       7241       7252       7251       7361       7362       7373       7372  
      7241       7242       7253       7252       7362       7363       7374       7373  
      7242       7243       7254       7253       7363       7364       7375       7374  
      7243       7244       7255       7254       7364       7365       7376       7375  
      7244       7245       7256       7255       7365       7366       7377       7376  
      7245       7246       7257       7256       7366       7367       7378       7377  
      7246       7247       7258       7257       7367       7368       7379       7378  
      7247       7248       7259       7258       7368       7369       7380       7379  
      7248       7249       7260       7259       7369       7370       7381       7380  
      7261       7262       7273       7272       7382       7383       7394       7393  
      7262       7263       7274       7273       7383       7384       7395       7394  
      7263       7264       7275       7274       7384       7385       7396       7395  
      7264       7265       7276       7275       7385       7386       7397       7396  
      7265       7266       7277       7276       7386       7387       7398       7397  
      7266       7267       7278       7277       7387       7388       7399       7398  
      7267       7268       7279       7278       7388       7389       7400       7399  
      7268       7269       7280       7279       7389       7390       7401       7400  
      7269       7270       7281       7280       7390       7391       7402       7401  
      7270       7271       7282       7281       7391       7392       7403       7402  
      7272       7273       7284       7283       7393       7394       7405       7404  
      7273       7274       7285       7284       7394       7395       7406       7405  
      7274       7275       7286       7285       7395       7396       7407       7406  
      7275       7276       7287       7286       7396       7397       7408       7407  
      7276       7277       7288       7287       7397       7398       7409       7408  
      7277       7278       7289       7288       7398       7399       7410       7409  
      7278       7279       7290       7289       7399       7400       7411       7410  
      7279       7280       7291       7290       7400       7401       7412       7411  
      7280       7281       7292       7291       7401       7402       7413       7412  
      7281       7282       7293       7292       7402       7403       7414       7413  
      7283       7284       7295       7294       7404       7405       7416       7415  
      7284       7285       7296       7295       7405       7406       7417       7416  
      7285       7286       7297       7296       7406       7407       7418       7417  
      7286       7287       7298       7297       7407       7408       7419       7418  
      7287       7288       7299       7298       7408       7409       7420       7419  
      7288       7289       7300       7299       7409       7410       7421       7420  
      7289       7290       7301       7300       7410       7411       7422       7421  
      7290       7291       7302       7301       7411       7412       7423       7422  
      7291       7292       7303       7302       7412       7413       7424       7423  
      7292       7293       7304       7303       7413       7414       7425       7424  
      7294       7295       7306       7305       7415       7416       7427       7426  
      7295       7296       7307       7306       7416       7417       7428       7427  
      7296       7297       7308       7307       7417       7418       7429       7428  
      7297       7298       7309       7308       7418       7419       7430       7429  
      7298       7299       7310       7309       7419       7420       7431       7430  
      7299       7300       7311       7310       7420       7421       7432       7431  
      7300       7301       7312       7311       7421       7422       7433       7432  
      7301       7302       7313       7312       7422       7423       7434       7433  
      7302       7303       7314       7313       7423       7424       7435       7434  
      7303       7304       7315       7314       7424       7425       7436       7435  
      7305       7306       7317       7316       7426       7427       7438       7437  
      7306       7307       7318       7317       7427       7428       7439       7438  
      7307       7308       7319       7318       7428       7429       7440       7439  
      7308       7309       7320       7319       7429       7430       7441       7440  
      7309       7310       7321       7320       7430       7431       7442       7441  
      7310       7311       7322       7321       7431       7432       7443       7442  
      7311       7312       7323       7322       7432       7433       7444       7443  
      7312       7313       7324       7323       7433       7434       7445       7444  
      7313       7314       7325       7324       7434       7435       7446       7445  
      7314       7315       7326       7325       7435       7436       7447       7446  
      7316       7317       7328       7327       7437       7438       7449       7448  
      7317       7318       7329       7328       7438       7439       7450       7449  
      7318       7319       7330       7329       7439       7440       7451       7450  
      7319       7320       7331       7330       7440       7441       7452       7451  
      7320       7321       7332       7331       7441       7442       7453       7452  
      7321       7322       7333       7332       7442       7443       7454       7453  
      7322       7323       7334       7333       7443       7444       7455       7454  
      7323       7324       7335       7334       7444       7445       7456       7455  
      7324       7325       7336       7335       7445       7446       7457       7456  
      7325       7326       7337       7336       7446       7447       7458       7457  
      7327       7328       7339       7338       7448       7449       7460       7459  
      7328       7329       7340       7339       7449       7450       7461       7460  
      7329       7330       7341       7340       7450       7451       7462       7461  
      7330       7331       7342       7341       7451       7452       7463       7462  
      7331       7332       7343       7342       7452       7453       7464       7463  
      7332       7333       7344       7343       7453       7454       7465       7464  
      7333       7334       7345       7344       7454       7455       7466       7465  
      7334       7335       7346       7345       7455       7456       7467       7466  
      7335       7336       7347       7346       7456       7457       7468       7467  
      7336       7337       7348       7347       7457       7458       7469       7468  
      7338       7339       7350       7349       7459       7460       7471       7470  
      7339       7340       7351       7350       7460       7461       7472       7471  
      7340       7341       7352       7351       7461       7462       7473       7472  
      7341       7342       7353       7352       7462       7463       7474       7473  
      7342       7343       7354       7353       7463       7464       7475       7474  
      7343       7344       7355       7354       7464       7465       7476       7475  
      7344       7345       7356       7355       7465       7466       7477       7476  
      7345       7346       7357       7356       7466       7467       7478       7477  
      7346       7347       7358       7357       7467       7468       7479       7478  
      7347       7348       7359       7358       7468       7469       7480       7479  
      7349       7350       7361       7360       7470       7471       7482       7481  
      7350       7351       7362       7361       7471       7472       7483       7482  
      7351       7352       7363       7362       7472       7473       7484       7483  
      7352       7353       7364       7363       7473       7474       7485       7484  
      7353       7354       7365       7364       7474       7475       7486       7485  
      7354       7355       7366       7365       7475       7476       7487       7486  
      7355       7356       7367       7366       7476       7477       7488       7487  
      7356       7357       7368       7367       7477       7478       7489       7488  
      7357       7358       7369       7368       7478       7479       7490       7489  
      7358       7359       7370       7369       7479       7480       7491       7490  
      7360       7361       7372       7371       7481       7482       7493       7492  
      7361       7362       7373       7372       7482       7483       7494       7493  
      7362       7363       7374       7373       7483       7484       7495       7494  
      7363       7364       7375       7374       7484       7485       7496       7495  
      7364       7365       7376       7375       7485       7486       7497       7496  
      7365       7366       7377       7376       7486       7487       7498       7497  
      7366       7367       7378       7377       7487       7488       7499       7498  
      7367       7368       7379       7378       7488       7489       7500       7499  
      7368       7369       7380       7379       7489       7490       7501       7500  
      7369       7370       7381       7380       7490       7491       7502       7501  
      7382       7383       7394       7393       7503       7504       7515       7514  
      7383       7384       7395       7394       7504       7505       7516       7515  
      7384       7385       7396       7395       7505       7506       7517       7516  
      7385       7386       7397       7396       7506       7507       7518       7517  
      7386       7387       7398       7397       7507       7508       7519       7518  
      7387       7388       7399       7398       7508       7509       7520       7519  
      7388       7389       7400       7399       7509       7510       7521       7520  
      7389       7390       7401       7400       7510       7511       7522       7521  
      7390       7391       7402       7401       7511       7512       7523       7522  
      7391       7392       7403       7402       7512       7513       7524       7523  
      7393       7394       7405       7404       7514       7515       7526       7525  
      7394       7395       7406       7405       7515       7516       7527       7526  
      7395       7396       7407       7406       7516       7517       7528       7527  
      7396       7397       7408       7407       7517       7518       7529       7528  
      7397       7398       7409       7408       7518       7519       7530       7529  
      7398       7399       7410       7409       7519       7520       7531       7530  
      7399       7400       7411       7410       7520       7521       7532       7531  
      7400       7401       7412       7411       7521       7522       7533       7532  
      7401       7402       7413       7412       7522       7523       7534       7533  
      7402       7403       7414       7413       7523       7524       7535       7534  
      7404       7405       7416       7415       7525       7526       7537       7536  
      7405       7406       7417       7416       7526       7527       7538       7537  
      7406       7407       7418       7417       7527       7528       7539       7538  
      7407       7408       7419       7418       7528       7529       7540       7539  
      7408       7409       7420       7419       7529       7530       7541       7540  
      7409       7410       7421       7420       7530       7531       7542       7541  
      7410       7411       7422       7421       7531       7532       7543       7542  
      7411       7412       7423       7422       7532       7533       7544       7543  
      7412       7413       7424       7423       7533       7534       7545       7544  
      7413       7414       7425       7424       7534       7535       7546       7545  
      7415       7416       7427       7426       7536       7537       7548       7547  
      7416       7417       7428       7427       7537       7538       7549       7548  
      7417       7418       7429       7428       7538       7539       7550       7549  
      7418       7419       7430       7429       7539       7540       7551       7550  
      7419       7420       7431       7430       7540       7541       7552       7551  
      7420       7421       7432       7431       7541       7542       7553       7552  
      7421       7422       7433       7432       7542       7543       7554       7553  
      7422       7423       7434       7433       7543       7544       7555       7554  
      7423       7424       7435       7434       7544       7545       7556       7555  
      7424       7425       7436       7435       7545       7546       7557       7556  
      7426       7427       7438       7437       7547       7548       7559       7558  
      7427       7428       7439       7438       7548       7549       7560       7559  
      7428       7429       7440       7439       7549       7550       7561       7560  
      7429       7430       7441       7440       7550       7551       7562       7561  
      7430       7431       7442       7441       7551       7552       7563       7562  
      7431       7432       7443       7442       7552       7553       7564       7563  
      7432       7433       7444       7443       7553       7554       7565       7564  
      7433       7434       7445       7444       7554       7555       7566       7565  
      7434       7435       7446       7445       7555       7556       7567       7566  
      7435       7436       7447       7446       7556       7557       7568       7567  
      7437       7438       7449       7448       7558       7559       7570       7569  
      7438       7439       7450       7449       7559       7560       7571       7570  
      7439       7440       7451       7450       7560       7561       7572       7571  
      7440       7441       7452       7451       7561       7562       7573       7572  
      7441       7442       7453       7452       7562       7563       7574       7573  
      7442       7443       7454       7453       7563       7564       7575       7574  
      7443       7444       7455       7454       7564       7565       7576       7575  
      7444       7445       7456       7455       7565       7566       7577       7576  
      7445       7446       7457       7456       7566       7567       7578       7577  
      7446       7447       7458       7457       7567       7568       7579       7578  
      7448       7449       7460       7459       7569       7570       7581       7580  
      7449       7450       7461       7460       7570       7571       7582       7581  
      7450       7451       7462       7461       7571       7572       7583       7582  
      7451       7452       7463       7462       7572       7573       7584       7583  
      7452       7453       7464       7463       7573       7574       7585       7584  
      7453       7454       7465       7464       7574       7575       7586       7585  
      7454       7455       7466       7465       7575       7576       7587       7586  
      7455       7456       7467       7466       7576       7577       7588       7587  
      7456       7457       7468       7467       7577       7578       7589       7588  
      7457       7458       7469       7468       7578       7579       7590       7589  
      7459       7460       7471       7470       7580       7581       7592       7591  
      7460       7461       7472       7471       7581       7582       7593       7592  
      7461       7462       7473       7472       7582       7583       7594       7593  
      7462       7463       7474       7473       7583       7584       7595       7594  
      7463       7464       7475       7474       7584       7585       7596       7595  
      7464       7465       7476       7475       7585       7586       7597       7596  
      7465       7466       7477       7476       7586       7587       7598       7597  
      7466       7467       7478       7477       7587       7588       7599       7598  
      7467       7468       7479       7478       7588       7589       7600       7599  
      7468       7469       7480       7479       7589       7590       7601       7600  
      7470       7471       7482       7481       7591       7592       7603       7602  
      7471       7472       7483       7482       7592       7593       7604       7603  
      7472       7473       7484       7483       7593       7594       7605       7604  
      7473       7474       7485       7484       7594       7595       7606       7605  
      7474       7475       7486       7485       7595       7596       7607       7606  
      7475       7476       7487       7486       7596       7597       7608       7607  
      7476       7477       7488       7487       7597       7598       7609       7608  
      7477       7478       7489       7488       7598       7599       7610       7609  
      7478       7479       7490       7489       7599       7600       7611       7610  
      7479       7480       7491       7490       7600       7601       7612       7611  
      7481       7482       7493       7492       7602       7603       7614       7613  
      7482       7483       7494       7493       7603       7604       7615       7614  
      7483       7484       7495       7494       7604       7605       7616       7615  
      7484       7485       7496       7495       7605       7606       7617       7616  
      7485       7486       7497       7496       7606       7607       7618       7617  
      7486       7487       7498       7497       7607       7608       7619       7618  
      7487       7488       7499       7498       7608       7609       7620       7619  
      7488       7489       7500       7499       7609       7610       7621       7620  
      7489       7490       7501       7500       7610       7611       7622       7621  
      7490       7491       7502       7501       7611       7612       7623       7622  
      7503       7504       7515       7514       7624       7625       7636       7635  
      7504       7505       7516       7515       7625       7626       7637       7636  
      7505       7506       7517       7516       7626       7627       7638       7637  
      7506       7507       7518       7517       7627       7628       7639       7638  
      7507       7508       7519       7518       7628       7629       7640       7639  
      7508       7509       7520       7519       7629       7630       7641       7640  
      7509       7510       7521       7520       7630       7631       7642       7641  
      7510       7511       7522       7521       7631       7632       7643       7642  
      7511       7512       7523       7522       7632       7633       7644       7643  
      7512       7513       7524       7523       7633       7634       7645       7644  
      7514       7515       7526       7525       7635       7636       7647       7646  
      7515       7516       7527       7526       7636       7637       7648       7647  
      7516       7517       7528       7527       7637       7638       7649       7648  
      7517       7518       7529       7528       7638       7639       7650       7649  
      7518       7519       7530       7529       7639       7640       7651       7650  
      7519       7520       7531       7530       7640       7641       7652       7651  
      7520       7521       7532       7531       7641       7642       7653       7652  
      7521       7522       7533       7532       7642       7643       7654       7653  
      7522       7523       7534       7533       7643       7644       7655       7654  
      7523       7524       7535       7534       7644       7645       7656       7655  
      7525       7526       7537       7536       7646       7647       7658       7657  
      7526       7527       7538       7537       7647       7648       7659       7658  
      7527       7528       7539       7538       7648       7649       7660       7659  
      7528       7529       7540       7539       7649       7650       7661       7660  
      7529       7530       7541       7540       7650       7651       7662       7661  
      7530       7531       7542       7541       7651       7652       7663       7662  
      7531       7532       7543       7542       7652       7653       7664       7663  
      7532       7533       7544       7543       7653       7654       7665       7664  
      7533       7534       7545       7544       7654       7655       7666       7665  
      7534       7535       7546       7545       7655       7656       7667       7666  
      7536       7537       7548       7547       7657       7658       7669       7668  
      7537       7538       7549       7548       7658       7659       7670       7669  
      7538       7539       7550       7549       7659       7660       7671       7670  
      7539       7540       7551       7550       7660       7661       7672       7671  
      7540       7541       7552       7551       7661       7662       7673       7672  
      7541       7542       7553       7552       7662       7663       7674       7673  
      7542       7543       7554       7553       7663       7664       7675       7674  
      7543       7544       7555       7554       7664       7665       7676       7675  
      7544       7545       7556       7555       7665       7666       7677       7676  
      7545       7546       7557       7556       7666       7667       7678       7677  
      7547       7548       7559       7558       7668       7669       7680       7679  
      7548       7549       7560       7559       7669       7670       7681       7680  
      7549       7550       7561       7560       7670       7671       7682       7681  
      7550       7551       7562       7561       7671       7672       7683       7682  
      7551       7552       7563       7562       7672       7673       7684       7683  
      7552       7553       7564       7563       7673       7674       7685       7684  
      7553       7554       7565       7564       7674       7675       7686       7685  
      7554       7555       7566       7565       7675       7676       7687       7686  
      7555       7556       7567       7566       7676       7677       7688       7687  
      7556       7557       7568       7567       7677       7678       7689       7688  
      7558       7559       7570       7569       7679       7680       7691       7690  
      7559       7560       7571       7570       7680       7681       7692       7691  
      7560       7561       7572       7571       7681       7682       7693       7692  
      7561       7562       7573       7572       7682       7683       7694       7693  
      7562       7563       7574       7573       7683       7684       7695       7694  
      7563       7564       7575       7574       7684       7685       7696       7695  
      7564       7565       7576       7575       7685       7686       7697       7696  
      7565       7566       7577       7576       7686       7687       7698       7697  
      7566       7567       7578       7577       7687       7688       7699       7698  
      7567       7568       7579       7578       7688       7689       7700       7699  
      7569       7570       7581       7580       7690       7691       7702       7701  
      7570       7571       7582       7581       7691       7692       7703       7702  
      7571       7572       7583       7582       7692       7693       7704       7703  
      7572       7573       7584       7583       7693       7694       7705       7704  
      7573       7574       7585       7584       7694       7695       7706       7705  
      7574       7575       7586       7585       7695       7696       7707       7706  
      7575       7576       7587       7586       7696       7697       7708       7707  
      7576       7577       7588       7587       7697       7698       7709       7708  
      7577       7578       7589       7588       7698       7699       7710       7709  
      7578       7579       7590       7589       7699       7700       7711       7710  
      7580       7581       7592       7591       7701       7702       7713       7712  
      7581       7582       7593       7592       7702       7703       7714       7713  
      7582       7583       7594       7593       7703       7704       7715       7714  
      7583       7584       7595       7594       7704       7705       7716       7715  
      7584       7585       7596       7595       7705       7706       7717       7716  
      7585       7586       7597       7596       7706       7707       7718       7717  
      7586       7587       7598       7597       7707       7708       7719       7718  
      7587       7588       7599       7598       7708       7709       7720       7719  
      7588       7589       7600       7599       7709       7710       7721       7720  
      7589       7590       7601       7600       7710       7711       7722       7721  
      7591       7592       7603       7602       7712       7713       7724       7723  
      7592       7593       7604       7603       7713       7714       7725       7724  
      7593       7594       7605       7604       7714       7715       7726       7725  
      7594       7595       7606       7605       7715       7716       7727       7726  
      7595       7596       7607       7606       7716       7717       7728       7727  
      7596       7597       7608       7607       7717       7718       7729       7728  
      7597       7598       7609       7608       7718       7719       7730       7729  
      7598       7599       7610       7609       7719       7720       7731       7730  
      7599       7600       7611       7610       7720       7721       7732       7731  
      7600       7601       7612       7611       7721       7722       7733       7732  
      7602       7603       7614       7613       7723       7724       7735       7734  
      7603       7604       7615       7614       7724       7725       7736       7735  
      7604       7605       7616       7615       7725       7726       7737       7736  
      7605       7606       7617       7616       7726       7727       7738       7737  
      7606       7607       7618       7617       7727       7728       7739       7738  
      7607       7608       7619       7618       7728       7729       7740       7739  
      7608       7609       7620       7619       7729       7730       7741       7740  
      7609       7610       7621       7620       7730       7731       7742       7741  
      7610       7611       7622       7621       7731       7732       7743       7742  
      7611       7612       7623       7622       7732       7733       7744       7743  
      7624       7625       7636       7635       7745       7746       7757       7756  
      7625       7626       7637       7636       7746       7747       7758       7757  
      7626       7627       7638       7637       7747       7748       7759       7758  
      7627       7628       7639       7638       7748       7749       7760       7759  
      7628       7629       7640       7639       7749       7750       7761       7760  
      7629       7630       7641       7640       7750       7751       7762       7761  
      7630       7631       7642       7641       7751       7752       7763       7762  
      7631       7632       7643       7642       7752       7753       7764       7763  
      7632       7633       7644       7643       7753       7754       7765       7764  
      7633       7634       7645       7644       7754       7755       7766       7765  
      7635       7636       7647       7646       7756       7757       7768       7767  
      7636       7637       7648       7647       7757       7758       7769       7768  
      7637       7638       7649       7648       7758       7759       7770       7769  
      7638       7639       7650       7649       7759       7760       7771       7770  
      7639       7640       7651       7650       7760       7761       7772       7771  
      7640       7641       7652       7651       7761       7762       7773       7772  
      7641       7642       7653       7652       7762       7763       7774       7773  
      7642       7643       7654       7653       7763       7764       7775       7774  
      7643       7644       7655       7654       7764       7765       7776       7775  
      7644       7645       7656       7655       7765       7766       7777       7776  
      7646       7647       7658       7657       7767       7768       7779       7778  
      7647       7648       7659       7658       7768       7769       7780       7779  
      7648       7649       7660       7659       7769       7770       7781       7780  
      7649       7650       7661       7660       7770       7771       7782       7781  
      7650       7651       7662       7661       7771       7772       7783       7782  
      7651       7652       7663       7662       7772       7773       7784       7783  
      7652       7653       7664       7663       7773       7774       7785       7784  
      7653       7654       7665       7664       7774       7775       7786       7785  
      7654       7655       7666       7665       7775       7776       7787       7786  
      7655       7656       7667       7666       7776       7777       7788       7787  
      7657       7658       7669       7668       7778       7779       7790       7789  
      7658       7659       7670       7669       7779       7780       7791       7790  
      7659       7660       7671       7670       7780       7781       7792       7791  
      7660       7661       7672       7671       7781       7782       7793       7792  
      7661       7662       7673       7672       7782       7783       7794       7793  
      7662       7663       7674       7673       7783       7784       7795       7794  
      7663       7664       7675       7674       7784       7785       7796       7795  
      7664       7665       7676       7675       7785       7786       7797       7796  
      7665       7666       7677       7676       7786       7787       7798       7797  
      7666       7667       7678       7677       7787       7788       7799       7798  
      7668       7669       7680       7679       7789       7790       7801       7800  
      7669       7670       7681       7680       7790       7791       7802       7801  
      7670       7671       7682       7681       7791       7792       7803       7802  
      7671       7672       7683       7682       7792       7793       7804       7803  
      7672       7673       7684       7683       7793       7794       7805       7804  
      7673       7674       7685       7684       7794       7795       7806       7805  
      7674       7675       7686       7685       7795       7796       7807       7806  
      7675       7676       7687       7686       7796       7797       7808       7807  
      7676       7677       7688       7687       7797       7798       7809       7808  
      7677       7678       7689       7688       7798       7799       7810       7809  
      7679       7680       7691       7690       7800       7801       7812       7811  
      7680       7681       7692       7691       7801       7802       7813       7812  
      7681       7682       7693       7692       7802       7803       7814       7813  
      7682       7683       7694       7693       7803       7804       7815       7814  
      7683       7684       7695       7694       7804       7805       7816       7815  
      7684       7685       7696       7695       7805       7806       7817       7816  
      7685       7686       7697       7696       7806       7807       7818       7817  
      7686       7687       7698       7697       7807       7808       7819       7818  
      7687       7688       7699       7698       7808       7809       7820       7819  
      7688       7689       7700       7699       7809       7810       7821       7820  
      7690       7691       7702       7701       7811       7812       7823       7822  
      7691       7692       7703       7702       7812       7813       7824       7823  
      7692       7693       7704       7703       7813       7814       7825       7824  
      7693       7694       7705       7704       7814       7815       7826       7825  
      7694       7695       7706       7705       7815       7816       7827       7826  
      7695       7696       7707       7706       7816       7817       7828       7827  
      7696       7697       7708       7707       7817       7818       7829       7828  
      7697       7698       7709       7708       7818       7819       7830       7829  
      7698       7699       7710       7709       7819       7820       7831       7830  
      7699       7700       7711       7710       7820       7821       7832       7831  
      7701       7702       7713       7712       7822       7823       7834       7833  
      7702       7703       7714       7713       7823       7824       7835       7834  
      7703       7704       7715       7714       7824       7825       7836       7835  
      7704       7705       7716       7715       7825       7826       7837       7836  
      7705       7706       7717       7716       7826       7827       7838       7837  
      7706       7707       7718       7717       7827       7828       7839       7838  
      7707       7708       7719       7718       7828       7829       7840       7839  
      7708       7709       7720       7719       7829       7830       7841       7840  
      7709       7710       7721       7720       7830       7831       7842       7841  
      7710       7711       7722       7721       7831       7832       7843       7842  
      7712       7713       7724       7723       7833       7834       7845       7844  
      7713       7714       7725       7724       7834       7835       7846       7845  
      7714       7715       7726       7725       7835       7836       7847       7846  
      7715       7716       7727       7726       7836       7837       7848       7847  
      7716       7717       7728       7727       7837       7838       7849       7848  
      7717       7718       7729       7728       7838       7839       7850       7849  
      7718       7719       7730       7729       7839       7840       7851       7850  
      7719       7720       7731       7730       7840       7841       7852       7851  
      7720       7721       7732       7731       7841       7842       7853       7852  
      7721       7722       7733       7732       7842       7843       7854       7853  
      7723       7724       7735       7734       7844       7845       7856       7855  
      7724       7725       7736       7735       7845       7846       7857       7856  
      7725       7726       7737       7736       7846       7847       7858       7857  
      7726       7727       7738       7737       7847       7848       7859       7858  
      7727       7728       7739       7738       7848       7849       7860       7859  
      7728       7729       7740       7739       7849       7850       7861       7860  
      7729       7730       7741       7740       7850       7851       7862       7861  
      7730       7731       7742       7741       7851       7852       7863       7862  
      7731       7732       7743       7742       7852       7853       7864       7863  
      7732       7733       7744       7743       7853       7854       7865       7864  
      7745       7746       7757       7756       7866       7867       7878       7877  
      7746       7747       7758       7757       7867       7868       7879       7878  
      7747       7748       7759       7758       7868       7869       7880       7879  
      7748       7749       7760       7759       7869       7870       7881       7880  
      7749       7750       7761       7760       7870       7871       7882       7881  
      7750       7751       7762       7761       7871       7872       7883       7882  
      7751       7752       7763       7762       7872       7873       7884       7883  
      7752       7753       7764       7763       7873       7874       7885       7884  
      7753       7754       7765       7764       7874       7875       7886       7885  
      7754       7755       7766       7765       7875       7876       7887       7886  
      7756       7757       7768       7767       7877       7878       7889       7888  
      7757       7758       7769       7768       7878       7879       7890       7889  
      7758       7759       7770       7769       7879       7880       7891       7890  
      7759       7760       7771       7770       7880       7881       7892       7891  
      7760       7761       7772       7771       7881       7882       7893       7892  
      7761       7762       7773       7772       7882       7883       7894       7893  
      7762       7763       7774       7773       7883       7884       7895       7894  
      7763       7764       7775       7774       7884       7885       7896       7895  
      7764       7765       7776       7775       7885       7886       7897       7896  
      7765       7766       7777       7776       7886       7887       7898       7897  
      7767       7768       7779       7778       7888       7889       7900       7899  
      7768       7769       7780       7779       7889       7890       7901       7900  
      7769       7770       7781       7780       7890       7891       7902       7901  
      7770       7771       7782       7781       7891       7892       7903       7902  
      7771       7772       7783       7782       7892       7893       7904       7903  
      7772       7773       7784       7783       7893       7894       7905       7904  
      7773       7774       7785       7784       7894       7895       7906       7905  
      7774       7775       7786       7785       7895       7896       7907       7906  
      7775       7776       7787       7786       7896       7897       7908       7907  
      7776       7777       7788       7787       7897       7898       7909       7908  
      7778       7779       7790       7789       7899       7900       7911       7910  
      7779       7780       7791       7790       7900       7901       7912       7911  
      7780       7781       7792       7791       7901       7902       7913       7912  
      7781       7782       7793       7792       7902       7903       7914       7913  
      7782       7783       7794       7793       7903       7904       7915       7914  
      7783       7784       7795       7794       7904       7905       7916       7915  
      7784       7785       7796       7795       7905       7906       7917       7916  
      7785       7786       7797       7796       7906       7907       7918       7917  
      7786       7787       7798       7797       7907       7908       7919       7918  
      7787       7788       7799       7798       7908       7909       7920       7919  
      7789       7790       7801       7800       7910       7911       7922       7921  
      7790       7791       7802       7801       7911       7912       7923       7922  
      7791       7792       7803       7802       7912       7913       7924       7923  
      7792       7793       7804       7803       7913       7914       7925       7924  
      7793       7794       7805       7804       7914       7915       7926       7925  
      7794       7795       7806       7805       7915       7916       7927       7926  
      7795       7796       7807       7806       7916       7917       7928       7927  
      7796       7797       7808       7807       7917       7918       7929       7928  
      7797       7798       7809       7808       7918       7919       7930       7929  
      7798       7799       7810       7809       7919       7920       7931       7930  
      7800       7801       7812       7811       7921       7922       7933       7932  
      7801       7802       7813       7812       7922       7923       7934       7933  
      7802       7803       7814       7813       7923       7924       7935       7934  
      7803       7804       7815       7814       7924       7925       7936       7935  
      7804       7805       7816       7815       7925       7926       7937       7936  
      7805       7806       7817       7816       7926       7927       7938       7937  
      7806       7807       7818       7817       7927       7928       7939       7938  
      7807       7808       7819       7818       7928       7929       7940       7939  
      7808       7809       7820       7819       7929       7930       7941       7940  
      7809       7810       7821       7820       7930       7931       7942       7941  
      7811       7812       7823       7822       7932       7933       7944       7943  
      7812       7813       7824       7823       7933       7934       7945       7944  
      7813       7814       7825       7824       7934       7935       7946       7945  
      7814       7815       7826       7825       7935       7936       7947       7946  
      7815       7816       7827       7826       7936       7937       7948       7947  
      7816       7817       7828       7827       7937       7938       7949       7948  
      7817       7818       7829       7828       7938       7939       7950       7949  
      7818       7819       7830       7829       7939       7940       7951       7950  
      7819       7820       7831       7830       7940       7941       7952       7951  
      7820       7821       7832       7831       7941       7942       7953       7952  
      7822       7823       7834       7833       7943       7944       7955       7954  
      7823       7824       7835       7834       7944       7945       7956       7955  
      7824       7825       7836       7835       7945       7946       7957       7956  
      7825       7826       7837       7836       7946       7947       7958       7957  
      7826       7827       7838       7837       7947       7948       7959       7958  
      7827       7828       7839       7838       7948       7949       7960       7959  
      7828       7829       7840       7839       7949       7950       7961       7960  
      7829       7830       7841       7840       7950       7951       7962       7961  
      7830       7831       7842       7841       7951       7952       7963       7962  
      7831       7832       7843       7842       7952       7953       7964       7963  
      7833       7834       7845       7844       7954       7955       7966       7965  
      7834       7835       7846       7845       7955       7956       7967       7966  
      7835       7836       7847       7846       7956       7957       7968       7967  
      7836       7837       7848       7847       7957       7958       7969       7968  
      7837       7838       7849       7848       7958       7959       7970       7969  
      7838       7839       7850       7849       7959       7960       7971       7970  
      7839       7840       7851       7850       7960       7961       7972       7971  
      7840       7841       7852       7851       7961       7962       7973       7972  
      7841       7842       7853       7852       7962       7963       7974       7973  
      7842       7843       7854       7853       7963       7964       7975       7974  
      7844       7845       7856       7855       7965       7966       7977       7976  
      7845       7846       7857       7856       7966       7967       7978       7977  
      7846       7847       7858       7857       7967       7968       7979       7978  
      7847       7848       7859       7858       7968       7969       7980       7979  
      7848       7849       7860       7859       7969       7970       7981       7980  
      7849       7850       7861       7860       7970       7971       7982       7981  
      7850       7851       7862       7861       7971       7972       7983       7982  
      7851       7852       7863       7862       7972       7973       7984       7983  
      7852       7853       7864       7863       7973       7974       7985       7984  
      7853       7854       7865       7864       7974       7975       7986       7985  
      7866       7867       7878       7877       7987       7988       7999       7998  
      7867       7868       7879       7878       7988       7989       8000       7999  
      7868       7869       7880       7879       7989       7990       8001       8000  
      7869       7870       7881       7880       7990       7991       8002       8001  
      7870       7871       7882       7881       7991       7992       8003       8002  
      7871       7872       7883       7882       7992       7993       8004       8003  
      7872       7873       7884       7883       7993       7994       8005       8004  
      7873       7874       7885       7884       7994       7995       8006       8005  
      7874       7875       7886       7885       7995       7996       8007       8006  
      7875       7876       7887       7886       7996       7997       8008       8007  
      7877       7878       7889       7888       7998       7999       8010       8009  
      7878       7879       7890       7889       7999       8000       8011       8010  
      7879       7880       7891       7890       8000       8001       8012       8011  
      7880       7881       7892       7891       8001       8002       8013       8012  
      7881       7882       7893       7892       8002       8003       8014       8013  
      7882       7883       7894       7893       8003       8004       8015       8014  
      7883       7884       7895       7894       8004       8005       8016       8015  
      7884       7885       7896       7895       8005       8006       8017       8016  
      7885       7886       7897       7896       8006       8007       8018       8017  
      7886       7887       7898       7897       8007       8008       8019       8018  
      7888       7889       7900       7899       8009       8010       8021       8020  
      7889       7890       7901       7900       8010       8011       8022       8021  
      7890       7891       7902       7901       8011       8012       8023       8022  
      7891       7892       7903       7902       8012       8013       8024       8023  
      7892       7893       7904       7903       8013       8014       8025       8024  
      7893       7894       7905       7904       8014       8015       8026       8025  
      7894       7895       7906       7905       8015       8016       8027       8026  
      7895       7896       7907       7906       8016       8017       8028       8027  
      7896       7897       7908       7907       8017       8018       8029       8028  
      7897       7898       7909       7908       8018       8019       8030       8029  
      7899       7900       7911       7910       8020       8021       8032       8031  
      7900       7901       7912       7911       8021       8022       8033       8032  
      7901       7902       7913       7912       8022       8023       8034       8033  
      7902       7903       7914       7913       8023       8024       8035       8034  
      7903       7904       7915       7914       8024       8025       8036       8035  
      7904       7905       7916       7915       8025       8026       8037       8036  
      7905       7906       7917       7916       8026       8027       8038       8037  
      7906       7907       7918       7917       8027       8028       8039       8038  
      7907       7908       7919       7918       8028       8029       8040       8039  
      7908       7909       7920       7919       8029       8030       8041       8040  
      7910       7911       7922       7921       8031       8032       8043       8042  
      7911       7912       7923       7922       8032       8033       8044       8043  
      7912       7913       7924       7923       8033       8034       8045       8044  
      7913       7914       7925       7924       8034       8035       8046       8045  
      7914       7915       7926       7925       8035       8036       8047       8046  
      7915       7916       7927       7926       8036       8037       8048       8047  
      7916       7917       7928       7927       8037       8038       8049       8048  
      7917       7918       7929       7928       8038       8039       8050       8049  
      7918       7919       7930       7929       8039       8040       8051       8050  
      7919       7920       7931       7930       8040       8041       8052       8051  
      7921       7922       7933       7932       8042       8043       8054       8053  
      7922       7923       7934       7933       8043       8044       8055       8054  
      7923       7924       7935       7934       8044       8045       8056       8055  
      7924       7925       7936       7935       8045       8046       8057       8056  
      7925       7926       7937       7936       8046       8047       8058       8057  
      7926       7927       7938       7937       8047       8048       8059       8058  
      7927       7928       7939       7938       8048       8049       8060       8059  
      7928       7929       7940       7939       8049       8050       8061       8060  
      7929       7930       7941       7940       8050       8051       8062       8061  
      7930       7931       7942       7941       8051       8052       8063       8062  
      7932       7933       7944       7943       8053       8054       8065       8064  
      7933       7934       7945       7944       8054       8055       8066       8065  
      7934       7935       7946       7945       8055       8056       8067       8066  
      7935       7936       7947       7946       8056       8057       8068       8067  
      7936       7937       7948       7947       8057       8058       8069       8068  
      7937       7938       7949       7948       8058       8059       8070       8069  
      7938       7939       7950       7949       8059       8060       8071       8070  
      7939       7940       7951       7950       8060       8061       8072       8071  
      7940       7941       7952       7951       8061       8062       8073       8072  
      7941       7942       7953       7952       8062       8063       8074       8073  
      7943       7944       7955       7954       8064       8065       8076       8075  
      7944       7945       7956       7955       8065       8066       8077       8076  
      7945       7946       7957       7956       8066       8067       8078       8077  
      7946       7947       7958       7957       8067       8068       8079       8078  
      7947       7948       7959       7958       8068       8069       8080       8079  
      7948       7949       7960       7959       8069       8070       8081       8080  
      7949       7950       7961       7960       8070       8071       8082       8081  
      7950       7951       7962       7961       8071       8072       8083       8082  
      7951       7952       7963       7962       8072       8073       8084       8083  
      7952       7953       7964       7963       8073       8074       8085       8084  
      7954       7955       7966       7965       8075       8076       8087       8086  
      7955       7956       7967       7966       8076       8077       8088       8087  
      7956       7957       7968       7967       8077       8078       8089       8088  
      7957       7958       7969       7968       8078       8079       8090       8089  
      7958       7959       7970       7969       8079       8080       8091       8090  
      7959       7960       7971       7970       8080       8081       8092       8091  
      7960       7961       7972       7971       8081       8082       8093       8092  
      7961       7962       7973       7972       8082       8083       8094       8093  
      7962       7963       7974       7973       8083       8084       8095       8094  
      7963       7964       7975       7974       8084       8085       8096       8095  
      7965       7966       7977       7976       8086       8087       8098       8097  
      7966       7967       7978       7977       8087       8088       8099       8098  
      7967       7968       7979       7978       8088       8089       8100       8099  
      7968       7969       7980       7979       8089       8090       8101       8100  
      7969       7970       7981       7980       8090       8091       8102       8101  
      7970       7971       7982       7981       8091       8092       8103       8102  
      7971       7972       7983       7982       8092       8093       8104       8103  
      7972       7973       7984       7983       8093       8094       8105       8104  
      7973       7974       7985       7984       8094       8095       8106       8105  
      7974       7975       7986       7985       8095       8096       8107       8106  
      7987       7988       7999       7998       8108       8109       8120       8119  
      7988       7989       8000       7999       8109       8110       8121       8120  
      7989       7990       8001       8000       8110       8111       8122       8121  
      7990       7991       8002       8001       8111       8112       8123       8122  
      7991       7992       8003       8002       8112       8113       8124       8123  
      7992       7993       8004       8003       8113       8114       8125       8124  
      7993       7994       8005       8004       8114       8115       8126       8125  
      7994       7995       8006       8005       8115       8116       8127       8126  
      7995       7996       8007       8006       8116       8117       8128       8127  
      7996       7997       8008       8007       8117       8118       8129       8128  
      7998       7999       8010       8009       8119       8120       8131       8130  
      7999       8000       8011       8010       8120       8121       8132       8131  
      8000       8001       8012       8011       8121       8122       8133       8132  
      8001       8002       8013       8012       8122       8123       8134       8133  
      8002       8003       8014       8013       8123       8124       8135       8134  
      8003       8004       8015       8014       8124       8125       8136       8135  
      8004       8005       8016       8015       8125       8126       8137       8136  
      8005       8006       8017       8016       8126       8127       8138       8137  
      8006       8007       8018       8017       8127       8128       8139       8138  
      8007       8008       8019       8018       8128       8129       8140       8139  
      8009       8010       8021       8020       8130       8131       8142       8141  
      8010       8011       8022       8021       8131       8132       8143       8142  
      8011       8012       8023       8022       8132       8133       8144       8143  
      8012       8013       8024       8023       8133       8134       8145       8144  
      8013       8014       8025       8024       8134       8135       8146       8145  
      8014       8015       8026       8025       8135       8136       8147       8146  
      8015       8016       8027       8026       8136       8137       8148       8147  
      8016       8017       8028       8027       8137       8138       8149       8148  
      8017       8018       8029       8028       8138       8139       8150       8149  
      8018       8019       8030       8029       8139       8140       8151       8150  
      8020       8021       8032       8031       8141       8142       8153       8152  
      8021       8022       8033       8032       8142       8143       8154       8153  
      8022       8023       8034       8033       8143       8144       8155       8154  
      8023       8024       8035       8034       8144       8145       8156       8155  
      8024       8025       8036       8035       8145       8146       8157       8156  
      8025       8026       8037       8036       8146       8147       8158       8157  
      8026       8027       8038       8037       8147       8148       8159       8158  
      8027       8028       8039       8038       8148       8149       8160       8159  
      8028       8029       8040       8039       8149       8150       8161       8160  
      8029       8030       8041       8040       8150       8151       8162       8161  
      8031       8032       8043       8042       8152       8153       8164       8163  
      8032       8033       8044       8043       8153       8154       8165       8164  
      8033       8034       8045       8044       8154       8155       8166       8165  
      8034       8035       8046       8045       8155       8156       8167       8166  
      8035       8036       8047       8046       8156       8157       8168       8167  
      8036       8037       8048       8047       8157       8158       8169       8168  
      8037       8038       8049       8048       8158       8159       8170       8169  
      8038       8039       8050       8049       8159       8160       8171       8170  
      8039       8040       8051       8050       8160       8161       8172       8171  
      8040       8041       8052       8051       8161       8162       8173       8172  
      8042       8043       8054       8053       8163       8164       8175       8174  
      8043       8044       8055       8054       8164       8165       8176       8175  
      8044       8045       8056       8055       8165       8166       8177       8176  
      8045       8046       8057       8056       8166       8167       8178       8177  
      8046       8047       8058       8057       8167       8168       8179       8178  
      8047       8048       8059       8058       8168       8169       8180       8179  
      8048       8049       8060       8059       8169       8170       8181       8180  
      8049       8050       8061       8060       8170       8171       8182       8181  
      8050       8051       8062       8061       8171       8172       8183       8182  
      8051       8052       8063       8062       8172       8173       8184       8183  
      8053       8054       8065       8064       8174       8175       8186       8185  
      8054       8055       8066       8065       8175       8176       8187       8186  
      8055       8056       8067       8066       8176       8177       8188       8187  
      8056       8057       8068       8067       8177       8178       8189       8188  
      8057       8058       8069       8068       8178       8179       8190       8189  
      8058       8059       8070       8069       8179       8180       8191       8190  
      8059       8060       8071       8070       8180       8181       8192       8191  
      8060       8061       8072       8071       8181       8182       8193       8192  
      8061       8062       8073       8072       8182       8183       8194       8193  
      8062       8063       8074       8073       8183       8184       8195       8194  
      8064       8065       8076       8075       8185       8186       8197       8196  
      8065       8066       8077       8076       8186       8187       8198       8197  
      8066       8067       8078       8077       8187       8188       8199       8198  
      8067       8068       8079       8078       8188       8189       8200       8199  
      8068       8069       8080       8079       8189       8190       8201       8200  
      8069       8070       8081       8080       8190       8191       8202       8201  
      8070       8071       8082       8081       8191       8192       8203       8202  
      8071       8072       8083       8082       8192       8193       8204       8203  
      8072       8073       8084       8083       8193       8194       8205       8204  
      8073       8074       8085       8084       8194       8195       8206       8205  
      8075       8076       8087       8086       8196       8197       8208       8207  
      8076       8077       8088       8087       8197       8198       8209       8208  
      8077       8078       8089       8088       8198       8199       8210       8209  
      8078       8079       8090       8089       8199       8200       8211       8210  
      8079       8080       8091       8090       8200       8201       8212       8211  
      8080       8081       8092       8091       8201       8202       8213       8212  
      8081       8082       8093       8092       8202       8203       8214       8213  
      8082       8083       8094       8093       8203       8204       8215       8214  
      8083       8084       8095       8094       8204       8205       8216       8215  
      8084       8085       8096       8095       8205       8206       8217       8216  
      8086       8087       8098       8097       8207       8208       8219       8218  
      8087       8088       8099       8098       8208       8209       8220       8219  
      8088       8089       8100       8099       8209       8210       8221       8220  
      8089       8090       8101       8100       8210       8211       8222       8221  
      8090       8091       8102       8101       8211       8212       8223       8222  
      8091       8092       8103       8102       8212       8213       8224       8223  
      8092       8093       8104       8103       8213       8214       8225       8224  
      8093       8094       8105       8104       8214       8215       8226       8225  
      8094       8095       8106       8105       8215       8216       8227       8226  
      8095       8096       8107       8106       8216       8217       8228       8227  
      8108       8109       8120       8119       8229       8230       8241       8240  
      8109       8110       8121       8120       8230       8231       8242       8241  
      8110       8111       8122       8121       8231       8232       8243       8242  
      8111       8112       8123       8122       8232       8233       8244       8243  
      8112       8113       8124       8123       8233       8234       8245       8244  
      8113       8114       8125       8124       8234       8235       8246       8245  
      8114       8115       8126       8125       8235       8236       8247       8246  
      8115       8116       8127       8126       8236       8237       8248       8247  
      8116       8117       8128       8127       8237       8238       8249       8248  
      8117       8118       8129       8128       8238       8239       8250       8249  
      8119       8120       8131       8130       8240       8241       8252       8251  
      8120       8121       8132       8131       8241       8242       8253       8252  
      8121       8122       8133       8132       8242       8243       8254       8253  
      8122       8123       8134       8133       8243       8244       8255       8254  
      8123       8124       8135       8134       8244       8245       8256       8255  
      8124       8125       8136       8135       8245       8246       8257       8256  
      8125       8126       8137       8136       8246       8247       8258       8257  
      8126       8127       8138       8137       8247       8248       8259       8258  
      8127       8128       8139       8138       8248       8249       8260       8259  
      8128       8129       8140       8139       8249       8250       8261       8260  
      8130       8131       8142       8141       8251       8252       8263       8262  
      8131       8132       8143       8142       8252       8253       8264       8263  
      8132       8133       8144       8143       8253       8254       8265       8264  
      8133       8134       8145       8144       8254       8255       8266       8265  
      8134       8135       8146       8145       8255       8256       8267       8266  
      8135       8136       8147       8146       8256       8257       8268       8267  
      8136       8137       8148       8147       8257       8258       8269       8268  
      8137       8138       8149       8148       8258       8259       8270       8269  
      8138       8139       8150       8149       8259       8260       8271       8270  
      8139       8140       8151       8150       8260       8261       8272       8271  
      8141       8142       8153       8152       8262       8263       8274       8273  
      8142       8143       8154       8153       8263       8264       8275       8274  
      8143       8144       8155       8154       8264       8265       8276       8275  
      8144       8145       8156       8155       8265       8266       8277       8276  
      8145       8146       8157       8156       8266       8267       8278       8277  
      8146       8147       8158       8157       8267       8268       8279       8278  
      8147       8148       8159       8158       8268       8269       8280       8279  
      8148       8149       8160       8159       8269       8270       8281       8280  
      8149       8150       8161       8160       8270       8271       8282       8281  
      8150       8151       8162       8161       8271       8272       8283       8282  
      8152       8153       8164       8163       8273       8274       8285       8284  
      8153       8154       8165       8164       8274       8275       8286       8285  
      8154       8155       8166       8165       8275       8276       8287       8286  
      8155       8156       8167       8166       8276       8277       8288       8287  
      8156       8157       8168       8167       8277       8278       8289       8288  
      8157       8158       8169       8168       8278       8279       8290       8289  
      8158       8159       8170       8169       8279       8280       8291       8290  
      8159       8160       8171       8170       8280       8281       8292       8291  
      8160       8161       8172       8171       8281       8282       8293       8292  
      8161       8162       8173       8172       8282       8283       8294       8293  
      8163       8164       8175       8174       8284       8285       8296       8295  
      8164       8165       8176       8175       8285       8286       8297       8296  
      8165       8166       8177       8176       8286       8287       8298       8297  
      8166       8167       8178       8177       8287       8288       8299       8298  
      8167       8168       8179       8178       8288       8289       8300       8299  
      8168       8169       8180       8179       8289       8290       8301       8300  
      8169       8170       8181       8180       8290       8291       8302       8301  
      8170       8171       8182       8181       8291       8292       8303       8302  
      8171       8172       8183       8182       8292       8293       8304       8303  
      8172       8173       8184       8183       8293       8294       8305       8304  
      8174       8175       8186       8185       8295       8296       8307       8306  
      8175       8176       8187       8186       8296       8297       8308       8307  
      8176       8177       8188       8187       8297       8298       8309       8308  
      8177       8178       8189       8188       8298       8299       8310       8309  
      8178       8179       8190       8189       8299       8300       8311       8310  
      8179       8180       8191       8190       8300       8301       8312       8311  
      8180       8181       8192       8191       8301       8302       8313       8312  
      8181       8182       8193       8192       8302       8303       8314       8313  
      8182       8183       8194       8193       8303       8304       8315       8314  
      8183       8184       8195       8194       8304       8305       8316       8315  
      8185       8186       8197       8196       8306       8307       8318       8317  
      8186       8187       8198       8197       8307       8308       8319       8318  
      8187       8188       8199       8198       8308       8309       8320       8319  
      8188       8189       8200       8199       8309       8310       8321       8320  
      8189       8190       8201       8200       8310       8311       8322       8321  
      8190       8191       8202       8201       8311       8312       8323       8322  
      8191       8192       8203       8202       8312       8313       8324       8323  
      8192       8193       8204       8203       8313       8314       8325       8324  
      8193       8194       8205       8204       8314       8315       8326       8325  
      8194       8195       8206       8205       8315       8316       8327       8326  
      8196       8197       8208       8207       8317       8318       8329       8328  
      8197       8198       8209       8208       8318       8319       8330       8329  
      8198       8199       8210       8209       8319       8320       8331       8330  
      8199       8200       8211       8210       8320       8321       8332       8331  
      8200       8201       8212       8211       8321       8322       8333       8332  
      8201       8202       8213       8212       8322       8323       8334       8333  
      8202       8203       8214       8213       8323       8324       8335       8334  
      8203       8204       8215       8214       8324       8325       8336       8335  
      8204       8205       8216       8215       8325       8326       8337       8336  
      8205       8206       8217       8216       8326       8327       8338       8337  
      8207       8208       8219       8218       8328       8329       8340       8339  
      8208       8209       8220       8219       8329       8330       8341       8340  
      8209       8210       8221       8220       8330       8331       8342       8341  
      8210       8211       8222       8221       8331       8332       8343       8342  
      8211       8212       8223       8222       8332       8333       8344       8343  
      8212       8213       8224       8223       8333       8334       8345       8344  
      8213       8214       8225       8224       8334       8335       8346       8345  
      8214       8215       8226       8225       8335       8336       8347       8346  
      8215       8216       8227       8226       8336       8337       8348       8347  
      8216       8217       8228       8227       8337       8338       8349       8348  
      8229       8230       8241       8240       8350       8351       8362       8361  
      8230       8231       8242       8241       8351       8352       8363       8362  
      8231       8232       8243       8242       8352       8353       8364       8363  
      8232       8233       8244       8243       8353       8354       8365       8364  
      8233       8234       8245       8244       8354       8355       8366       8365  
      8234       8235       8246       8245       8355       8356       8367       8366  
      8235       8236       8247       8246       8356       8357       8368       8367  
      8236       8237       8248       8247       8357       8358       8369       8368  
      8237       8238       8249       8248       8358       8359       8370       8369  
      8238       8239       8250       8249       8359       8360       8371       8370  
      8240       8241       8252       8251       8361       8362       8373       8372  
      8241       8242       8253       8252       8362       8363       8374       8373  
      8242       8243       8254       8253       8363       8364       8375       8374  
      8243       8244       8255       8254       8364       8365       8376       8375  
      8244       8245       8256       8255       8365       8366       8377       8376  
      8245       8246       8257       8256       8366       8367       8378       8377  
      8246       8247       8258       8257       8367       8368       8379       8378  
      8247       8248       8259       8258       8368       8369       8380       8379  
      8248       8249       8260       8259       8369       8370       8381       8380  
      8249       8250       8261       8260       8370       8371       8382       8381  
      8251       8252       8263       8262       8372       8373       8384       8383  
      8252       8253       8264       8263       8373       8374       8385       8384  
      8253       8254       8265       8264       8374       8375       8386       8385  
      8254       8255       8266       8265       8375       8376       8387       8386  
      8255       8256       8267       8266       8376       8377       8388       8387  
      8256       8257       8268       8267       8377       8378       8389       8388  
      8257       8258       8269       8268       8378       8379       8390       8389  
      8258       8259       8270       8269       8379       8380       8391       8390  
      8259       8260       8271       8270       8380       8381       8392       8391  
      8260       8261       8272       8271       8381       8382       8393       8392  
      8262       8263       8274       8273       8383       8384       8395       8394  
      8263       8264       8275       8274       8384       8385       8396       8395  
      8264       8265       8276       8275       8385       8386       8397       8396  
      8265       8266       8277       8276       8386       8387       8398       8397  
      8266       8267       8278       8277       8387       8388       8399       8398  
      8267       8268       8279       8278       8388       8389       8400       8399  
      8268       8269       8280       8279       8389       8390       8401       8400  
      8269       8270       8281       8280       8390       8391       8402       8401  
      8270       8271       8282       8281       8391       8392       8403       8402  
      8271       8272       8283       8282       8392       8393       8404       8403  
      8273       8274       8285       8284       8394       8395       8406       8405  
      8274       8275       8286       8285       8395       8396       8407       8406  
      8275       8276       8287       8286       8396       8397       8408       8407  
      8276       8277       8288       8287       8397       8398       8409       8408  
      8277       8278       8289       8288       8398       8399       8410       8409  
      8278       8279       8290       8289       8399       8400       8411       8410  
      8279       8280       8291       8290       8400       8401       8412       8411  
      8280       8281       8292       8291       8401       8402       8413       8412  
      8281       8282       8293       8292       8402       8403       8414       8413  
      8282       8283       8294       8293       8403       8404       8415       8414  
      8284       8285       8296       8295       8405       8406       8417       8416  
      8285       8286       8297       8296       8406       8407       8418       8417  
      8286       8287       8298       8297       8407       8408       8419       8418  
      8287       8288       8299       8298       8408       8409       8420       8419  
      8288       8289       8300       8299       8409       8410       8421       8420  
      8289       8290       8301       8300       8410       8411       8422       8421  
      8290       8291       8302       8301       8411       8412       8423       8422  
      8291       8292       8303       8302       8412       8413       8424       8423  
      8292       8293       8304       8303       8413       8414       8425       8424  
      8293       8294       8305       8304       8414       8415       8426       8425  
      8295       8296       8307       8306       8416       8417       8428       8427  
      8296       8297       8308       8307       8417       8418       8429       8428  
      8297       8298       8309       8308       8418       8419       8430       8429  
      8298       8299       8310       8309       8419       8420       8431       8430  
      8299       8300       8311       8310       8420       8421       8432       8431  
      8300       8301       8312       8311       8421       8422       8433       8432  
      8301       8302       8313       8312       8422       8423       8434       8433  
      8302       8303       8314       8313       8423       8424       8435       8434  
      8303       8304       8315       8314       8424       8425       8436       8435  
      8304       8305       8316       8315       8425       8426       8437       8436  
      8306       8307       8318       8317       8427       8428       8439       8438  
      8307       8308       8319       8318       8428       8429       8440       8439  
      8308       8309       8320       8319       8429       8430       8441       8440  
      8309       8310       8321       8320       8430       8431       8442       8441  
      8310       8311       8322       8321       8431       8432       8443       8442  
      8311       8312       8323       8322       8432       8433       8444       8443  
      8312       8313       8324       8323       8433       8434       8445       8444  
      8313       8314       8325       8324       8434       8435       8446       8445  
      8314       8315       8326       8325       8435       8436       8447       8446  
      8315       8316       8327       8326       8436       8437       8448       8447  
      8317       8318       8329       8328       8438       8439       8450       8449  
      8318       8319       8330       8329       8439       8440       8451       8450  
      8319       8320       8331       8330       8440       8441       8452       8451  
      8320       8321       8332       8331       8441       8442       8453       8452  
      8321       8322       8333       8332       8442       8443       8454       8453  
      8322       8323       8334       8333       8443       8444       8455       8454  
      8323       8324       8335       8334       8444       8445       8456       8455  
      8324       8325       8336       8335       8445       8446       8457       8456  
      8325       8326       8337       8336       8446       8447       8458       8457  
      8326       8327       8338       8337       8447       8448       8459       8458  
      8328       8329       8340       8339       8449       8450       8461       8460  
      8329       8330       8341       8340       8450       8451       8462       8461  
      8330       8331       8342       8341       8451       8452       8463       8462  
      8331       8332       8343       8342       8452       8453       8464       8463  
      8332       8333       8344       8343       8453       8454       8465       8464  
      8333       8334       8345       8344       8454       8455       8466       8465  
      8334       8335       8346       8345       8455       8456       8467       8466  
      8335       8336       8347       8346       8456       8457       8468       8467  
      8336       8337       8348       8347       8457       8458       8469       8468  
      8337       8338       8349       8348       8458       8459       8470       8469  
      8350       8351       8362       8361       8471       8472       8483       8482  
      8351       8352       8363       8362       8472       8473       8484       8483  
      8352       8353       8364       8363       8473       8474       8485       8484  
      8353       8354       8365       8364       8474       8475       8486       8485  
      8354       8355       8366       8365       8475       8476       8487       8486  
      8355       8356       8367       8366       8476       8477       8488       8487  
      8356       8357       8368       8367       8477       8478       8489       8488  
      8357       8358       8369       8368       8478       8479       8490       8489  
      8358       8359       8370       8369       8479       8480       8491       8490  
      8359       8360       8371       8370       8480       8481       8492       8491  
      8361       8362       8373       8372       8482       8483       8494       8493  
      8362       8363       8374       8373       8483       8484       8495       8494  
      8363       8364       8375       8374       8484       8485       8496       8495  
      8364       8365       8376       8375       8485       8486       8497       8496  
      8365       8366       8377       8376       8486       8487       8498       8497  
      8366       8367       8378       8377       8487       8488       8499       8498  
      8367       8368       8379       8378       8488       8489       8500       8499  
      8368       8369       8380       8379       8489       8490       8501       8500  
      8369       8370       8381       8380       8490       8491       8502       8501  
      8370       8371       8382       8381       8491       8492       8503       8502  
      8372       8373       8384       8383       8493       8494       8505       8504  
      8373       8374       8385       8384       8494       8495       8506       8505  
      8374       8375       8386       8385       8495       8496       8507       8506  
      8375       8376       8387       8386       8496       8497       8508       8507  
      8376       8377       8388       8387       8497       8498       8509       8508  
      8377       8378       8389       8388       8498       8499       8510       8509  
      8378       8379       8390       8389       8499       8500       8511       8510  
      8379       8380       8391       8390       8500       8501       8512       8511  
      8380       8381       8392       8391       8501       8502       8513       8512  
      8381       8382       8393       8392       8502       8503       8514       8513  
      8383       8384       8395       8394       8504       8505       8516       8515  
      8384       8385       8396       8395       8505       8506       8517       8516  
      8385       8386       8397       8396       8506       8507       8518       8517  
      8386       8387       8398       8397       8507       8508       8519       8518  
      8387       8388       8399       8398       8508       8509       8520       8519  
      8388       8389       8400       8399       8509       8510       8521       8520  
      8389       8390       8401       8400       8510       8511       8522       8521  
      8390       8391       8402       8401       8511       8512       8523       8522  
      8391       8392       8403       8402       8512       8513       8524       8523  
      8392       8393       8404       8403       8513       8514       8525       8524  
      8394       8395       8406       8405       8515       8516       8527       8526  
      8395       8396       8407       8406       8516       8517       8528       8527  
      8396       8397       8408       8407       8517       8518       8529       8528  
      8397       8398       8409       8408       8518       8519       8530       8529  
      8398       8399       8410       8409       8519       8520       8531       8530  
      8399       8400       8411       8410       8520       8521       8532       8531  
      8400       8401       8412       8411       8521       8522       8533       8532  
      8401       8402       8413       8412       8522       8523       8534       8533  
      8402       8403       8414       8413       8523       8524       8535       8534  
      8403       8404       8415       8414       8524       8525       8536       8535  
      8405       8406       8417       8416       8526       8527       8538       8537  
      8406       8407       8418       8417       8527       8528       8539       8538  
      8407       8408       8419       8418       8528       8529       8540       8539  
      8408       8409       8420       8419       8529       8530       8541       8540  
      8409       8410       8421       8420       8530       8531       8542       8541  
      8410       8411       8422       8421       8531       8532       8543       8542  
      8411       8412       8423       8422       8532       8533       8544       8543  
      8412       8413       8424       8423       8533       8534       8545       8544  
      8413       8414       8425       8424       8534       8535       8546       8545  
      8414       8415       8426       8425       8535       8536       8547       8546  
      8416       8417       8428       8427       8537       8538       8549       8548  
      8417       8418       8429       8428       8538       8539       8550       8549  
      8418       8419       8430       8429       8539       8540       8551       8550  
      8419       8420       8431       8430       8540       8541       8552       8551  
      8420       8421       8432       8431       8541       8542       8553       8552  
      8421       8422       8433       8432       8542       8543       8554       8553  
      8422       8423       8434       8433       8543       8544       8555       8554  
      8423       8424       8435       8434       8544       8545       8556       8555  
      8424       8425       8436       8435       8545       8546       8557       8556  
      8425       8426       8437       8436       8546       8547       8558       8557  
      8427       8428       8439       8438       8548       8549       8560       8559  
      8428       8429       8440       8439       8549       8550       8561       8560  
      8429       8430       8441       8440       8550       8551       8562       8561  
      8430       8431       8442       8441       8551       8552       8563       8562  
      8431       8432       8443       8442       8552       8553       8564       8563  
      8432       8433       8444       8443       8553       8554       8565       8564  
      8433       8434       8445       8444       8554       8555       8566       8565  
      8434       8435       8446       8445       8555       8556       8567       8566  
      8435       8436       8447       8446       8556       8557       8568       8567  
      8436       8437       8448       8447       8557       8558       8569       8568  
      8438       8439       8450       8449       8559       8560       8571       8570  
      8439       8440       8451       8450       8560       8561       8572       8571  
      8440       8441       8452       8451       8561       8562       8573       8572  
      8441       8442       8453       8452       8562       8563       8574       8573  
      8442       8443       8454       8453       8563       8564       8575       8574  
      8443       8444       8455       8454       8564       8565       8576       8575  
      8444       8445       8456       8455       8565       8566       8577       8576  
      8445       8446       8457       8456       8566       8567       8578       8577  
      8446       8447       8458       8457       8567       8568       8579       8578  
      8447       8448       8459       8458       8568       8569       8580       8579  
      8449       8450       8461       8460       8570       8571       8582       8581  
      8450       8451       8462       8461       8571       8572       8583       8582  
      8451       8452       8463       8462       8572       8573       8584       8583  
      8452       8453       8464       8463       8573       8574       8585       8584  
      8453       8454       8465       8464       8574       8575       8586       8585  
      8454       8455       8466       8465       8575       8576       8587       8586  
      8455       8456       8467       8466       8576       8577       8588       8587  
      8456       8457       8468       8467       8577       8578       8589       8588  
      8457       8458       8469       8468       8578       8579       8590       8589  
      8458       8459       8470       8469       8579       8580       8591       8590  
      8471       8472       8483       8482       8592       8593       8604       8603  
      8472       8473       8484       8483       8593       8594       8605       8604  
      8473       8474       8485       8484       8594       8595       8606       8605  
      8474       8475       8486       8485       8595       8596       8607       8606  
      8475       8476       8487       8486       8596       8597       8608       8607  
      8476       8477       8488       8487       8597       8598       8609       8608  
      8477       8478       8489       8488       8598       8599       8610       8609  
      8478       8479       8490       8489       8599       8600       8611       8610  
      8479       8480       8491       8490       8600       8601       8612       8611  
      8480       8481       8492       8491       8601       8602       8613       8612  
      8482       8483       8494       8493       8603       8604       8615       8614  
      8483       8484       8495       8494       8604       8605       8616       8615  
      8484       8485       8496       8495       8605       8606       8617       8616  
      8485       8486       8497       8496       8606       8607       8618       8617  
      8486       8487       8498       8497       8607       8608       8619       8618  
      8487       8488       8499       8498       8608       8609       8620       8619  
      8488       8489       8500       8499       8609       8610       8621       8620  
      8489       8490       8501       8500       8610       8611       8622       8621  
      8490       8491       8502       8501       8611       8612       8623       8622  
      8491       8492       8503       8502       8612       8613       8624       8623  
      8493       8494       8505       8504       8614       8615       8626       8625  
      8494       8495       8506       8505       8615       8616       8627       8626  
      8495       8496       8507       8506       8616       8617       8628       8627  
      8496       8497       8508       8507       8617       8618       8629       8628  
      8497       8498       8509       8508       8618       8619       8630       8629  
      8498       8499       8510       8509       8619       8620       8631       8630  
      8499       8500       8511       8510       8620       8621       8632       8631  
      8500       8501       8512       8511       8621       8622       8633       8632  
      8501       8502       8513       8512       8622       8623       8634       8633  
      8502       8503       8514       8513       8623       8624       8635       8634  
      8504       8505       8516       8515       8625       8626       8637       8636  
      8505       8506       8517       8516       8626       8627       8638       8637  
      8506       8507       8518       8517       8627       8628       8639       8638  
      8507       8508       8519       8518       8628       8629       8640       8639  
      8508       8509       8520       8519       8629       8630       8641       8640  
      8509       8510       8521       8520       8630       8631       8642       8641  
      8510       8511       8522       8521       8631       8632       8643       8642  
      8511       8512       8523       8522       8632       8633       8644       8643  
      8512       8513       8524       8523       8633       8634       8645       8644  
      8513       8514       8525       8524       8634       8635       8646       8645  
      8515       8516       8527       8526       8636       8637       8648       8647  
      8516       8517       8528       8527       8637       8638       8649       8648  
      8517       8518       8529       8528       8638       8639       8650       8649  
      8518       8519       8530       8529       8639       8640       8651       8650  
      8519       8520       8531       8530       8640       8641       8652       8651  
      8520       8521       8532       8531       8641       8642       8653       8652  
      8521       8522       8533       8532       8642       8643       8654       8653  
      8522       8523       8534       8533       8643       8644       8655       8654  
      8523       8524       8535       8534       8644       8645       8656       8655  
      8524       8525       8536       8535       8645       8646       8657       8656  
      8526       8527       8538       8537       8647       8648       8659       8658  
      8527       8528       8539       8538       8648       8649       8660       8659  
      8528       8529       8540       8539       8649       8650       8661       8660  
      8529       8530       8541       8540       8650       8651       8662       8661  
      8530       8531       8542       8541       8651       8652       8663       8662  
      8531       8532       8543       8542       8652       8653       8664       8663  
      8532       8533       8544       8543       8653       8654       8665       8664  
      8533       8534       8545       8544       8654       8655       8666       8665  
      8534       8535       8546       8545       8655       8656       8667       8666  
      8535       8536       8547       8546       8656       8657       8668       8667  
      8537       8538       8549       8548       8658       8659       8670       8669  
      8538       8539       8550       8549       8659       8660       8671       8670  
      8539       8540       8551       8550       8660       8661       8672       8671  
      8540       8541       8552       8551       8661       8662       8673       8672  
      8541       8542       8553       8552       8662       8663       8674       8673  
      8542       8543       8554       8553       8663       8664       8675       8674  
      8543       8544       8555       8554       8664       8665       8676       8675  
      8544       8545       8556       8555       8665       8666       8677       8676  
      8545       8546       8557       8556       8666       8667       8678       8677  
      8546       8547       8558       8557       8667       8668       8679       8678  
      8548       8549       8560       8559       8669       8670       8681       8680  
      8549       8550       8561       8560       8670       8671       8682       8681  
      8550       8551       8562       8561       8671       8672       8683       8682  
      8551       8552       8563       8562       8672       8673       8684       8683  
      8552       8553       8564       8563       8673       8674       8685       8684  
      8553       8554       8565       8564       8674       8675       8686       8685  
      8554       8555       8566       8565       8675       8676       8687       8686  
      8555       8556       8567       8566       8676       8677       8688       8687  
      8556       8557       8568       8567       8677       8678       8689       8688  
      8557       8558       8569       8568       8678       8679       8690       8689  
      8559       8560       8571       8570       8680       8681       8692       8691  
      8560       8561       8572       8571       8681       8682       8693       8692  
      8561       8562       8573       8572       8682       8683       8694       8693  
      8562       8563       8574       8573       8683       8684       8695       8694  
      8563       8564       8575       8574       8684       8685       8696       8695  
      8564       8565       8576       8575       8685       8686       8697       8696  
      8565       8566       8577       8576       8686       8687       8698       8697  
      8566       8567       8578       8577       8687       8688       8699       8698  
      8567       8568       8579       8578       8688       8689       8700       8699  
      8568       8569       8580       8579       8689       8690       8701       8700  
      8570       8571       8582       8581       8691       8692       8703       8702  
      8571       8572       8583       8582       8692       8693       8704       8703  
      8572       8573       8584       8583       8693       8694       8705       8704  
      8573       8574       8585       8584       8694       8695       8706       8705  
      8574       8575       8586       8585       8695       8696       8707       8706  
      8575       8576       8587       8586       8696       8697       8708       8707  
      8576       8577       8588       8587       8697       8698       8709       8708  
      8577       8578       8589       8588       8698       8699       8710       8709  
      8578       8579       8590       8589       8699       8700       8711       8710  
      8579       8580       8591       8590       8700       8701       8712       8711  
      8592       8593       8604       8603       8713       8714       8725       8724  
      8593       8594       8605       8604       8714       8715       8726       8725  
      8594       8595       8606       8605       8715       8716       8727       8726  
      8595       8596       8607       8606       8716       8717       8728       8727  
      8596       8597       8608       8607       8717       8718       8729       8728  
      8597       8598       8609       8608       8718       8719       8730       8729  
      8598       8599       8610       8609       8719       8720       8731       8730  
      8599       8600       8611       8610       8720       8721       8732       8731  
      8600       8601       8612       8611       8721       8722       8733       8732  
      8601       8602       8613       8612       8722       8723       8734       8733  
      8603       8604       8615       8614       8724       8725       8736       8735  
      8604       8605       8616       8615       8725       8726       8737       8736  
      8605       8606       8617       8616       8726       8727       8738       8737  
      8606       8607       8618       8617       8727       8728       8739       8738  
      8607       8608       8619       8618       8728       8729       8740       8739  
      8608       8609       8620       8619       8729       8730       8741       8740  
      8609       8610       8621       8620       8730       8731       8742       8741  
      8610       8611       8622       8621       8731       8732       8743       8742  
      8611       8612       8623       8622       8732       8733       8744       8743  
      8612       8613       8624       8623       8733       8734       8745       8744  
      8614       8615       8626       8625       8735       8736       8747       8746  
      8615       8616       8627       8626       8736       8737       8748       8747  
      8616       8617       8628       8627       8737       8738       8749       8748  
      8617       8618       8629       8628       8738       8739       8750       8749  
      8618       8619       8630       8629       8739       8740       8751       8750  
      8619       8620       8631       8630       8740       8741       8752       8751  
      8620       8621       8632       8631       8741       8742       8753       8752  
      8621       8622       8633       8632       8742       8743       8754       8753  
      8622       8623       8634       8633       8743       8744       8755       8754  
      8623       8624       8635       8634       8744       8745       8756       8755  
      8625       8626       8637       8636       8746       8747       8758       8757  
      8626       8627       8638       8637       8747       8748       8759       8758  
      8627       8628       8639       8638       8748       8749       8760       8759  
      8628       8629       8640       8639       8749       8750       8761       8760  
      8629       8630       8641       8640       8750       8751       8762       8761  
      8630       8631       8642       8641       8751       8752       8763       8762  
      8631       8632       8643       8642       8752       8753       8764       8763  
      8632       8633       8644       8643       8753       8754       8765       8764  
      8633       8634       8645       8644       8754       8755       8766       8765  
      8634       8635       8646       8645       8755       8756       8767       8766  
      8636       8637       8648       8647       8757       8758       8769       8768  
      8637       8638       8649       8648       8758       8759       8770       8769  
      8638       8639       8650       8649       8759       8760       8771       8770  
      8639       8640       8651       8650       8760       8761       8772       8771  
      8640       8641       8652       8651       8761       8762       8773       8772  
      8641       8642       8653       8652       8762       8763       8774       8773  
      8642       8643       8654       8653       8763       8764       8775       8774  
      8643       8644       8655       8654       8764       8765       8776       8775  
      8644       8645       8656       8655       8765       8766       8777       8776  
      8645       8646       8657       8656       8766       8767       8778       8777  
      8647       8648       8659       8658       8768       8769       8780       8779  
      8648       8649       8660       8659       8769       8770       8781       8780  
      8649       8650       8661       8660       8770       8771       8782       8781  
      8650       8651       8662       8661       8771       8772       8783       8782  
      8651       8652       8663       8662       8772       8773       8784       8783  
      8652       8653       8664       8663       8773       8774       8785       8784  
      8653       8654       8665       8664       8774       8775       8786       8785  
      8654       8655       8666       8665       8775       8776       8787       8786  
      8655       8656       8667       8666       8776       8777       8788       8787  
      8656       8657       8668       8667       8777       8778       8789       8788  
      8658       8659       8670       8669       8779       8780       8791       8790  
      8659       8660       8671       8670       8780       8781       8792       8791  
      8660       8661       8672       8671       8781       8782       8793       8792  
      8661       8662       8673       8672       8782       8783       8794       8793  
      8662       8663       8674       8673       8783       8784       8795       8794  
      8663       8664       8675       8674       8784       8785       8796       8795  
      8664       8665       8676       8675       8785       8786       8797       8796  
      8665       8666       8677       8676       8786       8787       8798       8797  
      8666       8667       8678       8677       8787       8788       8799       8798  
      8667       8668       8679       8678       8788       8789       8800       8799  
      8669       8670       8681       8680       8790       8791       8802       8801  
      8670       8671       8682       8681       8791       8792       8803       8802  
      8671       8672       8683       8682       8792       8793       8804       8803  
      8672       8673       8684       8683       8793       8794       8805       8804  
      8673       8674       8685       8684       8794       8795       8806       8805  
      8674       8675       8686       8685       8795       8796       8807       8806  
      8675       8676       8687       8686       8796       8797       8808       8807  
      8676       8677       8688       8687       8797       8798       8809       8808  
      8677       8678       8689       8688       8798       8799       8810       8809  
      8678       8679       8690       8689       8799       8800       8811       8810  
      8680       8681       8692       8691       8801       8802       8813       8812  
      8681       8682       8693       8692       8802       8803       8814       8813  
      8682       8683       8694       8693       8803       8804       8815       8814  
      8683       8684       8695       8694       8804       8805       8816       8815  
      8684       8685       8696       8695       8805       8806       8817       8816  
      8685       8686       8697       8696       8806       8807       8818       8817  
      8686       8687       8698       8697       8807       8808       8819       8818  
      8687       8688       8699       8698       8808       8809       8820       8819  
      8688       8689       8700       8699       8809       8810       8821       8820  
      8689       8690       8701       8700       8810       8811       8822       8821  
      8691       8692       8703       8702       8812       8813       8824       8823  
      8692       8693       8704       8703       8813       8814       8825       8824  
      8693       8694       8705       8704       8814       8815       8826       8825  
      8694       8695       8706       8705       8815       8816       8827       8826  
      8695       8696       8707       8706       8816       8817       8828       8827  
      8696       8697       8708       8707       8817       8818       8829       8828  
      8697       8698       8709       8708       8818       8819       8830       8829  
      8698       8699       8710       8709       8819       8820       8831       8830  
      8699       8700       8711       8710       8820       8821       8832       8831  
      8700       8701       8712       8711       8821       8822       8833       8832  
      8713       8714       8725       8724       8834       8835       8846       8845  
      8714       8715       8726       8725       8835       8836       8847       8846  
      8715       8716       8727       8726       8836       8837       8848       8847  
      8716       8717       8728       8727       8837       8838       8849       8848  
      8717       8718       8729       8728       8838       8839       8850       8849  
      8718       8719       8730       8729       8839       8840       8851       8850  
      8719       8720       8731       8730       8840       8841       8852       8851  
      8720       8721       8732       8731       8841       8842       8853       8852  
      8721       8722       8733       8732       8842       8843       8854       8853  
      8722       8723       8734       8733       8843       8844       8855       8854  
      8724       8725       8736       8735       8845       8846       8857       8856  
      8725       8726       8737       8736       8846       8847       8858       8857  
      8726       8727       8738       8737       8847       8848       8859       8858  
      8727       8728       8739       8738       8848       8849       8860       8859  
      8728       8729       8740       8739       8849       8850       8861       8860  
      8729       8730       8741       8740       8850       8851       8862       8861  
      8730       8731       8742       8741       8851       8852       8863       8862  
      8731       8732       8743       8742       8852       8853       8864       8863  
      8732       8733       8744       8743       8853       8854       8865       8864  
      8733       8734       8745       8744       8854       8855       8866       8865  
      8735       8736       8747       8746       8856       8857       8868       8867  
      8736       8737       8748       8747       8857       8858       8869       8868  
      8737       8738       8749       8748       8858       8859       8870       8869  
      8738       8739       8750       8749       8859       8860       8871       8870  
      8739       8740       8751       8750       8860       8861       8872       8871  
      8740       8741       8752       8751       8861       8862       8873       8872  
      8741       8742       8753       8752       8862       8863       8874       8873  
      8742       8743       8754       8753       8863       8864       8875       8874  
      8743       8744       8755       8754       8864       8865       8876       8875  
      8744       8745       8756       8755       8865       8866       8877       8876  
      8746       8747       8758       8757       8867       8868       8879       8878  
      8747       8748       8759       8758       8868       8869       8880       8879  
      8748       8749       8760       8759       8869       8870       8881       8880  
      8749       8750       8761       8760       8870       8871       8882       8881  
      8750       8751       8762       8761       8871       8872       8883       8882  
      8751       8752       8763       8762       8872       8873       8884       8883  
      8752       8753       8764       8763       8873       8874       8885       8884  
      8753       8754       8765       8764       8874       8875       8886       8885  
      8754       8755       8766       8765       8875       8876       8887       8886  
      8755       8756       8767       8766       8876       8877       8888       8887  
      8757       8758       8769       8768       8878       8879       8890       8889  
      8758       8759       8770       8769       8879       8880       8891       8890  
      8759       8760       8771       8770       8880       8881       8892       8891  
      8760       8761       8772       8771       8881       8882       8893       8892  
      8761       8762       8773       8772       8882       8883       8894       8893  
      8762       8763       8774       8773       8883       8884       8895       8894  
      8763       8764       8775       8774       8884       8885       8896       8895  
      8764       8765       8776       8775       8885       8886       8897       8896  
      8765       8766       8777       8776       8886       8887       8898       8897  
      8766       8767       8778       8777       8887       8888       8899       8898  
      8768       8769       8780       8779       8889       8890       8901       8900  
      8769       8770       8781       8780       8890       8891       8902       8901  
      8770       8771       8782       8781       8891       8892       8903       8902  
      8771       8772       8783       8782       8892       8893       8904       8903  
      8772       8773       8784       8783       8893       8894       8905       8904  
      8773       8774       8785       8784       8894       8895       8906       8905  
      8774       8775       8786       8785       8895       8896       8907       8906  
      8775       8776       8787       8786       8896       8897       8908       8907  
      8776       8777       8788       8787       8897       8898       8909       8908  
      8777       8778       8789       8788       8898       8899       8910       8909  
      8779       8780       8791       8790       8900       8901       8912       8911  
      8780       8781       8792       8791       8901       8902       8913       8912  
      8781       8782       8793       8792       8902       8903       8914       8913  
      8782       8783       8794       8793       8903       8904       8915       8914  
      8783       8784       8795       8794       8904       8905       8916       8915  
      8784       8785       8796       8795       8905       8906       8917       8916  
      8785       8786       8797       8796       8906       8907       8918       8917  
      8786       8787       8798       8797       8907       8908       8919       8918  
      8787       8788       8799       8798       8908       8909       8920       8919  
      8788       8789       8800       8799       8909       8910       8921       8920  
      8790       8791       8802       8801       8911       8912       8923       8922  
      8791       8792       8803       8802       8912       8913       8924       8923  
      8792       8793       8804       8803       8913       8914       8925       8924  
      8793       8794       8805       8804       8914       8915       8926       8925  
      8794       8795       8806       8805       8915       8916       8927       8926  
      8795       8796       8807       8806       8916       8917       8928       8927  
      8796       8797       8808       8807       8917       8918       8929       8928  
      8797       8798       8809       8808       8918       8919       8930       8929  
      8798       8799       8810       8809       8919       8920       8931       8930  
      8799       8800       8811       8810       8920       8921       8932       8931  
      8801       8802       8813       8812       8922       8923       8934       8933  
      8802       8803       8814       8813       8923       8924       8935       8934  
      8803       8804       8815       8814       8924       8925       8936       8935  
      8804       8805       8816       8815       8925       8926       8937       8936  
      8805       8806       8817       8816       8926       8927       8938       8937  
      8806       8807       8818       8817       8927       8928       8939       8938  
      8807       8808       8819       8818       8928       8929       8940       8939  
      8808       8809       8820       8819       8929       8930       8941       8940  
      8809       8810       8821       8820       8930       8931       8942       8941  
      8810       8811       8822       8821       8931       8932       8943       8942  
      8812       8813       8824       8823       8933       8934       8945       8944  
      8813       8814       8825       8824       8934       8935       8946       8945  
      8814       8815       8826       8825       8935       8936       8947       8946  
      8815       8816       8827       8826       8936       8937       8948       8947  
      8816       8817       8828       8827       8937       8938       8949       8948  
      8817       8818       8829       8828       8938       8939       8950       8949  
      8818       8819       8830       8829       8939       8940       8951       8950  
      8819       8820       8831       8830       8940       8941       8952       8951  
      8820       8821       8832       8831       8941       8942       8953       8952  
      8821       8822       8833       8832       8942       8943       8954       8953  
      8834       8835       8846       8845       8955       8956       8967       8966  
      8835       8836       8847       8846       8956       8957       8968       8967  
      8836       8837       8848       8847       8957       8958       8969       8968  
      8837       8838       8849       8848       8958       8959       8970       8969  
      8838       8839       8850       8849       8959       8960       8971       8970  
      8839       8840       8851       8850       8960       8961       8972       8971  
      8840       8841       8852       8851       8961       8962       8973       8972  
      8841       8842       8853       8852       8962       8963       8974       8973  
      8842       8843       8854       8853       8963       8964       8975       8974  
      8843       8844       8855       8854       8964       8965       8976       8975  
      8845       8846       8857       8856       8966       8967       8978       8977  
      8846       8847       8858       8857       8967       8968       8979       8978  
      8847       8848       8859       8858       8968       8969       8980       8979  
      8848       8849       8860       8859       8969       8970       8981       8980  
      8849       8850       8861       8860       8970       8971       8982       8981  
      8850       8851       8862       8861       8971       8972       8983       8982  
      8851       8852       8863       8862       8972       8973       8984       8983  
      8852       8853       8864       8863       8973       8974       8985       8984  
      8853       8854       8865       8864       8974       8975       8986       8985  
      8854       8855       8866       8865       8975       8976       8987       8986  
      8856       8857       8868       8867       8977       8978       8989       8988  
      8857       8858       8869       8868       8978       8979       8990       8989  
      8858       8859       8870       8869       8979       8980       8991       8990  
      8859       8860       8871       8870       8980       8981       8992       8991  
      8860       8861       8872       8871       8981       8982       8993       8992  
      8861       8862       8873       8872       8982       8983       8994       8993  
      8862       8863       8874       8873       8983       8984       8995       8994  
      8863       8864       8875       8874       8984       8985       8996       8995  
      8864       8865       8876       8875       8985       8986       8997       8996  
      8865       8866       8877       8876       8986       8987       8998       8997  
      8867       8868       8879       8878       8988       8989       9000       8999  
      8868       8869       8880       8879       8989       8990       9001       9000  
      8869       8870       8881       8880       8990       8991       9002       9001  
      8870       8871       8882       8881       8991       8992       9003       9002  
      8871       8872       8883       8882       8992       8993       9004       9003  
      8872       8873       8884       8883       8993       8994       9005       9004  
      8873       8874       8885       8884       8994       8995       9006       9005  
      8874       8875       8886       8885       8995       8996       9007       9006  
      8875       8876       8887       8886       8996       8997       9008       9007  
      8876       8877       8888       8887       8997       8998       9009       9008  
      8878       8879       8890       8889       8999       9000       9011       9010  
      8879       8880       8891       8890       9000       9001       9012       9011  
      8880       8881       8892       8891       9001       9002       9013       9012  
      8881       8882       8893       8892       9002       9003       9014       9013  
      8882       8883       8894       8893       9003       9004       9015       9014  
      8883       8884       8895       8894       9004       9005       9016       9015  
      8884       8885       8896       8895       9005       9006       9017       9016  
      8885       8886       8897       8896       9006       9007       9018       9017  
      8886       8887       8898       8897       9007       9008       9019       9018  
      8887       8888       8899       8898       9008       9009       9020       9019  
      8889       8890       8901       8900       9010       9011       9022       9021  
      8890       8891       8902       8901       9011       9012       9023       9022  
      8891       8892       8903       8902       9012       9013       9024       9023  
      8892       8893       8904       8903       9013       9014       9025       9024  
      8893       8894       8905       8904       9014       9015       9026       9025  
      8894       8895       8906       8905       9015       9016       9027       9026  
      8895       8896       8907       8906       9016       9017       9028       9027  
      8896       8897       8908       8907       9017       9018       9029       9028  
      8897       8898       8909       8908       9018       9019       9030       9029  
      8898       8899       8910       8909       9019       9020       9031       9030  
      8900       8901       8912       8911       9021       9022       9033       9032  
      8901       8902       8913       8912       9022       9023       9034       9033  
      8902       8903       8914       8913       9023       9024       9035       9034  
      8903       8904       8915       8914       9024       9025       9036       9035  
      8904       8905       8916       8915       9025       9026       9037       9036  
      8905       8906       8917       8916       9026       9027       9038       9037  
      8906       8907       8918       8917       9027       9028       9039       9038  
      8907       8908       8919       8918       9028       9029       9040       9039  
      8908       8909       8920       8919       9029       9030       9041       9040  
      8909       8910       8921       8920       9030       9031       9042       9041  
      8911       8912       8923       8922       9032       9033       9044       9043  
      8912       8913       8924       8923       9033       9034       9045       9044  
      8913       8914       8925       8924       9034       9035       9046       9045  
      8914       8915       8926       8925       9035       9036       9047       9046  
      8915       8916       8927       8926       9036       9037       9048       9047  
      8916       8917       8928       8927       9037       9038       9049       9048  
      8917       8918       8929       8928       9038       9039       9050       9049  
      8918       8919       8930       8929       9039       9040       9051       9050  
      8919       8920       8931       8930       9040       9041       9052       9051  
      8920       8921       8932       8931       9041       9042       9053       9052  
      8922       8923       8934       8933       9043       9044       9055       9054  
      8923       8924       8935       8934       9044       9045       9056       9055  
      8924       8925       8936       8935       9045       9046       9057       9056  
      8925       8926       8937       8936       9046       9047       9058       9057  
      8926       8927       8938       8937       9047       9048       9059       9058  
      8927       8928       8939       8938       9048       9049       9060       9059  
      8928       8929       8940       8939       9049       9050       9061       9060  
      8929       8930       8941       8940       9050       9051       9062       9061  
      8930       8931       8942       8941       9051       9052       9063       9062  
      8931       8932       8943       8942       9052       9053       9064       9063  
      8933       8934       8945       8944       9054       9055       9066       9065  
      8934       8935       8946       8945       9055       9056       9067       9066  
      8935       8936       8947       8946       9056       9057       9068       9067  
      8936       8937       8948       8947       9057       9058       9069       9068  
      8937       8938       8949       8948       9058       9059       9070       9069  
      8938       8939       8950       8949       9059       9060       9071       9070  
      8939       8940       8951       8950       9060       9061       9072       9071  
      8940       8941       8952       8951       9061       9062       9073       9072  
      8941       8942       8953       8952       9062       9063       9074       9073  
      8942       8943       8954       8953       9063       9064       9075       9074  
      8955       8956       8967       8966       9076       9077       9088       9087  
      8956       8957       8968       8967       9077       9078       9089       9088  
      8957       8958       8969       8968       9078       9079       9090       9089  
      8958       8959       8970       8969       9079       9080       9091       9090  
      8959       8960       8971       8970       9080       9081       9092       9091  
      8960       8961       8972       8971       9081       9082       9093       9092  
      8961       8962       8973       8972       9082       9083       9094       9093  
      8962       8963       8974       8973       9083       9084       9095       9094  
      8963       8964       8975       8974       9084       9085       9096       9095  
      8964       8965       8976       8975       9085       9086       9097       9096  
      8966       8967       8978       8977       9087       9088       9099       9098  
      8967       8968       8979       8978       9088       9089       9100       9099  
      8968       8969       8980       8979       9089       9090       9101       9100  
      8969       8970       8981       8980       9090       9091       9102       9101  
      8970       8971       8982       8981       9091       9092       9103       9102  
      8971       8972       8983       8982       9092       9093       9104       9103  
      8972       8973       8984       8983       9093       9094       9105       9104  
      8973       8974       8985       8984       9094       9095       9106       9105  
      8974       8975       8986       8985       9095       9096       9107       9106  
      8975       8976       8987       8986       9096       9097       9108       9107  
      8977       8978       8989       8988       9098       9099       9110       9109  
      8978       8979       8990       8989       9099       9100       9111       9110  
      8979       8980       8991       8990       9100       9101       9112       9111  
      8980       8981       8992       8991       9101       9102       9113       9112  
      8981       8982       8993       8992       9102       9103       9114       9113  
      8982       8983       8994       8993       9103       9104       9115       9114  
      8983       8984       8995       8994       9104       9105       9116       9115  
      8984       8985       8996       8995       9105       9106       9117       9116  
      8985       8986       8997       8996       9106       9107       9118       9117  
      8986       8987       8998       8997       9107       9108       9119       9118  
      8988       8989       9000       8999       9109       9110       9121       9120  
      8989       8990       9001       9000       9110       9111       9122       9121  
      8990       8991       9002       9001       9111       9112       9123       9122  
      8991       8992       9003       9002       9112       9113       9124       9123  
      8992       8993       9004       9003       9113       9114       9125       9124  
      8993       8994       9005       9004       9114       9115       9126       9125  
      8994       8995       9006       9005       9115       9116       9127       9126  
      8995       8996       9007       9006       9116       9117       9128       9127  
      8996       8997       9008       9007       9117       9118       9129       9128  
      8997       8998       9009       9008       9118       9119       9130       9129  
      8999       9000       9011       9010       9120       9121       9132       9131  
      9000       9001       9012       9011       9121       9122       9133       9132  
      9001       9002       9013       9012       9122       9123       9134       9133  
      9002       9003       9014       9013       9123       9124       9135       9134  
      9003       9004       9015       9014       9124       9125       9136       9135  
      9004       9005       9016       9015       9125       9126       9137       9136  
      9005       9006       9017       9016       9126       9127       9138       9137  
      9006       9007       9018       9017       9127       9128       9139       9138  
      9007       9008       9019       9018       9128       9129       9140       9139  
      9008       9009       9020       9019       9129       9130       9141       9140  
      9010       9011       9022       9021       9131       9132       9143       9142  
      9011       9012       9023       9022       9132       9133       9144       9143  
      9012       9013       9024       9023       9133       9134       9145       9144  
      9013       9014       9025       9024       9134       9135       9146       9145  
      9014       9015       9026       9025       9135       9136       9147       9146  
      9015       9016       9027       9026       9136       9137       9148       9147  
      9016       9017       9028       9027       9137       9138       9149       9148  
      9017       9018       9029       9028       9138       9139       9150       9149  
      9018       9019       9030       9029       9139       9140       9151       9150  
      9019       9020       9031       9030       9140       9141       9152       9151  
      9021       9022       9033       9032       9142       9143       9154       9153  
      9022       9023       9034       9033       9143       9144       9155       9154  
      9023       9024       9035       9034       9144       9145       9156       9155  
      9024       9025       9036       9035       9145       9146       9157       9156  
      9025       9026       9037       9036       9146       9147       9158       9157  
      9026       9027       9038       9037       9147       9148       9159       9158  
      9027       9028       9039       9038       9148       9149       9160       9159  
      9028       9029       9040       9039       9149       9150       9161       9160  
      9029       9030       9041       9040       9150       9151       9162       9161  
      9030       9031       9042       9041       9151       9152       9163       9162  
      9032       9033       9044       9043       9153       9154       9165       9164  
      9033       9034       9045       9044       9154       9155       9166       9165  
      9034       9035       9046       9045       9155       9156       9167       9166  
      9035       9036       9047       9046       9156       9157       9168       9167  
      9036       9037       9048       9047       9157       9158       9169       9168  
      9037       9038       9049       9048       9158       9159       9170       9169  
      9038       9039       9050       9049       9159       9160       9171       9170  
      9039       9040       9051       9050       9160       9161       9172       9171  
      9040       9041       9052       9051       9161       9162       9173       9172  
      9041       9042       9053       9052       9162       9163       9174       9173  
      9043       9044       9055       9054       9164       9165       9176       9175  
      9044       9045       9056       9055       9165       9166       9177       9176  
      9045       9046       9057       9056       9166       9167       9178       9177  
      9046       9047       9058       9057       9167       9168       9179       9178  
      9047       9048       9059       9058       9168       9169       9180       9179  
      9048       9049       9060       9059       9169       9170       9181       9180  
      9049       9050       9061       9060       9170       9171       9182       9181  
      9050       9051       9062       9061       9171       9172       9183       9182  
      9051       9052       9063       9062       9172       9173       9184       9183  
      9052       9053       9064       9063       9173       9174       9185       9184  
      9054       9055       9066       9065       9175       9176       9187       9186  
      9055       9056       9067       9066       9176       9177       9188       9187  
      9056       9057       9068       9067       9177       9178       9189       9188  
      9057       9058       9069       9068       9178       9179       9190       9189  
      9058       9059       9070       9069       9179       9180       9191       9190  
      9059       9060       9071       9070       9180       9181       9192       9191  
      9060       9061       9072       9071       9181       9182       9193       9192  
      9061       9062       9073       9072       9182       9183       9194       9193  
      9062       9063       9074       9073       9183       9184       9195       9194  
      9063       9064       9075       9074       9184       9185       9196       9195  
      9076       9077       9088       9087       9197       9198       9209       9208  
      9077       9078       9089       9088       9198       9199       9210       9209  
      9078       9079       9090       9089       9199       9200       9211       9210  
      9079       9080       9091       9090       9200       9201       9212       9211  
      9080       9081       9092       9091       9201       9202       9213       9212  
      9081       9082       9093       9092       9202       9203       9214       9213  
      9082       9083       9094       9093       9203       9204       9215       9214  
      9083       9084       9095       9094       9204       9205       9216       9215  
      9084       9085       9096       9095       9205       9206       9217       9216  
      9085       9086       9097       9096       9206       9207       9218       9217  
      9087       9088       9099       9098       9208       9209       9220       9219  
      9088       9089       9100       9099       9209       9210       9221       9220  
      9089       9090       9101       9100       9210       9211       9222       9221  
      9090       9091       9102       9101       9211       9212       9223       9222  
      9091       9092       9103       9102       9212       9213       9224       9223  
      9092       9093       9104       9103       9213       9214       9225       9224  
      9093       9094       9105       9104       9214       9215       9226       9225  
      9094       9095       9106       9105       9215       9216       9227       9226  
      9095       9096       9107       9106       9216       9217       9228       9227  
      9096       9097       9108       9107       9217       9218       9229       9228  
      9098       9099       9110       9109       9219       9220       9231       9230  
      9099       9100       9111       9110       9220       9221       9232       9231  
      9100       9101       9112       9111       9221       9222       9233       9232  
      9101       9102       9113       9112       9222       9223       9234       9233  
      9102       9103       9114       9113       9223       9224       9235       9234  
      9103       9104       9115       9114       9224       9225       9236       9235  
      9104       9105       9116       9115       9225       9226       9237       9236  
      9105       9106       9117       9116       9226       9227       9238       9237  
      9106       9107       9118       9117       9227       9228       9239       9238  
      9107       9108       9119       9118       9228       9229       9240       9239  
      9109       9110       9121       9120       9230       9231       9242       9241  
      9110       9111       9122       9121       9231       9232       9243       9242  
      9111       9112       9123       9122       9232       9233       9244       9243  
      9112       9113       9124       9123       9233       9234       9245       9244  
      9113       9114       9125       9124       9234       9235       9246       9245  
      9114       9115       9126       9125       9235       9236       9247       9246  
      9115       9116       9127       9126       9236       9237       9248       9247  
      9116       9117       9128       9127       9237       9238       9249       9248  
      9117       9118       9129       9128       9238       9239       9250       9249  
      9118       9119       9130       9129       9239       9240       9251       9250  
      9120       9121       9132       9131       9241       9242       9253       9252  
      9121       9122       9133       9132       9242       9243       9254       9253  
      9122       9123       9134       9133       9243       9244       9255       9254  
      9123       9124       9135       9134       9244       9245       9256       9255  
      9124       9125       9136       9135       9245       9246       9257       9256  
      9125       9126       9137       9136       9246       9247       9258       9257  
      9126       9127       9138       9137       9247       9248       9259       9258  
      9127       9128       9139       9138       9248       9249       9260       9259  
      9128       9129       9140       9139       9249       9250       9261       9260  
      9129       9130       9141       9140       9250       9251       9262       9261  
      9131       9132       9143       9142       9252       9253       9264       9263  
      9132       9133       9144       9143       9253       9254       9265       9264  
      9133       9134       9145       9144       9254       9255       9266       9265  
      9134       9135       9146       9145       9255       9256       9267       9266  
      9135       9136       9147       9146       9256       9257       9268       9267  
      9136       9137       9148       9147       9257       9258       9269       9268  
      9137       9138       9149       9148       9258       9259       9270       9269  
      9138       9139       9150       9149       9259       9260       9271       9270  
      9139       9140       9151       9150       9260       9261       9272       9271  
      9140       9141       9152       9151       9261       9262       9273       9272  
      9142       9143       9154       9153       9263       9264       9275       9274  
      9143       9144       9155       9154       9264       9265       9276       9275  
      9144       9145       9156       9155       9265       9266       9277       9276  
      9145       9146       9157       9156       9266       9267       9278       9277  
      9146       9147       9158       9157       9267       9268       9279       9278  
      9147       9148       9159       9158       9268       9269       9280       9279  
      9148       9149       9160       9159       9269       9270       9281       9280  
      9149       9150       9161       9160       9270       9271       9282       9281  
      9150       9151       9162       9161       9271       9272       9283       9282  
      9151       9152       9163       9162       9272       9273       9284       9283  
      9153       9154       9165       9164       9274       9275       9286       9285  
      9154       9155       9166       9165       9275       9276       9287       9286  
      9155       9156       9167       9166       9276       9277       9288       9287  
      9156       9157       9168       9167       9277       9278       9289       9288  
      9157       9158       9169       9168       9278       9279       9290       9289  
      9158       9159       9170       9169       9279       9280       9291       9290  
      9159       9160       9171       9170       9280       9281       9292       9291  
      9160       9161       9172       9171       9281       9282       9293       9292  
      9161       9162       9173       9172       9282       9283       9294       9293  
      9162       9163       9174       9173       9283       9284       9295       9294  
      9164       9165       9176       9175       9285       9286       9297       9296  
      9165       9166       9177       9176       9286       9287       9298       9297  
      9166       9167       9178       9177       9287       9288       9299       9298  
      9167       9168       9179       9178       9288       9289       9300       9299  
      9168       9169       9180       9179       9289       9290       9301       9300  
      9169       9170       9181       9180       9290       9291       9302       9301  
      9170       9171       9182       9181       9291       9292       9303       9302  
      9171       9172       9183       9182       9292       9293       9304       9303  
      9172       9173       9184       9183       9293       9294       9305       9304  
      9173       9174       9185       9184       9294       9295       9306       9305  
      9175       9176       9187       9186       9296       9297       9308       9307  
      9176       9177       9188       9187       9297       9298       9309       9308  
      9177       9178       9189       9188       9298       9299       9310       9309  
      9178       9179       9190       9189       9299       9300       9311       9310  
      9179       9180       9191       9190       9300       9301       9312       9311  
      9180       9181       9192       9191       9301       9302       9313       9312  
      9181       9182       9193       9192       9302       9303       9314       9313  
      9182       9183       9194       9193       9303       9304       9315       9314  
      9183       9184       9195       9194       9304       9305       9316       9315  
      9184       9185       9196       9195       9305       9306       9317       9316  
      9197       9198       9209       9208       9318       9319       9330       9329  
      9198       9199       9210       9209       9319       9320       9331       9330  
      9199       9200       9211       9210       9320       9321       9332       9331  
      9200       9201       9212       9211       9321       9322       9333       9332  
      9201       9202       9213       9212       9322       9323       9334       9333  
      9202       9203       9214       9213       9323       9324       9335       9334  
      9203       9204       9215       9214       9324       9325       9336       9335  
      9204       9205       9216       9215       9325       9326       9337       9336  
      9205       9206       9217       9216       9326       9327       9338       9337  
      9206       9207       9218       9217       9327       9328       9339       9338  
      9208       9209       9220       9219       9329       9330       9341       9340  
      9209       9210       9221       9220       9330       9331       9342       9341  
      9210       9211       9222       9221       9331       9332       9343       9342  
      9211       9212       9223       9222       9332       9333       9344       9343  
      9212       9213       9224       9223       9333       9334       9345       9344  
      9213       9214       9225       9224       9334       9335       9346       9345  
      9214       9215       9226       9225       9335       9336       9347       9346  
      9215       9216       9227       9226       9336       9337       9348       9347  
      9216       9217       9228       9227       9337       9338       9349       9348  
      9217       9218       9229       9228       9338       9339       9350       9349  
      9219       9220       9231       9230       9340       9341       9352       9351  
      9220       9221       9232       9231       9341       9342       9353       9352  
      9221       9222       9233       9232       9342       9343       9354       9353  
      9222       9223       9234       9233       9343       9344       9355       9354  
      9223       9224       9235       9234       9344       9345       9356       9355  
      9224       9225       9236       9235       9345       9346       9357       9356  
      9225       9226       9237       9236       9346       9347       9358       9357  
      9226       9227       9238       9237       9347       9348       9359       9358  
      9227       9228       9239       9238       9348       9349       9360       9359  
      9228       9229       9240       9239       9349       9350       9361       9360  
      9230       9231       9242       9241       9351       9352       9363       9362  
      9231       9232       9243       9242       9352       9353       9364       9363  
      9232       9233       9244       9243       9353       9354       9365       9364  
      9233       9234       9245       9244       9354       9355       9366       9365  
      9234       9235       9246       9245       9355       9356       9367       9366  
      9235       9236       9247       9246       9356       9357       9368       9367  
      9236       9237       9248       9247       9357       9358       9369       9368  
      9237       9238       9249       9248       9358       9359       9370       9369  
      9238       9239       9250       9249       9359       9360       9371       9370  
      9239       9240       9251       9250       9360       9361       9372       9371  
      9241       9242       9253       9252       9362       9363       9374       9373  
      9242       9243       9254       9253       9363       9364       9375       9374  
      9243       9244       9255       9254       9364       9365       9376       9375  
      9244       9245       9256       9255       9365       9366       9377       9376  
      9245       9246       9257       9256       9366       9367       9378       9377  
      9246       9247       9258       9257       9367       9368       9379       9378  
      9247       9248       9259       9258       9368       9369       9380       9379  
      9248       9249       9260       9259       9369       9370       9381       9380  
      9249       9250       9261       9260       9370       9371       9382       9381  
      9250       9251       9262       9261       9371       9372       9383       9382  
      9252       9253       9264       9263       9373       9374       9385       9384  
      9253       9254       9265       9264       9374       9375       9386       9385  
      9254       9255       9266       9265       9375       9376       9387       9386  
      9255       9256       9267       9266       9376       9377       9388       9387  
      9256       9257       9268       9267       9377       9378       9389       9388  
      9257       9258       9269       9268       9378       9379       9390       9389  
      9258       9259       9270       9269       9379       9380       9391       9390  
      9259       9260       9271       9270       9380       9381       9392       9391  
      9260       9261       9272       9271       9381       9382       9393       9392  
      9261       9262       9273       9272       9382       9383       9394       9393  
      9263       9264       9275       9274       9384       9385       9396       9395  
      9264       9265       9276       9275       9385       9386       9397       9396  
      9265       9266       9277       9276       9386       9387       9398       9397  
      9266       9267       9278       9277       9387       9388       9399       9398  
      9267       9268       9279       9278       9388       9389       9400       9399  
      9268       9269       9280       9279       9389       9390       9401       9400  
      9269       9270       9281       9280       9390       9391       9402       9401  
      9270       9271       9282       9281       9391       9392       9403       9402  
      9271       9272       9283       9282       9392       9393       9404       9403  
      9272       9273       9284       9283       9393       9394       9405       9404  
      9274       9275       9286       9285       9395       9396       9407       9406  
      9275       9276       9287       9286       9396       9397       9408       9407  
      9276       9277       9288       9287       9397       9398       9409       9408  
      9277       9278       9289       9288       9398       9399       9410       9409  
      9278       9279       9290       9289       9399       9400       9411       9410  
      9279       9280       9291       9290       9400       9401       9412       9411  
      9280       9281       9292       9291       9401       9402       9413       9412  
      9281       9282       9293       9292       9402       9403       9414       9413  
      9282       9283       9294       9293       9403       9404       9415       9414  
      9283       9284       9295       9294       9404       9405       9416       9415  
      9285       9286       9297       9296       9406       9407       9418       9417  
      9286       9287       9298       9297       9407       9408       9419       9418  
      9287       9288       9299       9298       9408       9409       9420       9419  
      9288       9289       9300       9299       9409       9410       9421       9420  
      9289       9290       9301       9300       9410       9411       9422       9421  
      9290       9291       9302       9301       9411       9412       9423       9422  
      9291       9292       9303       9302       9412       9413       9424       9423  
      9292       9293       9304       9303       9413       9414       9425       9424  
      9293       9294       9305       9304       9414       9415       9426       9425  
      9294       9295       9306       9305       9415       9416       9427       9426  
      9296       9297       9308       9307       9417       9418       9429       9428  
      9297       9298       9309       9308       9418       9419       9430       9429  
      9298       9299       9310       9309       9419       9420       9431       9430  
      9299       9300       9311       9310       9420       9421       9432       9431  
      9300       9301       9312       9311       9421       9422       9433       9432  
      9301       9302       9313       9312       9422       9423       9434       9433  
      9302       9303       9314       9313       9423       9424       9435       9434  
      9303       9304       9315       9314       9424       9425       9436       9435  
      9304       9305       9316       9315       9425       9426       9437       9436  
      9305       9306       9317       9316       9426       9427       9438       9437  
      9318       9319       9330       9329       9439       9440       9451       9450  
      9319       9320       9331       9330       9440       9441       9452       9451  
      9320       9321       9332       9331       9441       9442       9453       9452  
      9321       9322       9333       9332       9442       9443       9454       9453  
      9322       9323       9334       9333       9443       9444       9455       9454  
      9323       9324       9335       9334       9444       9445       9456       9455  
      9324       9325       9336       9335       9445       9446       9457       9456  
      9325       9326       9337       9336       9446       9447       9458       9457  
      9326       9327       9338       9337       9447       9448       9459       9458  
      9327       9328       9339       9338       9448       9449       9460       9459  
      9329       9330       9341       9340       9450       9451       9462       9461  
      9330       9331       9342       9341       9451       9452       9463       9462  
      9331       9332       9343       9342       9452       9453       9464       9463  
      9332       9333       9344       9343       9453       9454       9465       9464  
      9333       9334       9345       9344       9454       9455       9466       9465  
      9334       9335       9346       9345       9455       9456       9467       9466  
      9335       9336       9347       9346       9456       9457       9468       9467  
      9336       9337       9348       9347       9457       9458       9469       9468  
      9337       9338       9349       9348       9458       9459       9470       9469  
      9338       9339       9350       9349       9459       9460       9471       9470  
      9340       9341       9352       9351       9461       9462       9473       9472  
      9341       9342       9353       9352       9462       9463       9474       9473  
      9342       9343       9354       9353       9463       9464       9475       9474  
      9343       9344       9355       9354       9464       9465       9476       9475  
      9344       9345       9356       9355       9465       9466       9477       9476  
      9345       9346       9357       9356       9466       9467       9478       9477  
      9346       9347       9358       9357       9467       9468       9479       9478  
      9347       9348       9359       9358       9468       9469       9480       9479  
      9348       9349       9360       9359       9469       9470       9481       9480  
      9349       9350       9361       9360       9470       9471       9482       9481  
      9351       9352       9363       9362       9472       9473       9484       9483  
      9352       9353       9364       9363       9473       9474       9485       9484  
      9353       9354       9365       9364       9474       9475       9486       9485  
      9354       9355       9366       9365       9475       9476       9487       9486  
      9355       9356       9367       9366       9476       9477       9488       9487  
      9356       9357       9368       9367       9477       9478       9489       9488  
      9357       9358       9369       9368       9478       9479       9490       9489  
      9358       9359       9370       9369       9479       9480       9491       9490  
      9359       9360       9371       9370       9480       9481       9492       9491  
      9360       9361       9372       9371       9481       9482       9493       9492  
      9362       9363       9374       9373       9483       9484       9495       9494  
      9363       9364       9375       9374       9484       9485       9496       9495  
      9364       9365       9376       9375       9485       9486       9497       9496  
      9365       9366       9377       9376       9486       9487       9498       9497  
      9366       9367       9378       9377       9487       9488       9499       9498  
      9367       9368       9379       9378       9488       9489       9500       9499  
      9368       9369       9380       9379       9489       9490       9501       9500  
      9369       9370       9381       9380       9490       9491       9502       9501  
      9370       9371       9382       9381       9491       9492       9503       9502  
      9371       9372       9383       9382       9492       9493       9504       9503  
      9373       9374       9385       9384       9494       9495       9506       9505  
      9374       9375       9386       9385       9495       9496       9507       9506  
      9375       9376       9387       9386       9496       9497       9508       9507  
      9376       9377       9388       9387       9497       9498       9509       9508  
      9377       9378       9389       9388       9498       9499       9510       9509  
      9378       9379       9390       9389       9499       9500       9511       9510  
      9379       9380       9391       9390       9500       9501       9512       9511  
      9380       9381       9392       9391       9501       9502       9513       9512  
      9381       9382       9393       9392       9502       9503       9514       9513  
      9382       9383       9394       9393       9503       9504       9515       9514  
      9384       9385       9396       9395       9505       9506       9517       9516  
      9385       9386       9397       9396       9506       9507       9518       9517  
      9386       9387       9398       9397       9507       9508       9519       9518  
      9387       9388       9399       9398       9508       9509       9520       9519  
      9388       9389       9400       9399       9509       9510       9521       9520  
      9389       9390       9401       9400       9510       9511       9522       9521  
      9390       9391       9402       9401       9511       9512       9523       9522  
      9391       9392       9403       9402       9512       9513       9524       9523  
      9392       9393       9404       9403       9513       9514       9525       9524  
      9393       9394       9405       9404       9514       9515       9526       9525  
      9395       9396       9407       9406       9516       9517       9528       9527  
      9396       9397       9408       9407       9517       9518       9529       9528  
      9397       9398       9409       9408       9518       9519       9530       9529  
      9398       9399       9410       9409       9519       9520       9531       9530  
      9399       9400       9411       9410       9520       9521       9532       9531  
      9400       9401       9412       9411       9521       9522       9533       9532  
      9401       9402       9413       9412       9522       9523       9534       9533  
      9402       9403       9414       9413       9523       9524       9535       9534  
      9403       9404       9415       9414       9524       9525       9536       9535  
      9404       9405       9416       9415       9525       9526       9537       9536  
      9406       9407       9418       9417       9527       9528       9539       9538  
      9407       9408       9419       9418       9528       9529       9540       9539  
      9408       9409       9420       9419       9529       9530       9541       9540  
      9409       9410       9421       9420       9530       9531       9542       9541  
      9410       9411       9422       9421       9531       9532       9543       9542  
      9411       9412       9423       9422       9532       9533       9544       9543  
      9412       9413       9424       9423       9533       9534       9545       9544  
      9413       9414       9425       9424       9534       9535       9546       9545  
      9414       9415       9426       9425       9535       9536       9547       9546  
      9415       9416       9427       9426       9536       9537       9548       9547  
      9417       9418       9429       9428       9538       9539       9550       9549  
      9418       9419       9430       9429       9539       9540       9551       9550  
      9419       9420       9431       9430       9540       9541       9552       9551  
      9420       9421       9432       9431       9541       9542       9553       9552  
      9421       9422       9433       9432       9542       9543       9554       9553  
      9422       9423       9434       9433       9543       9544       9555       9554  
      9423       9424       9435       9434       9544       9545       9556       9555  
      9424       9425       9436       9435       9545       9546       9557       9556  
      9425       9426       9437       9436       9546       9547       9558       9557  
      9426       9427       9438       9437       9547       9548       9559       9558  
      9439       9440       9451       9450       9560       9561       9572       9571  
      9440       9441       9452       9451       9561       9562       9573       9572  
      9441       9442       9453       9452       9562       9563       9574       9573  
      9442       9443       9454       9453       9563       9564       9575       9574  
      9443       9444       9455       9454       9564       9565       9576       9575  
      9444       9445       9456       9455       9565       9566       9577       9576  
      9445       9446       9457       9456       9566       9567       9578       9577  
      9446       9447       9458       9457       9567       9568       9579       9578  
      9447       9448       9459       9458       9568       9569       9580       9579  
      9448       9449       9460       9459       9569       9570       9581       9580  
      9450       9451       9462       9461       9571       9572       9583       9582  
      9451       9452       9463       9462       9572       9573       9584       9583  
      9452       9453       9464       9463       9573       9574       9585       9584  
      9453       9454       9465       9464       9574       9575       9586       9585  
      9454       9455       9466       9465       9575       9576       9587       9586  
      9455       9456       9467       9466       9576       9577       9588       9587  
      9456       9457       9468       9467       9577       9578       9589       9588  
      9457       9458       9469       9468       9578       9579       9590       9589  
      9458       9459       9470       9469       9579       9580       9591       9590  
      9459       9460       9471       9470       9580       9581       9592       9591  
      9461       9462       9473       9472       9582       9583       9594       9593  
      9462       9463       9474       9473       9583       9584       9595       9594  
      9463       9464       9475       9474       9584       9585       9596       9595  
      9464       9465       9476       9475       9585       9586       9597       9596  
      9465       9466       9477       9476       9586       9587       9598       9597  
      9466       9467       9478       9477       9587       9588       9599       9598  
      9467       9468       9479       9478       9588       9589       9600       9599  
      9468       9469       9480       9479       9589       9590       9601       9600  
      9469       9470       9481       9480       9590       9591       9602       9601  
      9470       9471       9482       9481       9591       9592       9603       9602  
      9472       9473       9484       9483       9593       9594       9605       9604  
      9473       9474       9485       9484       9594       9595       9606       9605  
      9474       9475       9486       9485       9595       9596       9607       9606  
      9475       9476       9487       9486       9596       9597       9608       9607  
      9476       9477       9488       9487       9597       9598       9609       9608  
      9477       9478       9489       9488       9598       9599       9610       9609  
      9478       9479       9490       9489       9599       9600       9611       9610  
      9479       9480       9491       9490       9600       9601       9612       9611  
      9480       9481       9492       9491       9601       9602       9613       9612  
      9481       9482       9493       9492       9602       9603       9614       9613  
      9483       9484       9495       9494       9604       9605       9616       9615  
      9484       9485       9496       9495       9605       9606       9617       9616  
      9485       9486       9497       9496       9606       9607       9618       9617  
      9486       9487       9498       9497       9607       9608       9619       9618  
      9487       9488       9499       9498       9608       9609       9620       9619  
      9488       9489       9500       9499       9609       9610       9621       9620  
      9489       9490       9501       9500       9610       9611       9622       9621  
      9490       9491       9502       9501       9611       9612       9623       9622  
      9491       9492       9503       9502       9612       9613       9624       9623  
      9492       9493       9504       9503       9613       9614       9625       9624  
      9494       9495       9506       9505       9615       9616       9627       9626  
      9495       9496       9507       9506       9616       9617       9628       9627  
      9496       9497       9508       9507       9617       9618       9629       9628  
      9497       9498       9509       9508       9618       9619       9630       9629  
      9498       9499       9510       9509       9619       9620       9631       9630  
      9499       9500       9511       9510       9620       9621       9632       9631  
      9500       9501       9512       9511       9621       9622       9633       9632  
      9501       9502       9513       9512       9622       9623       9634       9633  
      9502       9503       9514       9513       9623       9624       9635       9634  
      9503       9504       9515       9514       9624       9625       9636       9635  
      9505       9506       9517       9516       9626       9627       9638       9637  
      9506       9507       9518       9517       9627       9628       9639       9638  
      9507       9508       9519       9518       9628       9629       9640       9639  
      9508       9509       9520       9519       9629       9630       9641       9640  
      9509       9510       9521       9520       9630       9631       9642       9641  
      9510       9511       9522       9521       9631       9632       9643       9642  
      9511       9512       9523       9522       9632       9633       9644       9643  
      9512       9513       9524       9523       9633       9634       9645       9644  
      9513       9514       9525       9524       9634       9635       9646       9645  
      9514       9515       9526       9525       9635       9636       9647       9646  
      9516       9517       9528       9527       9637       9638       9649       9648  
      9517       9518       9529       9528       9638       9639       9650       9649  
      9518       9519       9530       9529       9639       9640       9651       9650  
      9519       9520       9531       9530       9640       9641       9652       9651  
      9520       9521       9532       9531       9641       9642       9653       9652  
      9521       9522       9533       9532       9642       9643       9654       9653  
      9522       9523       9534       9533       9643       9644       9655       9654  
      9523       9524       9535       9534       9644       9645       9656       9655  
      9524       9525       9536       9535       9645       9646       9657       9656  
      9525       9526       9537       9536       9646       9647       9658       9657  
      9527       9528       9539       9538       9648       9649       9660       9659  
      9528       9529       9540       9539       9649       9650       9661       9660  
      9529       9530       9541       9540       9650       9651       9662       9661  
      9530       9531       9542       9541       9651       9652       9663       9662  
      9531       9532       9543       9542       9652       9653       9664       9663  
      9532       9533       9544       9543       9653       9654       9665       9664  
      9533       9534       9545       9544       9654       9655       9666       9665  
      9534       9535       9546       9545       9655       9656       9667       9666  
      9535       9536       9547       9546       9656       9657       9668       9667  
      9536       9537       9548       9547       9657       9658       9669       9668  
      9538       9539       9550       9549       9659       9660       9671       9670  
      9539       9540       9551       9550       9660       9661       9672       9671  
      9540       9541       9552       9551       9661       9662       9673       9672  
      9541       9542       9553       9552       9662       9663       9674       9673  
      9542       9543       9554       9553       9663       9664       9675       9674  
      9543       9544       9555       9554       9664       9665       9676       9675  
      9544       9545       9556       9555       9665       9666       9677       9676  
      9545       9546       9557       9556       9666       9667       9678       9677  
      9546       9547       9558       9557       9667       9668       9679       9678  
      9547       9548       9559       9558       9668       9669       9680       9679  
      9560       9561       9572       9571       9681       9682       9693       9692  
      9561       9562       9573       9572       9682       9683       9694       9693  
      9562       9563       9574       9573       9683       9684       9695       9694  
      9563       9564       9575       9574       9684       9685       9696       9695  
      9564       9565       9576       9575       9685       9686       9697       9696  
      9565       9566       9577       9576       9686       9687       9698       9697  
      9566       9567       9578       9577       9687       9688       9699       9698  
      9567       9568       9579       9578       9688       9689       9700       9699  
      9568       9569       9580       9579       9689       9690       9701       9700  
      9569       9570       9581       9580       9690       9691       9702       9701  
      9571       9572       9583       9582       9692       9693       9704       9703  
      9572       9573       9584       9583       9693       9694       9705       9704  
      9573       9574       9585       9584       9694       9695       9706       9705  
      9574       9575       9586       9585       9695       9696       9707       9706  
      9575       9576       9587       9586       9696       9697       9708       9707  
      9576       9577       9588       9587       9697       9698       9709       9708  
      9577       9578       9589       9588       9698       9699       9710       9709  
      9578       9579       9590       9589       9699       9700       9711       9710  
      9579       9580       9591       9590       9700       9701       9712       9711  
      9580       9581       9592       9591       9701       9702       9713       9712  
      9582       9583       9594       9593       9703       9704       9715       9714  
      9583       9584       9595       9594       9704       9705       9716       9715  
      9584       9585       9596       9595       9705       9706       9717       9716  
      9585       9586       9597       9596       9706       9707       9718       9717  
      9586       9587       9598       9597       9707       9708       9719       9718  
      9587       9588       9599       9598       9708       9709       9720       9719  
      9588       9589       9600       9599       9709       9710       9721       9720  
      9589       9590       9601       9600       9710       9711       9722       9721  
      9590       9591       9602       9601       9711       9712       9723       9722  
      9591       9592       9603       9602       9712       9713       9724       9723  
      9593       9594       9605       9604       9714       9715       9726       9725  
      9594       9595       9606       9605       9715       9716       9727       9726  
      9595       9596       9607       9606       9716       9717       9728       9727  
      9596       9597       9608       9607       9717       9718       9729       9728  
      9597       9598       9609       9608       9718       9719       9730       9729  
      9598       9599       9610       9609       9719       9720       9731       9730  
      9599       9600       9611       9610       9720       9721       9732       9731  
      9600       9601       9612       9611       9721       9722       9733       9732  
      9601       9602       9613       9612       9722       9723       9734       9733  
      9602       9603       9614       9613       9723       9724       9735       9734  
      9604       9605       9616       9615       9725       9726       9737       9736  
      9605       9606       9617       9616       9726       9727       9738       9737  
      9606       9607       9618       9617       9727       9728       9739       9738  
      9607       9608       9619       9618       9728       9729       9740       9739  
      9608       9609       9620       9619       9729       9730       9741       9740  
      9609       9610       9621       9620       9730       9731       9742       9741  
      9610       9611       9622       9621       9731       9732       9743       9742  
      9611       9612       9623       9622       9732       9733       9744       9743  
      9612       9613       9624       9623       9733       9734       9745       9744  
      9613       9614       9625       9624       9734       9735       9746       9745  
      9615       9616       9627       9626       9736       9737       9748       9747  
      9616       9617       9628       9627       9737       9738       9749       9748  
      9617       9618       9629       9628       9738       9739       9750       9749  
      9618       9619       9630       9629       9739       9740       9751       9750  
      9619       9620       9631       9630       9740       9741       9752       9751  
      9620       9621       9632       9631       9741       9742       9753       9752  
      9621       9622       9633       9632       9742       9743       9754       9753  
      9622       9623       9634       9633       9743       9744       9755       9754  
      9623       9624       9635       9634       9744       9745       9756       9755  
      9624       9625       9636       9635       9745       9746       9757       9756  
      9626       9627       9638       9637       9747       9748       9759       9758  
      9627       9628       9639       9638       9748       9749       9760       9759  
      9628       9629       9640       9639       9749       9750       9761       9760  
      9629       9630       9641       9640       9750       9751       9762       9761  
      9630       9631       9642       9641       9751       9752       9763       9762  
      9631       9632       9643       9642       9752       9753       9764       9763  
      9632       9633       9644       9643       9753       9754       9765       9764  
      9633       9634       9645       9644       9754       9755       9766       9765  
      9634       9635       9646       9645       9755       9756       9767       9766  
      9635       9636       9647       9646       9756       9757       9768       9767  
      9637       9638       9649       9648       9758       9759       9770       9769  
      9638       9639       9650       9649       9759       9760       9771       9770  
      9639       9640       9651       9650       9760       9761       9772       9771  
      9640       9641       9652       9651       9761       9762       9773       9772  
      9641       9642       9653       9652       9762       9763       9774       9773  
      9642       9643       9654       9653       9763       9764       9775       9774  
      9643       9644       9655       9654       9764       9765       9776       9775  
      9644       9645       9656       9655       9765       9766       9777       9776  
      9645       9646       9657       9656       9766       9767       9778       9777  
      9646       9647       9658       9657       9767       9768       9779       9778  
      9648       9649       9660       9659       9769       9770       9781       9780  
      9649       9650       9661       9660       9770       9771       9782       9781  
      9650       9651       9662       9661       9771       9772       9783       9782  
      9651       9652       9663       9662       9772       9773       9784       9783  
      9652       9653       9664       9663       9773       9774       9785       9784  
      9653       9654       9665       9664       9774       9775       9786       9785  
      9654       9655       9666       9665       9775       9776       9787       9786  
      9655       9656       9667       9666       9776       9777       9788       9787  
      9656       9657       9668       9667       9777       9778       9789       9788  
      9657       9658       9669       9668       9778       9779       9790       9789  
      9659       9660       9671       9670       9780       9781       9792       9791  
      9660       9661       9672       9671       9781       9782       9793       9792  
      9661       9662       9673       9672       9782       9783       9794       9793  
      9662       9663       9674       9673       9783       9784       9795       9794  
      9663       9664       9675       9674       9784       9785       9796       9795  
      9664       9665       9676       9675       9785       9786       9797       9796  
      9665       9666       9677       9676       9786       9787       9798       9797  
      9666       9667       9678       9677       9787       9788       9799       9798  
      9667       9668       9679       9678       9788       9789       9800       9799  
      9668       9669       9680       9679       9789       9790       9801       9800  
      9681       9682       9693       9692       9802       9803       9814       9813  
      9682       9683       9694       9693       9803       9804       9815       9814  
      9683       9684       9695       9694       9804       9805       9816       9815  
      9684       9685       9696       9695       9805       9806       9817       9816  
      9685       9686       9697       9696       9806       9807       9818       9817  
      9686       9687       9698       9697       9807       9808       9819       9818  
      9687       9688       9699       9698       9808       9809       9820       9819  
      9688       9689       9700       9699       9809       9810       9821       9820  
      9689       9690       9701       9700       9810       9811       9822       9821  
      9690       9691       9702       9701       9811       9812       9823       9822  
      9692       9693       9704       9703       9813       9814       9825       9824  
      9693       9694       9705       9704       9814       9815       9826       9825  
      9694       9695       9706       9705       9815       9816       9827       9826  
      9695       9696       9707       9706       9816       9817       9828       9827  
      9696       9697       9708       9707       9817       9818       9829       9828  
      9697       9698       9709       9708       9818       9819       9830       9829  
      9698       9699       9710       9709       9819       9820       9831       9830  
      9699       9700       9711       9710       9820       9821       9832       9831  
      9700       9701       9712       9711       9821       9822       9833       9832  
      9701       9702       9713       9712       9822       9823       9834       9833  
      9703       9704       9715       9714       9824       9825       9836       9835  
      9704       9705       9716       9715       9825       9826       9837       9836  
      9705       9706       9717       9716       9826       9827       9838       9837  
      9706       9707       9718       9717       9827       9828       9839       9838  
      9707       9708       9719       9718       9828       9829       9840       9839  
      9708       9709       9720       9719       9829       9830       9841       9840  
      9709       9710       9721       9720       9830       9831       9842       9841  
      9710       9711       9722       9721       9831       9832       9843       9842  
      9711       9712       9723       9722       9832       9833       9844       9843  
      9712       9713       9724       9723       9833       9834       9845       9844  
      9714       9715       9726       9725       9835       9836       9847       9846  
      9715       9716       9727       9726       9836       9837       9848       9847  
      9716       9717       9728       9727       9837       9838       9849       9848  
      9717       9718       9729       9728       9838       9839       9850       9849  
      9718       9719       9730       9729       9839       9840       9851       9850  
      9719       9720       9731       9730       9840       9841       9852       9851  
      9720       9721       9732       9731       9841       9842       9853       9852  
      9721       9722       9733       9732       9842       9843       9854       9853  
      9722       9723       9734       9733       9843       9844       9855       9854  
      9723       9724       9735       9734       9844       9845       9856       9855  
      9725       9726       9737       9736       9846       9847       9858       9857  
      9726       9727       9738       9737       9847       9848       9859       9858  
      9727       9728       9739       9738       9848       9849       9860       9859  
      9728       9729       9740       9739       9849       9850       9861       9860  
      9729       9730       9741       9740       9850       9851       9862       9861  
      9730       9731       9742       9741       9851       9852       9863       9862  
      9731       9732       9743       9742       9852       9853       9864       9863  
      9732       9733       9744       9743       9853       9854       9865       9864  
      9733       9734       9745       9744       9854       9855       9866       9865  
      9734       9735       9746       9745       9855       9856       9867       9866  
      9736       9737       9748       9747       9857       9858       9869       9868  
      9737       9738       9749       9748       9858       9859       9870       9869  
      9738       9739       9750       9749       9859       9860       9871       9870  
      9739       9740       9751       9750       9860       9861       9872       9871  
      9740       9741       9752       9751       9861       9862       9873       9872  
      9741       9742       9753       9752       9862       9863       9874       9873  
      9742       9743       9754       9753       9863       9864       9875       9874  
      9743       9744       9755       9754       9864       9865       9876       9875  
      9744       9745       9756       9755       9865       9866       9877       9876  
      9745       9746       9757       9756       9866       9867       9878       9877  
      9747       9748       9759       9758       9868       9869       9880       9879  
      9748       9749       9760       9759       9869       9870       9881       9880  
      9749       9750       9761       9760       9870       9871       9882       9881  
      9750       9751       9762       9761       9871       9872       9883       9882  
      9751       9752       9763       9762       9872       9873       9884       9883  
      9752       9753       9764       9763       9873       9874       9885       9884  
      9753       9754       9765       9764       9874       9875       9886       9885  
      9754       9755       9766       9765       9875       9876       9887       9886  
      9755       9756       9767       9766       9876       9877       9888       9887  
      9756       9757       9768       9767       9877       9878       9889       9888  
      9758       9759       9770       9769       9879       9880       9891       9890  
      9759       9760       9771       9770       9880       9881       9892       9891  
      9760       9761       9772       9771       9881       9882       9893       9892  
      9761       9762       9773       9772       9882       9883       9894       9893  
      9762       9763       9774       9773       9883       9884       9895       9894  
      9763       9764       9775       9774       9884       9885       9896       9895  
      9764       9765       9776       9775       9885       9886       9897       9896  
      9765       9766       9777       9776       9886       9887       9898       9897  
      9766       9767       9778       9777       9887       9888       9899       9898  
      9767       9768       9779       9778       9888       9889       9900       9899  
      9769       9770       9781       9780       9890       9891       9902       9901  
      9770       9771       9782       9781       9891       9892       9903       9902  
      9771       9772       9783       9782       9892       9893       9904       9903  
      9772       9773       9784       9783       9893       9894       9905       9904  
      9773       9774       9785       9784       9894       9895       9906       9905  
      9774       9775       9786       9785       9895       9896       9907       9906  
      9775       9776       9787       9786       9896       9897       9908       9907  
      9776       9777       9788       9787       9897       9898       9909       9908  
      9777       9778       9789       9788       9898       9899       9910       9909  
      9778       9779       9790       9789       9899       9900       9911       9910  
      9780       9781       9792       9791       9901       9902       9913       9912  
      9781       9782       9793       9792       9902       9903       9914       9913  
      9782       9783       9794       9793       9903       9904       9915       9914  
      9783       9784       9795       9794       9904       9905       9916       9915  
      9784       9785       9796       9795       9905       9906       9917       9916  
      9785       9786       9797       9796       9906       9907       9918       9917  
      9786       9787       9798       9797       9907       9908       9919       9918  
      9787       9788       9799       9798       9908       9909       9920       9919  
      9788       9789       9800       9799       9909       9910       9921       9920  
      9789       9790       9801       9800       9910       9911       9922       9921  
      9802       9803       9814       9813       9923       9924       9935       9934  
      9803       9804       9815       9814       9924       9925       9936       9935  
      9804       9805       9816       9815       9925       9926       9937       9936  
      9805       9806       9817       9816       9926       9927       9938       9937  
      9806       9807       9818       9817       9927       9928       9939       9938  
      9807       9808       9819       9818       9928       9929       9940       9939  
      9808       9809       9820       9819       9929       9930       9941       9940  
      9809       9810       9821       9820       9930       9931       9942       9941  
      9810       9811       9822       9821       9931       9932       9943       9942  
      9811       9812       9823       9822       9932       9933       9944       9943  
      9813       9814       9825       9824       9934       9935       9946       9945  
      9814       9815       9826       9825       9935       9936       9947       9946  
      9815       9816       9827       9826       9936       9937       9948       9947  
      9816       9817       9828       9827       9937       9938       9949       9948  
      9817       9818       9829       9828       9938       9939       9950       9949  
      9818       9819       9830       9829       9939       9940       9951       9950  
      9819       9820       9831       9830       9940       9941       9952       9951  
      9820       9821       9832       9831       9941       9942       9953       9952  
      9821       9822       9833       9832       9942       9943       9954       9953  
      9822       9823       9834       9833       9943       9944       9955       9954  
      9824       9825       9836       9835       9945       9946       9957       9956  
      9825       9826       9837       9836       9946       9947       9958       9957  
      9826       9827       9838       9837       9947       9948       9959       9958  
      9827       9828       9839       9838       9948       9949       9960       9959  
      9828       9829       9840       9839       9949       9950       9961       9960  
      9829       9830       9841       9840       9950       9951       9962       9961  
      9830       9831       9842       9841       9951       9952       9963       9962  
      9831       9832       9843       9842       9952       9953       9964       9963  
      9832       9833       9844       9843       9953       9954       9965       9964  
      9833       9834       9845       9844       9954       9955       9966       9965  
      9835       9836       9847       9846       9956       9957       9968       9967  
      9836       9837       9848       9847       9957       9958       9969       9968  
      9837       9838       9849       9848       9958       9959       9970       9969  
      9838       9839       9850       9849       9959       9960       9971       9970  
      9839       9840       9851       9850       9960       9961       9972       9971  
      9840       9841       9852       9851       9961       9962       9973       9972  
      9841       9842       9853       9852       9962       9963       9974       9973  
      9842       9843       9854       9853       9963       9964       9975       9974  
      9843       9844       9855       9854       9964       9965       9976       9975  
      9844       9845       9856       9855       9965       9966       9977       9976  
      9846       9847       9858       9857       9967       9968       9979       9978  
      9847       9848       9859       9858       9968       9969       9980       9979  
      9848       9849       9860       9859       9969       9970       9981       9980  
      9849       9850       9861       9860       9970       9971       9982       9981  
      9850       9851       9862       9861       9971       9972       9983       9982  
      9851       9852       9863       9862       9972       9973       9984       9983  
      9852       9853       9864       9863       9973       9974       9985       9984  
      9853       9854       9865       9864       9974       9975       9986       9985  
      9854       9855       9866       9865       9975       9976       9987       9986  
      9855       9856       9867       9866       9976       9977       9988       9987  
      9857       9858       9869       9868       9978       9979       9990       9989  
      9858       9859       9870       9869       9979       9980       9991       9990  
      9859       9860       9871       9870       9980       9981       9992       9991  
      9860       9861       9872       9871       9981       9982       9993       9992  
      9861       9862       9873       9872       9982       9983       9994       9993  
      9862       9863       9874       9873       9983       9984       9995       9994  
      9863       9864       9875       9874       9984       9985       9996       9995  
      9864       9865       9876       9875       9985       9986       9997       9996  
      9865       9866       9877       9876       9986       9987       9998       9997  
      9866       9867       9878       9877       9987       9988       9999       9998  
      9868       9869       9880       9879       9989       9990      10001      10000  
      9869       9870       9881       9880       9990       9991      10002      10001  
      9870       9871       9882       9881       9991       9992      10003      10002  
      9871       9872       9883       9882       9992       9993      10004      10003  
      9872       9873       9884       9883       9993       9994      10005      10004  
      9873       9874       9885       9884       9994       9995      10006      10005  
      9874       9875       9886       9885       9995       9996      10007      10006  
      9875       9876       9887       9886       9996       9997      10008      10007  
      9876       9877       9888       9887       9997       9998      10009      10008  
      9877       9878       9889       9888       9998       9999      10010      10009  
      9879       9880       9891       9890      10000      10001      10012      10011  
      9880       9881       9892       9891      10001      10002      10013      10012  
      9881       9882       9893       9892      10002      10003      10014      10013  
      9882       9883       9894       9893      10003      10004      10015      10014  
      9883       9884       9895       9894      10004      10005      10016      10015  
      9884       9885       9896       9895      10005      10006      10017      10016  
      9885       9886       9897       9896      10006      10007      10018      10017  
      9886       9887       9898       9897      10007      10008      10019      10018  
      9887       9888       9899       9898      10008      10009      10020      10019  
      9888       9889       9900       9899      10009      10010      10021      10020  
      9890       9891       9902       9901      10011      10012      10023      10022  
      9891       9892       9903       9902      10012      10013      10024      10023  
      9892       9893       9904       9903      10013      10014      10025      10024  
      9893       9894       9905       9904      10014      10015      10026      10025  
      9894       9895       9906       9905      10015      10016      10027      10026  
      9895       9896       9907       9906      10016      10017      10028      10027  
      9896       9897       9908       9907      10017      10018      10029      10028  
      9897       9898       9909       9908      10018      10019      10030      10029  
      9898       9899       9910       9909      10019      10020      10031      10030  
      9899       9900       9911       9910      10020      10021      10032      10031  
      9901       9902       9913       9912      10022      10023      10034      10033  
      9902       9903       9914       9913      10023      10024      10035      10034  
      9903       9904       9915       9914      10024      10025      10036      10035  
      9904       9905       9916       9915      10025      10026      10037      10036  
      9905       9906       9917       9916      10026      10027      10038      10037  
      9906       9907       9918       9917      10027      10028      10039      10038  
      9907       9908       9919       9918      10028      10029      10040      10039  
      9908       9909       9920       9919      10029      10030      10041      10040  
      9909       9910       9921       9920      10030      10031      10042      10041  
      9910       9911       9922       9921      10031      10032      10043      10042  
      9923       9924       9935       9934      10044      10045      10056      10055  
      9924       9925       9936       9935      10045      10046      10057      10056  
      9925       9926       9937       9936      10046      10047      10058      10057  
      9926       9927       9938       9937      10047      10048      10059      10058  
      9927       9928       9939       9938      10048      10049      10060      10059  
      9928       9929       9940       9939      10049      10050      10061      10060  
      9929       9930       9941       9940      10050      10051      10062      10061  
      9930       9931       9942       9941      10051      10052      10063      10062  
      9931       9932       9943       9942      10052      10053      10064      10063  
      9932       9933       9944       9943      10053      10054      10065      10064  
      9934       9935       9946       9945      10055      10056      10067      10066  
      9935       9936       9947       9946      10056      10057      10068      10067  
      9936       9937       9948       9947      10057      10058      10069      10068  
      9937       9938       9949       9948      10058      10059      10070      10069  
      9938       9939       9950       9949      10059      10060      10071      10070  
      9939       9940       9951       9950      10060      10061      10072      10071  
      9940       9941       9952       9951      10061      10062      10073      10072  
      9941       9942       9953       9952      10062      10063      10074      10073  
      9942       9943       9954       9953      10063      10064      10075      10074  
      9943       9944       9955       9954      10064      10065      10076      10075  
      9945       9946       9957       9956      10066      10067      10078      10077  
      9946       9947       9958       9957      10067      10068      10079      10078  
      9947       9948       9959       9958      10068      10069      10080      10079  
      9948       9949       9960       9959      10069      10070      10081      10080  
      9949       9950       9961       9960      10070      10071      10082      10081  
      9950       9951       9962       9961      10071      10072      10083      10082  
      9951       9952       9963       9962      10072      10073      10084      10083  
      9952       9953       9964       9963      10073      10074      10085      10084  
      9953       9954       9965       9964      10074      10075      10086      10085  
      9954       9955       9966       9965      10075      10076      10087      10086  
      9956       9957       9968       9967      10077      10078      10089      10088  
      9957       9958       9969       9968      10078      10079      10090      10089  
      9958       9959       9970       9969      10079      10080      10091      10090  
      9959       9960       9971       9970      10080      10081      10092      10091  
      9960       9961       9972       9971      10081      10082      10093      10092  
      9961       9962       9973       9972      10082      10083      10094      10093  
      9962       9963       9974       9973      10083      10084      10095      10094  
      9963       9964       9975       9974      10084      10085      10096      10095  
      9964       9965       9976       9975      10085      10086      10097      10096  
      9965       9966       9977       9976      10086      10087      10098      10097  
      9967       9968       9979       9978      10088      10089      10100      10099  
      9968       9969       9980       9979      10089      10090      10101      10100  
      9969       9970       9981       9980      10090      10091      10102      10101  
      9970       9971       9982       9981      10091      10092      10103      10102  
      9971       9972       9983       9982      10092      10093      10104      10103  
      9972       9973       9984       9983      10093      10094      10105      10104  
      9973       9974       9985       9984      10094      10095      10106      10105  
      9974       9975       9986       9985      10095      10096      10107      10106  
      9975       9976       9987       9986      10096      10097      10108      10107  
      9976       9977       9988       9987      10097      10098      10109      10108  
      9978       9979       9990       9989      10099      10100      10111      10110  
      9979       9980       9991       9990      10100      10101      10112      10111  
      9980       9981       9992       9991      10101      10102      10113      10112  
      9981       9982       9993       9992      10102      10103      10114      10113  
      9982       9983       9994       9993      10103      10104      10115      10114  
      9983       9984       9995       9994      10104      10105      10116      10115  
      9984       9985       9996       9995      10105      10106      10117      10116  
      9985       9986       9997       9996      10106      10107      10118      10117  
      9986       9987       9998       9997      10107      10108      10119      10118  
      9987       9988       9999       9998      10108      10109      10120      10119  
      9989       9990      10001      10000      10110      10111      10122      10121  
      9990       9991      10002      10001      10111      10112      10123      10122  
      9991       9992      10003      10002      10112      10113      10124      10123  
      9992       9993      10004      10003      10113      10114      10125      10124  
      9993       9994      10005      10004      10114      10115      10126      10125  
      9994       9995      10006      10005      10115      10116      10127      10126  
      9995       9996      10007      10006      10116      10117      10128      10127  
      9996       9997      10008      10007      10117      10118      10129      10128  
      9997       9998      10009      10008      10118      10119      10130      10129  
      9998       9999      10010      10009      10119      10120      10131      10130  
     10000      10001      10012      10011      10121      10122      10133      10132  
     10001      10002      10013      10012      10122      10123      10134      10133  
     10002      10003      10014      10013      10123      10124      10135      10134  
     10003      10004      10015      10014      10124      10125      10136      10135  
     10004      10005      10016      10015      10125      10126      10137      10136  
     10005      10006      10017      10016      10126      10127      10138      10137  
     10006      10007      10018      10017      10127      10128      10139      10138  
     10007      10008      10019      10018      10128      10129      10140      10139  
     10008      10009      10020      10019      10129      10130      10141      10140  
     10009      10010      10021      10020      10130      10131      10142      10141  
     10011      10012      10023      10022      10132      10133      10144      10143  
     10012      10013      10024      10023      10133      10134      10145      10144  
     10013      10014      10025      10024      10134      10135      10146      10145  
     10014      10015      10026      10025      10135      10136      10147      10146  
     10015      10016      10027      10026      10136      10137      10148      10147  
     10016      10017      10028      10027      10137      10138      10149      10148  
     10017      10018      10029      10028      10138      10139      10150      10149  
     10018      10019      10030      10029      10139      10140      10151      10150  
     10019      10020      10031      10030      10140      10141      10152      10151  
     10020      10021      10032      10031      10141      10142      10153      10152  
     10022      10023      10034      10033      10143      10144      10155      10154  
     10023      10024      10035      10034      10144      10145      10156      10155  
     10024      10025      10036      10035      10145      10146      10157      10156  
     10025      10026      10037      10036      10146      10147      10158      10157  
     10026      10027      10038      10037      10147      10148      10159      10158  
     10027      10028      10039      10038      10148      10149      10160      10159  
     10028      10029      10040      10039      10149      10150      10161      10160  
     10029      10030      10041      10040      10150      10151      10162      10161  
     10030      10031      10042      10041      10151      10152      10163      10162  
     10031      10032      10043      10042      10152      10153      10164      10163  
     10044      10045      10056      10055      10165      10166      10177      10176  
     10045      10046      10057      10056      10166      10167      10178      10177  
     10046      10047      10058      10057      10167      10168      10179      10178  
     10047      10048      10059      10058      10168      10169      10180      10179  
     10048      10049      10060      10059      10169      10170      10181      10180  
     10049      10050      10061      10060      10170      10171      10182      10181  
     10050      10051      10062      10061      10171      10172      10183      10182  
     10051      10052      10063      10062      10172      10173      10184      10183  
     10052      10053      10064      10063      10173      10174      10185      10184  
     10053      10054      10065      10064      10174      10175      10186      10185  
     10055      10056      10067      10066      10176      10177      10188      10187  
     10056      10057      10068      10067      10177      10178      10189      10188  
     10057      10058      10069      10068      10178      10179      10190      10189  
     10058      10059      10070      10069      10179      10180      10191      10190  
     10059      10060      10071      10070      10180      10181      10192      10191  
     10060      10061      10072      10071      10181      10182      10193      10192  
     10061      10062      10073      10072      10182      10183      10194      10193  
     10062      10063      10074      10073      10183      10184      10195      10194  
     10063      10064      10075      10074      10184      10185      10196      10195  
     10064      10065      10076      10075      10185      10186      10197      10196  
     10066      10067      10078      10077      10187      10188      10199      10198  
     10067      10068      10079      10078      10188      10189      10200      10199  
     10068      10069      10080      10079      10189      10190      10201      10200  
     10069      10070      10081      10080      10190      10191      10202      10201  
     10070      10071      10082      10081      10191      10192      10203      10202  
     10071      10072      10083      10082      10192      10193      10204      10203  
     10072      10073      10084      10083      10193      10194      10205      10204  
     10073      10074      10085      10084      10194      10195      10206      10205  
     10074      10075      10086      10085      10195      10196      10207      10206  
     10075      10076      10087      10086      10196      10197      10208      10207  
     10077      10078      10089      10088      10198      10199      10210      10209  
     10078      10079      10090      10089      10199      10200      10211      10210  
     10079      10080      10091      10090      10200      10201      10212      10211  
     10080      10081      10092      10091      10201      10202      10213      10212  
     10081      10082      10093      10092      10202      10203      10214      10213  
     10082      10083      10094      10093      10203      10204      10215      10214  
     10083      10084      10095      10094      10204      10205      10216      10215  
     10084      10085      10096      10095      10205      10206      10217      10216  
     10085      10086      10097      10096      10206      10207      10218      10217  
     10086      10087      10098      10097      10207      10208      10219      10218  
     10088      10089      10100      10099      10209      10210      10221      10220  
     10089      10090      10101      10100      10210      10211      10222      10221  
     10090      10091      10102      10101      10211      10212      10223      10222  
     10091      10092      10103      10102      10212      10213      10224      10223  
     10092      10093      10104      10103      10213      10214      10225      10224  
     10093      10094      10105      10104      10214      10215      10226      10225  
     10094      10095      10106      10105      10215      10216      10227      10226  
     10095      10096      10107      10106      10216      10217      10228      10227  
     10096      10097      10108      10107      10217      10218      10229      10228  
     10097      10098      10109      10108      10218      10219      10230      10229  
     10099      10100      10111      10110      10220      10221      10232      10231  
     10100      10101      10112      10111      10221      10222      10233      10232  
     10101      10102      10113      10112      10222      10223      10234      10233  
     10102      10103      10114      10113      10223      10224      10235      10234  
     10103      10104      10115      10114      10224      10225      10236      10235  
     10104      10105      10116      10115      10225      10226      10237      10236  
     10105      10106      10117      10116      10226      10227      10238      10237  
     10106      10107      10118      10117      10227      10228      10239      10238  
     10107      10108      10119      10118      10228      10229      10240      10239  
     10108      10109      10120      10119      10229      10230      10241      10240  
     10110      10111      10122      10121      10231      10232      10243      10242  
     10111      10112      10123      10122      10232      10233      10244      10243  
     10112      10113      10124      10123      10233      10234      10245      10244  
     10113      10114      10125      10124      10234      10235      10246      10245  
     10114      10115      10126      10125      10235      10236      10247      10246  
     10115      10116      10127      10126      10236      10237      10248      10247  
     10116      10117      10128      10127      10237      10238      10249      10248  
     10117      10118      10129      10128      10238      10239      10250      10249  
     10118      10119      10130      10129      10239      10240      10251      10250  
     10119      10120      10131      10130      10240      10241      10252      10251  
     10121      10122      10133      10132      10242      10243      10254      10253  
     10122      10123      10134      10133      10243      10244      10255      10254  
     10123      10124      10135      10134      10244      10245      10256      10255  
     10124      10125      10136      10135      10245      10246      10257      10256  
     10125      10126      10137      10136      10246      10247      10258      10257  
     10126      10127      10138      10137      10247      10248      10259      10258  
     10127      10128      10139      10138      10248      10249      10260      10259  
     10128      10129      10140      10139      10249      10250      10261      10260  
     10129      10130      10141      10140      10250      10251      10262      10261  
     10130      10131      10142      10141      10251      10252      10263      10262  
     10132      10133      10144      10143      10253      10254      10265      10264  
     10133      10134      10145      10144      10254      10255      10266      10265  
     10134      10135      10146      10145      10255      10256      10267      10266  
     10135      10136      10147      10146      10256      10257      10268      10267  
     10136      10137      10148      10147      10257      10258      10269      10268  
     10137      10138      10149      10148      10258      10259      10270      10269  
     10138      10139      10150      10149      10259      10260      10271      10270  
     10139      10140      10151      10150      10260      10261      10272      10271  
     10140      10141      10152      10151      10261      10262      10273      10272  
     10141      10142      10153      10152      10262      10263      10274      10273  
     10143      10144      10155      10154      10264      10265      10276      10275  
     10144      10145      10156      10155      10265      10266      10277      10276  
     10145      10146      10157      10156      10266      10267      10278      10277  
     10146      10147      10158      10157      10267      10268      10279      10278  
     10147      10148      10159      10158      10268      10269      10280      10279  
     10148      10149      10160      10159      10269      10270      10281      10280  
     10149      10150      10161      10160      10270      10271      10282      10281  
     10150      10151      10162      10161      10271      10272      10283      10282  
     10151      10152      10163      10162      10272      10273      10284      10283  
     10152      10153      10164      10163      10273      10274      10285      10284  
     10165      10166      10177      10176      10286      10287      10298      10297  
     10166      10167      10178      10177      10287      10288      10299      10298  
     10167      10168      10179      10178      10288      10289      10300      10299  
     10168      10169      10180      10179      10289      10290      10301      10300  
     10169      10170      10181      10180      10290      10291      10302      10301  
     10170      10171      10182      10181      10291      10292      10303      10302  
     10171      10172      10183      10182      10292      10293      10304      10303  
     10172      10173      10184      10183      10293      10294      10305      10304  
     10173      10174      10185      10184      10294      10295      10306      10305  
     10174      10175      10186      10185      10295      10296      10307      10306  
     10176      10177      10188      10187      10297      10298      10309      10308  
     10177      10178      10189      10188      10298      10299      10310      10309  
     10178      10179      10190      10189      10299      10300      10311      10310  
     10179      10180      10191      10190      10300      10301      10312      10311  
     10180      10181      10192      10191      10301      10302      10313      10312  
     10181      10182      10193      10192      10302      10303      10314      10313  
     10182      10183      10194      10193      10303      10304      10315      10314  
     10183      10184      10195      10194      10304      10305      10316      10315  
     10184      10185      10196      10195      10305      10306      10317      10316  
     10185      10186      10197      10196      10306      10307      10318      10317  
     10187      10188      10199      10198      10308      10309      10320      10319  
     10188      10189      10200      10199      10309      10310      10321      10320  
     10189      10190      10201      10200      10310      10311      10322      10321  
     10190      10191      10202      10201      10311      10312      10323      10322  
     10191      10192      10203      10202      10312      10313      10324      10323  
     10192      10193      10204      10203      10313      10314      10325      10324  
     10193      10194      10205      10204      10314      10315      10326      10325  
     10194      10195      10206      10205      10315      10316      10327      10326  
     10195      10196      10207      10206      10316      10317      10328      10327  
     10196      10197      10208      10207      10317      10318      10329      10328  
     10198      10199      10210      10209      10319      10320      10331      10330  
     10199      10200      10211      10210      10320      10321      10332      10331  
     10200      10201      10212      10211      10321      10322      10333      10332  
     10201      10202      10213      10212      10322      10323      10334      10333  
     10202      10203      10214      10213      10323      10324      10335      10334  
     10203      10204      10215      10214      10324      10325      10336      10335  
     10204      10205      10216      10215      10325      10326      10337      10336  
     10205      10206      10217      10216      10326      10327      10338      10337  
     10206      10207      10218      10217      10327      10328      10339      10338  
     10207      10208      10219      10218      10328      10329      10340      10339  
     10209      10210      10221      10220      10330      10331      10342      10341  
     10210      10211      10222      10221      10331      10332      10343      10342  
     10211      10212      10223      10222      10332      10333      10344      10343  
     10212      10213      10224      10223      10333      10334      10345      10344  
     10213      10214      10225      10224      10334      10335      10346      10345  
     10214      10215      10226      10225      10335      10336      10347      10346  
     10215      10216      10227      10226      10336      10337      10348      10347  
     10216      10217      10228      10227      10337      10338      10349      10348  
     10217      10218      10229      10228      10338      10339      10350      10349  
     10218      10219      10230      10229      10339      10340      10351      10350  
     10220      10221      10232      10231      10341      10342      10353      10352  
     10221      10222      10233      10232      10342      10343      10354      10353  
     10222      10223      10234      10233      10343      10344      10355      10354  
     10223      10224      10235      10234      10344      10345      10356      10355  
     10224      10225      10236      10235      10345      10346      10357      10356  
     10225      10226      10237      10236      10346      10347      10358      10357  
     10226      10227      10238      10237      10347      10348      10359      10358  
     10227      10228      10239      10238      10348      10349      10360      10359  
     10228      10229      10240      10239      10349      10350      10361      10360  
     10229      10230      10241      10240      10350      10351      10362      10361  
     10231      10232      10243      10242      10352      10353      10364      10363  
     10232      10233      10244      10243      10353      10354      10365      10364  
     10233      10234      10245      10244      10354      10355      10366      10365  
     10234      10235      10246      10245      10355      10356      10367      10366  
     10235      10236      10247      10246      10356      10357      10368      10367  
     10236      10237      10248      10247      10357      10358      10369      10368  
     10237      10238      10249      10248      10358      10359      10370      10369  
     10238      10239      10250      10249      10359      10360      10371      10370  
     10239      10240      10251      10250      10360      10361      10372      10371  
     10240      10241      10252      10251      10361      10362      10373      10372  
     10242      10243      10254      10253      10363      10364      10375      10374  
     10243      10244      10255      10254      10364      10365      10376      10375  
     10244      10245      10256      10255      10365      10366      10377      10376  
     10245      10246      10257      10256      10366      10367      10378      10377  
     10246      10247      10258      10257      10367      10368      10379      10378  
     10247      10248      10259      10258      10368      10369      10380      10379  
     10248      10249      10260      10259      10369      10370      10381      10380  
     10249      10250      10261      10260      10370      10371      10382      10381  
     10250      10251      10262      10261      10371      10372      10383      10382  
     10251      10252      10263      10262      10372      10373      10384      10383  
     10253      10254      10265      10264      10374      10375      10386      10385  
     10254      10255      10266      10265      10375      10376      10387      10386  
     10255      10256      10267      10266      10376      10377      10388      10387  
     10256      10257      10268      10267      10377      10378      10389      10388  
     10257      10258      10269      10268      10378      10379      10390      10389  
     10258      10259      10270      10269      10379      10380      10391      10390  
     10259      10260      10271      10270      10380      10381      10392      10391  
     10260      10261      10272      10271      10381      10382      10393      10392  
     10261      10262      10273      10272      10382      10383      10394      10393  
     10262      10263      10274      10273      10383      10384      10395      10394  
     10264      10265      10276      10275      10385      10386      10397      10396  
     10265      10266      10277      10276      10386      10387      10398      10397  
     10266      10267      10278      10277      10387      10388      10399      10398  
     10267      10268      10279      10278      10388      10389      10400      10399  
     10268      10269      10280      10279      10389      10390      10401      10400  
     10269      10270      10281      10280      10390      10391      10402      10401  
     10270      10271      10282      10281      10391      10392      10403      10402  
     10271      10272      10283      10282      10392      10393      10404      10403  
     10272      10273      10284      10283      10393      10394      10405      10404  
     10273      10274      10285      10284      10394      10395      10406      10405  
     10286      10287      10298      10297      10407      10408      10419      10418  
     10287      10288      10299      10298      10408      10409      10420      10419  
     10288      10289      10300      10299      10409      10410      10421      10420  
     10289      10290      10301      10300      10410      10411      10422      10421  
     10290      10291      10302      10301      10411      10412      10423      10422  
     10291      10292      10303      10302      10412      10413      10424      10423  
     10292      10293      10304      10303      10413      10414      10425      10424  
     10293      10294      10305      10304      10414      10415      10426      10425  
     10294      10295      10306      10305      10415      10416      10427      10426  
     10295      10296      10307      10306      10416      10417      10428      10427  
     10297      10298      10309      10308      10418      10419      10430      10429  
     10298      10299      10310      10309      10419      10420      10431      10430  
     10299      10300      10311      10310      10420      10421      10432      10431  
     10300      10301      10312      10311      10421      10422      10433      10432  
     10301      10302      10313      10312      10422      10423      10434      10433  
     10302      10303      10314      10313      10423      10424      10435      10434  
     10303      10304      10315      10314      10424      10425      10436      10435  
     10304      10305      10316      10315      10425      10426      10437      10436  
     10305      10306      10317      10316      10426      10427      10438      10437  
     10306      10307      10318      10317      10427      10428      10439      10438  
     10308      10309      10320      10319      10429      10430      10441      10440  
     10309      10310      10321      10320      10430      10431      10442      10441  
     10310      10311      10322      10321      10431      10432      10443      10442  
     10311      10312      10323      10322      10432      10433      10444      10443  
     10312      10313      10324      10323      10433      10434      10445      10444  
     10313      10314      10325      10324      10434      10435      10446      10445  
     10314      10315      10326      10325      10435      10436      10447      10446  
     10315      10316      10327      10326      10436      10437      10448      10447  
     10316      10317      10328      10327      10437      10438      10449      10448  
     10317      10318      10329      10328      10438      10439      10450      10449  
     10319      10320      10331      10330      10440      10441      10452      10451  
     10320      10321      10332      10331      10441      10442      10453      10452  
     10321      10322      10333      10332      10442      10443      10454      10453  
     10322      10323      10334      10333      10443      10444      10455      10454  
     10323      10324      10335      10334      10444      10445      10456      10455  
     10324      10325      10336      10335      10445      10446      10457      10456  
     10325      10326      10337      10336      10446      10447      10458      10457  
     10326      10327      10338      10337      10447      10448      10459      10458  
     10327      10328      10339      10338      10448      10449      10460      10459  
     10328      10329      10340      10339      10449      10450      10461      10460  
     10330      10331      10342      10341      10451      10452      10463      10462  
     10331      10332      10343      10342      10452      10453      10464      10463  
     10332      10333      10344      10343      10453      10454      10465      10464  
     10333      10334      10345      10344      10454      10455      10466      10465  
     10334      10335      10346      10345      10455      10456      10467      10466  
     10335      10336      10347      10346      10456      10457      10468      10467  
     10336      10337      10348      10347      10457      10458      10469      10468  
     10337      10338      10349      10348      10458      10459      10470      10469  
     10338      10339      10350      10349      10459      10460      10471      10470  
     10339      10340      10351      10350      10460      10461      10472      10471  
     10341      10342      10353      10352      10462      10463      10474      10473  
     10342      10343      10354      10353      10463      10464      10475      10474  
     10343      10344      10355      10354      10464      10465      10476      10475  
     10344      10345      10356      10355      10465      10466      10477      10476  
     10345      10346      10357      10356      10466      10467      10478      10477  
     10346      10347      10358      10357      10467      10468      10479      10478  
     10347      10348      10359      10358      10468      10469      10480      10479  
     10348      10349      10360      10359      10469      10470      10481      10480  
     10349      10350      10361      10360      10470      10471      10482      10481  
     10350      10351      10362      10361      10471      10472      10483      10482  
     10352      10353      10364      10363      10473      10474      10485      10484  
     10353      10354      10365      10364      10474      10475      10486      10485  
     10354      10355      10366      10365      10475      10476      10487      10486  
     10355      10356      10367      10366      10476      10477      10488      10487  
     10356      10357      10368      10367      10477      10478      10489      10488  
     10357      10358      10369      10368      10478      10479      10490      10489  
     10358      10359      10370      10369      10479      10480      10491      10490  
     10359      10360      10371      10370      10480      10481      10492      10491  
     10360      10361      10372      10371      10481      10482      10493      10492  
     10361      10362      10373      10372      10482      10483      10494      10493  
     10363      10364      10375      10374      10484      10485      10496      10495  
     10364      10365      10376      10375      10485      10486      10497      10496  
     10365      10366      10377      10376      10486      10487      10498      10497  
     10366      10367      10378      10377      10487      10488      10499      10498  
     10367      10368      10379      10378      10488      10489      10500      10499  
     10368      10369      10380      10379      10489      10490      10501      10500  
     10369      10370      10381      10380      10490      10491      10502      10501  
     10370      10371      10382      10381      10491      10492      10503      10502  
     10371      10372      10383      10382      10492      10493      10504      10503  
     10372      10373      10384      10383      10493      10494      10505      10504  
     10374      10375      10386      10385      10495      10496      10507      10506  
     10375      10376      10387      10386      10496      10497      10508      10507  
     10376      10377      10388      10387      10497      10498      10509      10508  
     10377      10378      10389      10388      10498      10499      10510      10509  
     10378      10379      10390      10389      10499      10500      10511      10510  
     10379      10380      10391      10390      10500      10501      10512      10511  
     10380      10381      10392      10391      10501      10502      10513      10512  
     10381      10382      10393      10392      10502      10503      10514      10513  
     10382      10383      10394      10393      10503      10504      10515      10514  
     10383      10384      10395      10394      10504      10505      10516      10515  
     10385      10386      10397      10396      10506      10507      10518      10517  
     10386      10387      10398      10397      10507      10508      10519      10518  
     10387      10388      10399      10398      10508      10509      10520      10519  
     10388      10389      10400      10399      10509      10510      10521      10520  
     10389      10390      10401      10400      10510      10511      10522      10521  
     10390      10391      10402      10401      10511      10512      10523      10522  
     10391      10392      10403      10402      10512      10513      10524      10523  
     10392      10393      10404      10403      10513      10514      10525      10524  
     10393      10394      10405      10404      10514      10515      10526      10525  
     10394      10395      10406      10405      10515      10516      10527      10526  
     10407      10408      10419      10418      10528      10529      10540      10539  
     10408      10409      10420      10419      10529      10530      10541      10540  
     10409      10410      10421      10420      10530      10531      10542      10541  
     10410      10411      10422      10421      10531      10532      10543      10542  
     10411      10412      10423      10422      10532      10533      10544      10543  
     10412      10413      10424      10423      10533      10534      10545      10544  
     10413      10414      10425      10424      10534      10535      10546      10545  
     10414      10415      10426      10425      10535      10536      10547      10546  
     10415      10416      10427      10426      10536      10537      10548      10547  
     10416      10417      10428      10427      10537      10538      10549      10548  
     10418      10419      10430      10429      10539      10540      10551      10550  
     10419      10420      10431      10430      10540      10541      10552      10551  
     10420      10421      10432      10431      10541      10542      10553      10552  
     10421      10422      10433      10432      10542      10543      10554      10553  
     10422      10423      10434      10433      10543      10544      10555      10554  
     10423      10424      10435      10434      10544      10545      10556      10555  
     10424      10425      10436      10435      10545      10546      10557      10556  
     10425      10426      10437      10436      10546      10547      10558      10557  
     10426      10427      10438      10437      10547      10548      10559      10558  
     10427      10428      10439      10438      10548      10549      10560      10559  
     10429      10430      10441      10440      10550      10551      10562      10561  
     10430      10431      10442      10441      10551      10552      10563      10562  
     10431      10432      10443      10442      10552      10553      10564      10563  
     10432      10433      10444      10443      10553      10554      10565      10564  
     10433      10434      10445      10444      10554      10555      10566      10565  
     10434      10435      10446      10445      10555      10556      10567      10566  
     10435      10436      10447      10446      10556      10557      10568      10567  
     10436      10437      10448      10447      10557      10558      10569      10568  
     10437      10438      10449      10448      10558      10559      10570      10569  
     10438      10439      10450      10449      10559      10560      10571      10570  
     10440      10441      10452      10451      10561      10562      10573      10572  
     10441      10442      10453      10452      10562      10563      10574      10573  
     10442      10443      10454      10453      10563      10564      10575      10574  
     10443      10444      10455      10454      10564      10565      10576      10575  
     10444      10445      10456      10455      10565      10566      10577      10576  
     10445      10446      10457      10456      10566      10567      10578      10577  
     10446      10447      10458      10457      10567      10568      10579      10578  
     10447      10448      10459      10458      10568      10569      10580      10579  
     10448      10449      10460      10459      10569      10570      10581      10580  
     10449      10450      10461      10460      10570      10571      10582      10581  
     10451      10452      10463      10462      10572      10573      10584      10583  
     10452      10453      10464      10463      10573      10574      10585      10584  
     10453      10454      10465      10464      10574      10575      10586      10585  
     10454      10455      10466      10465      10575      10576      10587      10586  
     10455      10456      10467      10466      10576      10577      10588      10587  
     10456      10457      10468      10467      10577      10578      10589      10588  
     10457      10458      10469      10468      10578      10579      10590      10589  
     10458      10459      10470      10469      10579      10580      10591      10590  
     10459      10460      10471      10470      10580      10581      10592      10591  
     10460      10461      10472      10471      10581      10582      10593      10592  
     10462      10463      10474      10473      10583      10584      10595      10594  
     10463      10464      10475      10474      10584      10585      10596      10595  
     10464      10465      10476      10475      10585      10586      10597      10596  
     10465      10466      10477      10476      10586      10587      10598      10597  
     10466      10467      10478      10477      10587      10588      10599      10598  
     10467      10468      10479      10478      10588      10589      10600      10599  
     10468      10469      10480      10479      10589      10590      10601      10600  
     10469      10470      10481      10480      10590      10591      10602      10601  
     10470      10471      10482      10481      10591      10592      10603      10602  
     10471      10472      10483      10482      10592      10593      10604      10603  
     10473      10474      10485      10484      10594      10595      10606      10605  
     10474      10475      10486      10485      10595      10596      10607      10606  
     10475      10476      10487      10486      10596      10597      10608      10607  
     10476      10477      10488      10487      10597      10598      10609      10608  
     10477      10478      10489      10488      10598      10599      10610      10609  
     10478      10479      10490      10489      10599      10600      10611      10610  
     10479      10480      10491      10490      10600      10601      10612      10611  
     10480      10481      10492      10491      10601      10602      10613      10612  
     10481      10482      10493      10492      10602      10603      10614      10613  
     10482      10483      10494      10493      10603      10604      10615      10614  
     10484      10485      10496      10495      10605      10606      10617      10616  
     10485      10486      10497      10496      10606      10607      10618      10617  
     10486      10487      10498      10497      10607      10608      10619      10618  
     10487      10488      10499      10498      10608      10609      10620      10619  
     10488      10489      10500      10499      10609      10610      10621      10620  
     10489      10490      10501      10500      10610      10611      10622      10621  
     10490      10491      10502      10501      10611      10612      10623      10622  
     10491      10492      10503      10502      10612      10613      10624      10623  
     10492      10493      10504      10503      10613      10614      10625      10624  
     10493      10494      10505      10504      10614      10615      10626      10625  
     10495      10496      10507      10506      10616      10617      10628      10627  
     10496      10497      10508      10507      10617      10618      10629      10628  
     10497      10498      10509      10508      10618      10619      10630      10629  
     10498      10499      10510      10509      10619      10620      10631      10630  
     10499      10500      10511      10510      10620      10621      10632      10631  
     10500      10501      10512      10511      10621      10622      10633      10632  
     10501      10502      10513      10512      10622      10623      10634      10633  
     10502      10503      10514      10513      10623      10624      10635      10634  
     10503      10504      10515      10514      10624      10625      10636      10635  
     10504      10505      10516      10515      10625      10626      10637      10636  
     10506      10507      10518      10517      10627      10628      10639      10638  
     10507      10508      10519      10518      10628      10629      10640      10639  
     10508      10509      10520      10519      10629      10630      10641      10640  
     10509      10510      10521      10520      10630      10631      10642      10641  
     10510      10511      10522      10521      10631      10632      10643      10642  
     10511      10512      10523      10522      10632      10633      10644      10643  
     10512      10513      10524      10523      10633      10634      10645      10644  
     10513      10514      10525      10524      10634      10635      10646      10645  
     10514      10515      10526      10525      10635      10636      10647      10646  
     10515      10516      10527      10526      10636      10637      10648      10647  
     10528      10529      10540      10539      10649      10650      10661      10660  
     10529      10530      10541      10540      10650      10651      10662      10661  
     10530      10531      10542      10541      10651      10652      10663      10662  
     10531      10532      10543      10542      10652      10653      10664      10663  
     10532      10533      10544      10543      10653      10654      10665      10664  
     10533      10534      10545      10544      10654      10655      10666      10665  
     10534      10535      10546      10545      10655      10656      10667      10666  
     10535      10536      10547      10546      10656      10657      10668      10667  
     10536      10537      10548      10547      10657      10658      10669      10668  
     10537      10538      10549      10548      10658      10659      10670      10669  
     10539      10540      10551      10550      10660      10661      10672      10671  
     10540      10541      10552      10551      10661      10662      10673      10672  
     10541      10542      10553      10552      10662      10663      10674      10673  
     10542      10543      10554      10553      10663      10664      10675      10674  
     10543      10544      10555      10554      10664      10665      10676      10675  
     10544      10545      10556      10555      10665      10666      10677      10676  
     10545      10546      10557      10556      10666      10667      10678      10677  
     10546      10547      10558      10557      10667      10668      10679      10678  
     10547      10548      10559      10558      10668      10669      10680      10679  
     10548      10549      10560      10559      10669      10670      10681      10680  
     10550      10551      10562      10561      10671      10672      10683      10682  
     10551      10552      10563      10562      10672      10673      10684      10683  
     10552      10553      10564      10563      10673      10674      10685      10684  
     10553      10554      10565      10564      10674      10675      10686      10685  
     10554      10555      10566      10565      10675      10676      10687      10686  
     10555      10556      10567      10566      10676      10677      10688      10687  
     10556      10557      10568      10567      10677      10678      10689      10688  
     10557      10558      10569      10568      10678      10679      10690      10689  
     10558      10559      10570      10569      10679      10680      10691      10690  
     10559      10560      10571      10570      10680      10681      10692      10691  
     10561      10562      10573      10572      10682      10683      10694      10693  
     10562      10563      10574      10573      10683      10684      10695      10694  
     10563      10564      10575      10574      10684      10685      10696      10695  
     10564      10565      10576      10575      10685      10686      10697      10696  
     10565      10566      10577      10576      10686      10687      10698      10697  
     10566      10567      10578      10577      10687      10688      10699      10698  
     10567      10568      10579      10578      10688      10689      10700      10699  
     10568      10569      10580      10579      10689      10690      10701      10700  
     10569      10570      10581      10580      10690      10691      10702      10701  
     10570      10571      10582      10581      10691      10692      10703      10702  
     10572      10573      10584      10583      10693      10694      10705      10704  
     10573      10574      10585      10584      10694      10695      10706      10705  
     10574      10575      10586      10585      10695      10696      10707      10706  
     10575      10576      10587      10586      10696      10697      10708      10707  
     10576      10577      10588      10587      10697      10698      10709      10708  
     10577      10578      10589      10588      10698      10699      10710      10709  
     10578      10579      10590      10589      10699      10700      10711      10710  
     10579      10580      10591      10590      10700      10701      10712      10711  
     10580      10581      10592      10591      10701      10702      10713      10712  
     10581      10582      10593      10592      10702      10703      10714      10713  
     10583      10584      10595      10594      10704      10705      10716      10715  
     10584      10585      10596      10595      10705      10706      10717      10716  
     10585      10586      10597      10596      10706      10707      10718      10717  
     10586      10587      10598      10597      10707      10708      10719      10718  
     10587      10588      10599      10598      10708      10709      10720      10719  
     10588      10589      10600      10599      10709      10710      10721      10720  
     10589      10590      10601      10600      10710      10711      10722      10721  
     10590      10591      10602      10601      10711      10712      10723      10722  
     10591      10592      10603      10602      10712      10713      10724      10723  
     10592      10593      10604      10603      10713      10714      10725      10724  
     10594      10595      10606      10605      10715      10716      10727      10726  
     10595      10596      10607      10606      10716      10717      10728      10727  
     10596      10597      10608      10607      10717      10718      10729      10728  
     10597      10598      10609      10608      10718      10719      10730      10729  
     10598      10599      10610      10609      10719      10720      10731      10730  
     10599      10600      10611      10610      10720      10721      10732      10731  
     10600      10601      10612      10611      10721      10722      10733      10732  
     10601      10602      10613      10612      10722      10723      10734      10733  
     10602      10603      10614      10613      10723      10724      10735      10734  
     10603      10604      10615      10614      10724      10725      10736      10735  
     10605      10606      10617      10616      10726      10727      10738      10737  
     10606      10607      10618      10617      10727      10728      10739      10738  
     10607      10608      10619      10618      10728      10729      10740      10739  
     10608      10609      10620      10619      10729      10730      10741      10740  
     10609      10610      10621      10620      10730      10731      10742      10741  
     10610      10611      10622      10621      10731      10732      10743      10742  
     10611      10612      10623      10622      10732      10733      10744      10743  
     10612      10613      10624      10623      10733      10734      10745      10744  
     10613      10614      10625      10624      10734      10735      10746      10745  
     10614      10615      10626      10625      10735      10736      10747      10746  
     10616      10617      10628      10627      10737      10738      10749      10748  
     10617      10618      10629      10628      10738      10739      10750      10749  
     10618      10619      10630      10629      10739      10740      10751      10750  
     10619      10620      10631      10630      10740      10741      10752      10751  
     10620      10621      10632      10631      10741      10742      10753      10752  
     10621      10622      10633      10632      10742      10743      10754      10753  
     10622      10623      10634      10633      10743      10744      10755      10754  
     10623      10624      10635      10634      10744      10745      10756      10755  
     10624      10625      10636      10635      10745      10746      10757      10756  
     10625      10626      10637      10636      10746      10747      10758      10757  
     10627      10628      10639      10638      10748      10749      10760      10759  
     10628      10629      10640      10639      10749      10750      10761      10760  
     10629      10630      10641      10640      10750      10751      10762      10761  
     10630      10631      10642      10641      10751      10752      10763      10762  
     10631      10632      10643      10642      10752      10753      10764      10763  
     10632      10633      10644      10643      10753      10754      10765      10764  
     10633      10634      10645      10644      10754      10755      10766      10765  
     10634      10635      10646      10645      10755      10756      10767      10766  
     10635      10636      10647      10646      10756      10757      10768      10767  
     10636      10637      10648      10647      10757      10758      10769      10768  
     10649      10650      10661      10660      10770      10771      10782      10781  
     10650      10651      10662      10661      10771      10772      10783      10782  
     10651      10652      10663      10662      10772      10773      10784      10783  
     10652      10653      10664      10663      10773      10774      10785      10784  
     10653      10654      10665      10664      10774      10775      10786      10785  
     10654      10655      10666      10665      10775      10776      10787      10786  
     10655      10656      10667      10666      10776      10777      10788      10787  
     10656      10657      10668      10667      10777      10778      10789      10788  
     10657      10658      10669      10668      10778      10779      10790      10789  
     10658      10659      10670      10669      10779      10780      10791      10790  
     10660      10661      10672      10671      10781      10782      10793      10792  
     10661      10662      10673      10672      10782      10783      10794      10793  
     10662      10663      10674      10673      10783      10784      10795      10794  
     10663      10664      10675      10674      10784      10785      10796      10795  
     10664      10665      10676      10675      10785      10786      10797      10796  
     10665      10666      10677      10676      10786      10787      10798      10797  
     10666      10667      10678      10677      10787      10788      10799      10798  
     10667      10668      10679      10678      10788      10789      10800      10799  
     10668      10669      10680      10679      10789      10790      10801      10800  
     10669      10670      10681      10680      10790      10791      10802      10801  
     10671      10672      10683      10682      10792      10793      10804      10803  
     10672      10673      10684      10683      10793      10794      10805      10804  
     10673      10674      10685      10684      10794      10795      10806      10805  
     10674      10675      10686      10685      10795      10796      10807      10806  
     10675      10676      10687      10686      10796      10797      10808      10807  
     10676      10677      10688      10687      10797      10798      10809      10808  
     10677      10678      10689      10688      10798      10799      10810      10809  
     10678      10679      10690      10689      10799      10800      10811      10810  
     10679      10680      10691      10690      10800      10801      10812      10811  
     10680      10681      10692      10691      10801      10802      10813      10812  
     10682      10683      10694      10693      10803      10804      10815      10814  
     10683      10684      10695      10694      10804      10805      10816      10815  
     10684      10685      10696      10695      10805      10806      10817      10816  
     10685      10686      10697      10696      10806      10807      10818      10817  
     10686      10687      10698      10697      10807      10808      10819      10818  
     10687      10688      10699      10698      10808      10809      10820      10819  
     10688      10689      10700      10699      10809      10810      10821      10820  
     10689      10690      10701      10700      10810      10811      10822      10821  
     10690      10691      10702      10701      10811      10812      10823      10822  
     10691      10692      10703      10702      10812      10813      10824      10823  
     10693      10694      10705      10704      10814      10815      10826      10825  
     10694      10695      10706      10705      10815      10816      10827      10826  
     10695      10696      10707      10706      10816      10817      10828      10827  
     10696      10697      10708      10707      10817      10818      10829      10828  
     10697      10698      10709      10708      10818      10819      10830      10829  
     10698      10699      10710      10709      10819      10820      10831      10830  
     10699      10700      10711      10710      10820      10821      10832      10831  
     10700      10701      10712      10711      10821      10822      10833      10832  
     10701      10702      10713      10712      10822      10823      10834      10833  
     10702      10703      10714      10713      10823      10824      10835      10834  
     10704      10705      10716      10715      10825      10826      10837      10836  
     10705      10706      10717      10716      10826      10827      10838      10837  
     10706      10707      10718      10717      10827      10828      10839      10838  
     10707      10708      10719      10718      10828      10829      10840      10839  
     10708      10709      10720      10719      10829      10830      10841      10840  
     10709      10710      10721      10720      10830      10831      10842      10841  
     10710      10711      10722      10721      10831      10832      10843      10842  
     10711      10712      10723      10722      10832      10833      10844      10843  
     10712      10713      10724      10723      10833      10834      10845      10844  
     10713      10714      10725      10724      10834      10835      10846      10845  
     10715      10716      10727      10726      10836      10837      10848      10847  
     10716      10717      10728      10727      10837      10838      10849      10848  
     10717      10718      10729      10728      10838      10839      10850      10849  
     10718      10719      10730      10729      10839      10840      10851      10850  
     10719      10720      10731      10730      10840      10841      10852      10851  
     10720      10721      10732      10731      10841      10842      10853      10852  
     10721      10722      10733      10732      10842      10843      10854      10853  
     10722      10723      10734      10733      10843      10844      10855      10854  
     10723      10724      10735      10734      10844      10845      10856      10855  
     10724      10725      10736      10735      10845      10846      10857      10856  
     10726      10727      10738      10737      10847      10848      10859      10858  
     10727      10728      10739      10738      10848      10849      10860      10859  
     10728      10729      10740      10739      10849      10850      10861      10860  
     10729      10730      10741      10740      10850      10851      10862      10861  
     10730      10731      10742      10741      10851      10852      10863      10862  
     10731      10732      10743      10742      10852      10853      10864      10863  
     10732      10733      10744      10743      10853      10854      10865      10864  
     10733      10734      10745      10744      10854      10855      10866      10865  
     10734      10735      10746      10745      10855      10856      10867      10866  
     10735      10736      10747      10746      10856      10857      10868      10867  
     10737      10738      10749      10748      10858      10859      10870      10869  
     10738      10739      10750      10749      10859      10860      10871      10870  
     10739      10740      10751      10750      10860      10861      10872      10871  
     10740      10741      10752      10751      10861      10862      10873      10872  
     10741      10742      10753      10752      10862      10863      10874      10873  
     10742      10743      10754      10753      10863      10864      10875      10874  
     10743      10744      10755      10754      10864      10865      10876      10875  
     10744      10745      10756      10755      10865      10866      10877      10876  
     10745      10746      10757      10756      10866      10867      10878      10877  
     10746      10747      10758      10757      10867      10868      10879      10878  
     10748      10749      10760      10759      10869      10870      10881      10880  
     10749      10750      10761      10760      10870      10871      10882      10881  
     10750      10751      10762      10761      10871      10872      10883      10882  
     10751      10752      10763      10762      10872      10873      10884      10883  
     10752      10753      10764      10763      10873      10874      10885      10884  
     10753      10754      10765      10764      10874      10875      10886      10885  
     10754      10755      10766      10765      10875      10876      10887      10886  
     10755      10756      10767      10766      10876      10877      10888      10887  
     10756      10757      10768      10767      10877      10878      10889      10888  
     10757      10758      10769      10768      10878      10879      10890      10889  
     10770      10771      10782      10781      10891      10892      10903      10902  
     10771      10772      10783      10782      10892      10893      10904      10903  
     10772      10773      10784      10783      10893      10894      10905      10904  
     10773      10774      10785      10784      10894      10895      10906      10905  
     10774      10775      10786      10785      10895      10896      10907      10906  
     10775      10776      10787      10786      10896      10897      10908      10907  
     10776      10777      10788      10787      10897      10898      10909      10908  
     10777      10778      10789      10788      10898      10899      10910      10909  
     10778      10779      10790      10789      10899      10900      10911      10910  
     10779      10780      10791      10790      10900      10901      10912      10911  
     10781      10782      10793      10792      10902      10903      10914      10913  
     10782      10783      10794      10793      10903      10904      10915      10914  
     10783      10784      10795      10794      10904      10905      10916      10915  
     10784      10785      10796      10795      10905      10906      10917      10916  
     10785      10786      10797      10796      10906      10907      10918      10917  
     10786      10787      10798      10797      10907      10908      10919      10918  
     10787      10788      10799      10798      10908      10909      10920      10919  
     10788      10789      10800      10799      10909      10910      10921      10920  
     10789      10790      10801      10800      10910      10911      10922      10921  
     10790      10791      10802      10801      10911      10912      10923      10922  
     10792      10793      10804      10803      10913      10914      10925      10924  
     10793      10794      10805      10804      10914      10915      10926      10925  
     10794      10795      10806      10805      10915      10916      10927      10926  
     10795      10796      10807      10806      10916      10917      10928      10927  
     10796      10797      10808      10807      10917      10918      10929      10928  
     10797      10798      10809      10808      10918      10919      10930      10929  
     10798      10799      10810      10809      10919      10920      10931      10930  
     10799      10800      10811      10810      10920      10921      10932      10931  
     10800      10801      10812      10811      10921      10922      10933      10932  
     10801      10802      10813      10812      10922      10923      10934      10933  
     10803      10804      10815      10814      10924      10925      10936      10935  
     10804      10805      10816      10815      10925      10926      10937      10936  
     10805      10806      10817      10816      10926      10927      10938      10937  
     10806      10807      10818      10817      10927      10928      10939      10938  
     10807      10808      10819      10818      10928      10929      10940      10939  
     10808      10809      10820      10819      10929      10930      10941      10940  
     10809      10810      10821      10820      10930      10931      10942      10941  
     10810      10811      10822      10821      10931      10932      10943      10942  
     10811      10812      10823      10822      10932      10933      10944      10943  
     10812      10813      10824      10823      10933      10934      10945      10944  
     10814      10815      10826      10825      10935      10936      10947      10946  
     10815      10816      10827      10826      10936      10937      10948      10947  
     10816      10817      10828      10827      10937      10938      10949      10948  
     10817      10818      10829      10828      10938      10939      10950      10949  
     10818      10819      10830      10829      10939      10940      10951      10950  
     10819      10820      10831      10830      10940      10941      10952      10951  
     10820      10821      10832      10831      10941      10942      10953      10952  
     10821      10822      10833      10832      10942      10943      10954      10953  
     10822      10823      10834      10833      10943      10944      10955      10954  
     10823      10824      10835      10834      10944      10945      10956      10955  
     10825      10826      10837      10836      10946      10947      10958      10957  
     10826      10827      10838      10837      10947      10948      10959      10958  
     10827      10828      10839      10838      10948      10949      10960      10959  
     10828      10829      10840      10839      10949      10950      10961      10960  
     10829      10830      10841      10840      10950      10951      10962      10961  
     10830      10831      10842      10841      10951      10952      10963      10962  
     10831      10832      10843      10842      10952      10953      10964      10963  
     10832      10833      10844      10843      10953      10954      10965      10964  
     10833      10834      10845      10844      10954      10955      10966      10965  
     10834      10835      10846      10845      10955      10956      10967      10966  
     10836      10837      10848      10847      10957      10958      10969      10968  
     10837      10838      10849      10848      10958      10959      10970      10969  
     10838      10839      10850      10849      10959      10960      10971      10970  
     10839      10840      10851      10850      10960      10961      10972      10971  
     10840      10841      10852      10851      10961      10962      10973      10972  
     10841      10842      10853      10852      10962      10963      10974      10973  
     10842      10843      10854      10853      10963      10964      10975      10974  
     10843      10844      10855      10854      10964      10965      10976      10975  
     10844      10845      10856      10855      10965      10966      10977      10976  
     10845      10846      10857      10856      10966      10967      10978      10977  
     10847      10848      10859      10858      10968      10969      10980      10979  
     10848      10849      10860      10859      10969      10970      10981      10980  
     10849      10850      10861      10860      10970      10971      10982      10981  
     10850      10851      10862      10861      10971      10972      10983      10982  
     10851      10852      10863      10862      10972      10973      10984      10983  
     10852      10853      10864      10863      10973      10974      10985      10984  
     10853      10854      10865      10864      10974      10975      10986      10985  
     10854      10855      10866      10865      10975      10976      10987      10986  
     10855      10856      10867      10866      10976      10977      10988      10987  
     10856      10857      10868      10867      10977      10978      10989      10988  
     10858      10859      10870      10869      10979      10980      10991      10990  
     10859      10860      10871      10870      10980      10981      10992      10991  
     10860      10861      10872      10871      10981      10982      10993      10992  
     10861      10862      10873      10872      10982      10983      10994      10993  
     10862      10863      10874      10873      10983      10984      10995      10994  
     10863      10864      10875      10874      10984      10985      10996      10995  
     10864      10865      10876      10875      10985      10986      10997      10996  
     10865      10866      10877      10876      10986      10987      10998      10997  
     10866      10867      10878      10877      10987      10988      10999      10998  
     10867      10868      10879      10878      10988      10989      11000      10999  
     10869      10870      10881      10880      10990      10991      11002      11001  
     10870      10871      10882      10881      10991      10992      11003      11002  
     10871      10872      10883      10882      10992      10993      11004      11003  
     10872      10873      10884      10883      10993      10994      11005      11004  
     10873      10874      10885      10884      10994      10995      11006      11005  
     10874      10875      10886      10885      10995      10996      11007      11006  
     10875      10876      10887      10886      10996      10997      11008      11007  
     10876      10877      10888      10887      10997      10998      11009      11008  
     10877      10878      10889      10888      10998      10999      11010      11009  
     10878      10879      10890      10889      10999      11000      11011      11010  
     10891      10892      10903      10902      11012      11013      11024      11023  
     10892      10893      10904      10903      11013      11014      11025      11024  
     10893      10894      10905      10904      11014      11015      11026      11025  
     10894      10895      10906      10905      11015      11016      11027      11026  
     10895      10896      10907      10906      11016      11017      11028      11027  
     10896      10897      10908      10907      11017      11018      11029      11028  
     10897      10898      10909      10908      11018      11019      11030      11029  
     10898      10899      10910      10909      11019      11020      11031      11030  
     10899      10900      10911      10910      11020      11021      11032      11031  
     10900      10901      10912      10911      11021      11022      11033      11032  
     10902      10903      10914      10913      11023      11024      11035      11034  
     10903      10904      10915      10914      11024      11025      11036      11035  
     10904      10905      10916      10915      11025      11026      11037      11036  
     10905      10906      10917      10916      11026      11027      11038      11037  
     10906      10907      10918      10917      11027      11028      11039      11038  
     10907      10908      10919      10918      11028      11029      11040      11039  
     10908      10909      10920      10919      11029      11030      11041      11040  
     10909      10910      10921      10920      11030      11031      11042      11041  
     10910      10911      10922      10921      11031      11032      11043      11042  
     10911      10912      10923      10922      11032      11033      11044      11043  
     10913      10914      10925      10924      11034      11035      11046      11045  
     10914      10915      10926      10925      11035      11036      11047      11046  
     10915      10916      10927      10926      11036      11037      11048      11047  
     10916      10917      10928      10927      11037      11038      11049      11048  
     10917      10918      10929      10928      11038      11039      11050      11049  
     10918      10919      10930      10929      11039      11040      11051      11050  
     10919      10920      10931      10930      11040      11041      11052      11051  
     10920      10921      10932      10931      11041      11042      11053      11052  
     10921      10922      10933      10932      11042      11043      11054      11053  
     10922      10923      10934      10933      11043      11044      11055      11054  
     10924      10925      10936      10935      11045      11046      11057      11056  
     10925      10926      10937      10936      11046      11047      11058      11057  
     10926      10927      10938      10937      11047      11048      11059      11058  
     10927      10928      10939      10938      11048      11049      11060      11059  
     10928      10929      10940      10939      11049      11050      11061      11060  
     10929      10930      10941      10940      11050      11051      11062      11061  
     10930      10931      10942      10941      11051      11052      11063      11062  
     10931      10932      10943      10942      11052      11053      11064      11063  
     10932      10933      10944      10943      11053      11054      11065      11064  
     10933      10934      10945      10944      11054      11055      11066      11065  
     10935      10936      10947      10946      11056      11057      11068      11067  
     10936      10937      10948      10947      11057      11058      11069      11068  
     10937      10938      10949      10948      11058      11059      11070      11069  
     10938      10939      10950      10949      11059      11060      11071      11070  
     10939      10940      10951      10950      11060      11061      11072      11071  
     10940      10941      10952      10951      11061      11062      11073      11072  
     10941      10942      10953      10952      11062      11063      11074      11073  
     10942      10943      10954      10953      11063      11064      11075      11074  
     10943      10944      10955      10954      11064      11065      11076      11075  
     10944      10945      10956      10955      11065      11066      11077      11076  
     10946      10947      10958      10957      11067      11068      11079      11078  
     10947      10948      10959      10958      11068      11069      11080      11079  
     10948      10949      10960      10959      11069      11070      11081      11080  
     10949      10950      10961      10960      11070      11071      11082      11081  
     10950      10951      10962      10961      11071      11072      11083      11082  
     10951      10952      10963      10962      11072      11073      11084      11083  
     10952      10953      10964      10963      11073      11074      11085      11084  
     10953      10954      10965      10964      11074      11075      11086      11085  
     10954      10955      10966      10965      11075      11076      11087      11086  
     10955      10956      10967      10966      11076      11077      11088      11087  
     10957      10958      10969      10968      11078      11079      11090      11089  
     10958      10959      10970      10969      11079      11080      11091      11090  
     10959      10960      10971      10970      11080      11081      11092      11091  
     10960      10961      10972      10971      11081      11082      11093      11092  
     10961      10962      10973      10972      11082      11083      11094      11093  
     10962      10963      10974      10973      11083      11084      11095      11094  
     10963      10964      10975      10974      11084      11085      11096      11095  
     10964      10965      10976      10975      11085      11086      11097      11096  
     10965      10966      10977      10976      11086      11087      11098      11097  
     10966      10967      10978      10977      11087      11088      11099      11098  
     10968      10969      10980      10979      11089      11090      11101      11100  
     10969      10970      10981      10980      11090      11091      11102      11101  
     10970      10971      10982      10981      11091      11092      11103      11102  
     10971      10972      10983      10982      11092      11093      11104      11103  
     10972      10973      10984      10983      11093      11094      11105      11104  
     10973      10974      10985      10984      11094      11095      11106      11105  
     10974      10975      10986      10985      11095      11096      11107      11106  
     10975      10976      10987      10986      11096      11097      11108      11107  
     10976      10977      10988      10987      11097      11098      11109      11108  
     10977      10978      10989      10988      11098      11099      11110      11109  
     10979      10980      10991      10990      11100      11101      11112      11111  
     10980      10981      10992      10991      11101      11102      11113      11112  
     10981      10982      10993      10992      11102      11103      11114      11113  
     10982      10983      10994      10993      11103      11104      11115      11114  
     10983      10984      10995      10994      11104      11105      11116      11115  
     10984      10985      10996      10995      11105      11106      11117      11116  
     10985      10986      10997      10996      11106      11107      11118      11117  
     10986      10987      10998      10997      11107      11108      11119      11118  
     10987      10988      10999      10998      11108      11109      11120      11119  
     10988      10989      11000      10999      11109      11110      11121      11120  
     10990      10991      11002      11001      11111      11112      11123      11122  
     10991      10992      11003      11002      11112      11113      11124      11123  
     10992      10993      11004      11003      11113      11114      11125      11124  
     10993      10994      11005      11004      11114      11115      11126      11125  
     10994      10995      11006      11005      11115      11116      11127      11126  
     10995      10996      11007      11006      11116      11117      11128      11127  
     10996      10997      11008      11007      11117      11118      11129      11128  
     10997      10998      11009      11008      11118      11119      11130      11129  
     10998      10999      11010      11009      11119      11120      11131      11130  
     10999      11000      11011      11010      11120      11121      11132      11131  
     11012      11013      11024      11023      11133      11134      11145      11144  
     11013      11014      11025      11024      11134      11135      11146      11145  
     11014      11015      11026      11025      11135      11136      11147      11146  
     11015      11016      11027      11026      11136      11137      11148      11147  
     11016      11017      11028      11027      11137      11138      11149      11148  
     11017      11018      11029      11028      11138      11139      11150      11149  
     11018      11019      11030      11029      11139      11140      11151      11150  
     11019      11020      11031      11030      11140      11141      11152      11151  
     11020      11021      11032      11031      11141      11142      11153      11152  
     11021      11022      11033      11032      11142      11143      11154      11153  
     11023      11024      11035      11034      11144      11145      11156      11155  
     11024      11025      11036      11035      11145      11146      11157      11156  
     11025      11026      11037      11036      11146      11147      11158      11157  
     11026      11027      11038      11037      11147      11148      11159      11158  
     11027      11028      11039      11038      11148      11149      11160      11159  
     11028      11029      11040      11039      11149      11150      11161      11160  
     11029      11030      11041      11040      11150      11151      11162      11161  
     11030      11031      11042      11041      11151      11152      11163      11162  
     11031      11032      11043      11042      11152      11153      11164      11163  
     11032      11033      11044      11043      11153      11154      11165      11164  
     11034      11035      11046      11045      11155      11156      11167      11166  
     11035      11036      11047      11046      11156      11157      11168      11167  
     11036      11037      11048      11047      11157      11158      11169      11168  
     11037      11038      11049      11048      11158      11159      11170      11169  
     11038      11039      11050      11049      11159      11160      11171      11170  
     11039      11040      11051      11050      11160      11161      11172      11171  
     11040      11041      11052      11051      11161      11162      11173      11172  
     11041      11042      11053      11052      11162      11163      11174      11173  
     11042      11043      11054      11053      11163      11164      11175      11174  
     11043      11044      11055      11054      11164      11165      11176      11175  
     11045      11046      11057      11056      11166      11167      11178      11177  
     11046      11047      11058      11057      11167      11168      11179      11178  
     11047      11048      11059      11058      11168      11169      11180      11179  
     11048      11049      11060      11059      11169      11170      11181      11180  
     11049      11050      11061      11060      11170      11171      11182      11181  
     11050      11051      11062      11061      11171      11172      11183      11182  
     11051      11052      11063      11062      11172      11173      11184      11183  
     11052      11053      11064      11063      11173      11174      11185      11184  
     11053      11054      11065      11064      11174      11175      11186      11185  
     11054      11055      11066      11065      11175      11176      11187      11186  
     11056      11057      11068      11067      11177      11178      11189      11188  
     11057      11058      11069      11068      11178      11179      11190      11189  
     11058      11059      11070      11069      11179      11180      11191      11190  
     11059      11060      11071      11070      11180      11181      11192      11191  
     11060      11061      11072      11071      11181      11182      11193      11192  
     11061      11062      11073      11072      11182      11183      11194      11193  
     11062      11063      11074      11073      11183      11184      11195      11194  
     11063      11064      11075      11074      11184      11185      11196      11195  
     11064      11065      11076      11075      11185      11186      11197      11196  
     11065      11066      11077      11076      11186      11187      11198      11197  
     11067      11068      11079      11078      11188      11189      11200      11199  
     11068      11069      11080      11079      11189      11190      11201      11200  
     11069      11070      11081      11080      11190      11191      11202      11201  
     11070      11071      11082      11081      11191      11192      11203      11202  
     11071      11072      11083      11082      11192      11193      11204      11203  
     11072      11073      11084      11083      11193      11194      11205      11204  
     11073      11074      11085      11084      11194      11195      11206      11205  
     11074      11075      11086      11085      11195      11196      11207      11206  
     11075      11076      11087      11086      11196      11197      11208      11207  
     11076      11077      11088      11087      11197      11198      11209      11208  
     11078      11079      11090      11089      11199      11200      11211      11210  
     11079      11080      11091      11090      11200      11201      11212      11211  
     11080      11081      11092      11091      11201      11202      11213      11212  
     11081      11082      11093      11092      11202      11203      11214      11213  
     11082      11083      11094      11093      11203      11204      11215      11214  
     11083      11084      11095      11094      11204      11205      11216      11215  
     11084      11085      11096      11095      11205      11206      11217      11216  
     11085      11086      11097      11096      11206      11207      11218      11217  
     11086      11087      11098      11097      11207      11208      11219      11218  
     11087      11088      11099      11098      11208      11209      11220      11219  
     11089      11090      11101      11100      11210      11211      11222      11221  
     11090      11091      11102      11101      11211      11212      11223      11222  
     11091      11092      11103      11102      11212      11213      11224      11223  
     11092      11093      11104      11103      11213      11214      11225      11224  
     11093      11094      11105      11104      11214      11215      11226      11225  
     11094      11095      11106      11105      11215      11216      11227      11226  
     11095      11096      11107      11106      11216      11217      11228      11227  
     11096      11097      11108      11107      11217      11218      11229      11228  
     11097      11098      11109      11108      11218      11219      11230      11229  
     11098      11099      11110      11109      11219      11220      11231      11230  
     11100      11101      11112      11111      11221      11222      11233      11232  
     11101      11102      11113      11112      11222      11223      11234      11233  
     11102      11103      11114      11113      11223      11224      11235      11234  
     11103      11104      11115      11114      11224      11225      11236      11235  
     11104      11105      11116      11115      11225      11226      11237      11236  
     11105      11106      11117      11116      11226      11227      11238      11237  
     11106      11107      11118      11117      11227      11228      11239      11238  
     11107      11108      11119      11118      11228      11229      11240      11239  
     11108      11109      11120      11119      11229      11230      11241      11240  
     11109      11110      11121      11120      11230      11231      11242      11241  
     11111      11112      11123      11122      11232      11233      11244      11243  
     11112      11113      11124      11123      11233      11234      11245      11244  
     11113      11114      11125      11124      11234      11235      11246      11245  
     11114      11115      11126      11125      11235      11236      11247      11246  
     11115      11116      11127      11126      11236      11237      11248      11247  
     11116      11117      11128      11127      11237      11238      11249      11248  
     11117      11118      11129      11128      11238      11239      11250      11249  
     11118      11119      11130      11129      11239      11240      11251      11250  
     11119      11120      11131      11130      11240      11241      11252      11251  
     11120      11121      11132      11131      11241      11242      11253      11252  
     11133      11134      11145      11144      11254      11255      11266      11265  
     11134      11135      11146      11145      11255      11256      11267      11266  
     11135      11136      11147      11146      11256      11257      11268      11267  
     11136      11137      11148      11147      11257      11258      11269      11268  
     11137      11138      11149      11148      11258      11259      11270      11269  
     11138      11139      11150      11149      11259      11260      11271      11270  
     11139      11140      11151      11150      11260      11261      11272      11271  
     11140      11141      11152      11151      11261      11262      11273      11272  
     11141      11142      11153      11152      11262      11263      11274      11273  
     11142      11143      11154      11153      11263      11264      11275      11274  
     11144      11145      11156      11155      11265      11266      11277      11276  
     11145      11146      11157      11156      11266      11267      11278      11277  
     11146      11147      11158      11157      11267      11268      11279      11278  
     11147      11148      11159      11158      11268      11269      11280      11279  
     11148      11149      11160      11159      11269      11270      11281      11280  
     11149      11150      11161      11160      11270      11271      11282      11281  
     11150      11151      11162      11161      11271      11272      11283      11282  
     11151      11152      11163      11162      11272      11273      11284      11283  
     11152      11153      11164      11163      11273      11274      11285      11284  
     11153      11154      11165      11164      11274      11275      11286      11285  
     11155      11156      11167      11166      11276      11277      11288      11287  
     11156      11157      11168      11167      11277      11278      11289      11288  
     11157      11158      11169      11168      11278      11279      11290      11289  
     11158      11159      11170      11169      11279      11280      11291      11290  
     11159      11160      11171      11170      11280      11281      11292      11291  
     11160      11161      11172      11171      11281      11282      11293      11292  
     11161      11162      11173      11172      11282      11283      11294      11293  
     11162      11163      11174      11173      11283      11284      11295      11294  
     11163      11164      11175      11174      11284      11285      11296      11295  
     11164      11165      11176      11175      11285      11286      11297      11296  
     11166      11167      11178      11177      11287      11288      11299      11298  
     11167      11168      11179      11178      11288      11289      11300      11299  
     11168      11169      11180      11179      11289      11290      11301      11300  
     11169      11170      11181      11180      11290      11291      11302      11301  
     11170      11171      11182      11181      11291      11292      11303      11302  
     11171      11172      11183      11182      11292      11293      11304      11303  
     11172      11173      11184      11183      11293      11294      11305      11304  
     11173      11174      11185      11184      11294      11295      11306      11305  
     11174      11175      11186      11185      11295      11296      11307      11306  
     11175      11176      11187      11186      11296      11297      11308      11307  
     11177      11178      11189      11188      11298      11299      11310      11309  
     11178      11179      11190      11189      11299      11300      11311      11310  
     11179      11180      11191      11190      11300      11301      11312      11311  
     11180      11181      11192      11191      11301      11302      11313      11312  
     11181      11182      11193      11192      11302      11303      11314      11313  
     11182      11183      11194      11193      11303      11304      11315      11314  
     11183      11184      11195      11194      11304      11305      11316      11315  
     11184      11185      11196      11195      11305      11306      11317      11316  
     11185      11186      11197      11196      11306      11307      11318      11317  
     11186      11187      11198      11197      11307      11308      11319      11318  
     11188      11189      11200      11199      11309      11310      11321      11320  
     11189      11190      11201      11200      11310      11311      11322      11321  
     11190      11191      11202      11201      11311      11312      11323      11322  
     11191      11192      11203      11202      11312      11313      11324      11323  
     11192      11193      11204      11203      11313      11314      11325      11324  
     11193      11194      11205      11204      11314      11315      11326      11325  
     11194      11195      11206      11205      11315      11316      11327      11326  
     11195      11196      11207      11206      11316      11317      11328      11327  
     11196      11197      11208      11207      11317      11318      11329      11328  
     11197      11198      11209      11208      11318      11319      11330      11329  
     11199      11200      11211      11210      11320      11321      11332      11331  
     11200      11201      11212      11211      11321      11322      11333      11332  
     11201      11202      11213      11212      11322      11323      11334      11333  
     11202      11203      11214      11213      11323      11324      11335      11334  
     11203      11204      11215      11214      11324      11325      11336      11335  
     11204      11205      11216      11215      11325      11326      11337      11336  
     11205      11206      11217      11216      11326      11327      11338      11337  
     11206      11207      11218      11217      11327      11328      11339      11338  
     11207      11208      11219      11218      11328      11329      11340      11339  
     11208      11209      11220      11219      11329      11330      11341      11340  
     11210      11211      11222      11221      11331      11332      11343      11342  
     11211      11212      11223      11222      11332      11333      11344      11343  
     11212      11213      11224      11223      11333      11334      11345      11344  
     11213      11214      11225      11224      11334      11335      11346      11345  
     11214      11215      11226      11225      11335      11336      11347      11346  
     11215      11216      11227      11226      11336      11337      11348      11347  
     11216      11217      11228      11227      11337      11338      11349      11348  
     11217      11218      11229      11228      11338      11339      11350      11349  
     11218      11219      11230      11229      11339      11340      11351      11350  
     11219      11220      11231      11230      11340      11341      11352      11351  
     11221      11222      11233      11232      11342      11343      11354      11353  
     11222      11223      11234      11233      11343      11344      11355      11354  
     11223      11224      11235      11234      11344      11345      11356      11355  
     11224      11225      11236      11235      11345      11346      11357      11356  
     11225      11226      11237      11236      11346      11347      11358      11357  
     11226      11227      11238      11237      11347      11348      11359      11358  
     11227      11228      11239      11238      11348      11349      11360      11359  
     11228      11229      11240      11239      11349      11350      11361      11360  
     11229      11230      11241      11240      11350      11351      11362      11361  
     11230      11231      11242      11241      11351      11352      11363      11362  
     11232      11233      11244      11243      11353      11354      11365      11364  
     11233      11234      11245      11244      11354      11355      11366      11365  
     11234      11235      11246      11245      11355      11356      11367      11366  
     11235      11236      11247      11246      11356      11357      11368      11367  
     11236      11237      11248      11247      11357      11358      11369      11368  
     11237      11238      11249      11248      11358      11359      11370      11369  
     11238      11239      11250      11249      11359      11360      11371      11370  
     11239      11240      11251      11250      11360      11361      11372      11371  
     11240      11241      11252      11251      11361      11362      11373      11372  
     11241      11242      11253      11252      11362      11363      11374      11373  
     11254      11255      11266      11265      11375      11376      11387      11386  
     11255      11256      11267      11266      11376      11377      11388      11387  
     11256      11257      11268      11267      11377      11378      11389      11388  
     11257      11258      11269      11268      11378      11379      11390      11389  
     11258      11259      11270      11269      11379      11380      11391      11390  
     11259      11260      11271      11270      11380      11381      11392      11391  
     11260      11261      11272      11271      11381      11382      11393      11392  
     11261      11262      11273      11272      11382      11383      11394      11393  
     11262      11263      11274      11273      11383      11384      11395      11394  
     11263      11264      11275      11274      11384      11385      11396      11395  
     11265      11266      11277      11276      11386      11387      11398      11397  
     11266      11267      11278      11277      11387      11388      11399      11398  
     11267      11268      11279      11278      11388      11389      11400      11399  
     11268      11269      11280      11279      11389      11390      11401      11400  
     11269      11270      11281      11280      11390      11391      11402      11401  
     11270      11271      11282      11281      11391      11392      11403      11402  
     11271      11272      11283      11282      11392      11393      11404      11403  
     11272      11273      11284      11283      11393      11394      11405      11404  
     11273      11274      11285      11284      11394      11395      11406      11405  
     11274      11275      11286      11285      11395      11396      11407      11406  
     11276      11277      11288      11287      11397      11398      11409      11408  
     11277      11278      11289      11288      11398      11399      11410      11409  
     11278      11279      11290      11289      11399      11400      11411      11410  
     11279      11280      11291      11290      11400      11401      11412      11411  
     11280      11281      11292      11291      11401      11402      11413      11412  
     11281      11282      11293      11292      11402      11403      11414      11413  
     11282      11283      11294      11293      11403      11404      11415      11414  
     11283      11284      11295      11294      11404      11405      11416      11415  
     11284      11285      11296      11295      11405      11406      11417      11416  
     11285      11286      11297      11296      11406      11407      11418      11417  
     11287      11288      11299      11298      11408      11409      11420      11419  
     11288      11289      11300      11299      11409      11410      11421      11420  
     11289      11290      11301      11300      11410      11411      11422      11421  
     11290      11291      11302      11301      11411      11412      11423      11422  
     11291      11292      11303      11302      11412      11413      11424      11423  
     11292      11293      11304      11303      11413      11414      11425      11424  
     11293      11294      11305      11304      11414      11415      11426      11425  
     11294      11295      11306      11305      11415      11416      11427      11426  
     11295      11296      11307      11306      11416      11417      11428      11427  
     11296      11297      11308      11307      11417      11418      11429      11428  
     11298      11299      11310      11309      11419      11420      11431      11430  
     11299      11300      11311      11310      11420      11421      11432      11431  
     11300      11301      11312      11311      11421      11422      11433      11432  
     11301      11302      11313      11312      11422      11423      11434      11433  
     11302      11303      11314      11313      11423      11424      11435      11434  
     11303      11304      11315      11314      11424      11425      11436      11435  
     11304      11305      11316      11315      11425      11426      11437      11436  
     11305      11306      11317      11316      11426      11427      11438      11437  
     11306      11307      11318      11317      11427      11428      11439      11438  
     11307      11308      11319      11318      11428      11429      11440      11439  
     11309      11310      11321      11320      11430      11431      11442      11441  
     11310      11311      11322      11321      11431      11432      11443      11442  
     11311      11312      11323      11322      11432      11433      11444      11443  
     11312      11313      11324      11323      11433      11434      11445      11444  
     11313      11314      11325      11324      11434      11435      11446      11445  
     11314      11315      11326      11325      11435      11436      11447      11446  
     11315      11316      11327      11326      11436      11437      11448      11447  
     11316      11317      11328      11327      11437      11438      11449      11448  
     11317      11318      11329      11328      11438      11439      11450      11449  
     11318      11319      11330      11329      11439      11440      11451      11450  
     11320      11321      11332      11331      11441      11442      11453      11452  
     11321      11322      11333      11332      11442      11443      11454      11453  
     11322      11323      11334      11333      11443      11444      11455      11454  
     11323      11324      11335      11334      11444      11445      11456      11455  
     11324      11325      11336      11335      11445      11446      11457      11456  
     11325      11326      11337      11336      11446      11447      11458      11457  
     11326      11327      11338      11337      11447      11448      11459      11458  
     11327      11328      11339      11338      11448      11449      11460      11459  
     11328      11329      11340      11339      11449      11450      11461      11460  
     11329      11330      11341      11340      11450      11451      11462      11461  
     11331      11332      11343      11342      11452      11453      11464      11463  
     11332      11333      11344      11343      11453      11454      11465      11464  
     11333      11334      11345      11344      11454      11455      11466      11465  
     11334      11335      11346      11345      11455      11456      11467      11466  
     11335      11336      11347      11346      11456      11457      11468      11467  
     11336      11337      11348      11347      11457      11458      11469      11468  
     11337      11338      11349      11348      11458      11459      11470      11469  
     11338      11339      11350      11349      11459      11460      11471      11470  
     11339      11340      11351      11350      11460      11461      11472      11471  
     11340      11341      11352      11351      11461      11462      11473      11472  
     11342      11343      11354      11353      11463      11464      11475      11474  
     11343      11344      11355      11354      11464      11465      11476      11475  
     11344      11345      11356      11355      11465      11466      11477      11476  
     11345      11346      11357      11356      11466      11467      11478      11477  
     11346      11347      11358      11357      11467      11468      11479      11478  
     11347      11348      11359      11358      11468      11469      11480      11479  
     11348      11349      11360      11359      11469      11470      11481      11480  
     11349      11350      11361      11360      11470      11471      11482      11481  
     11350      11351      11362      11361      11471      11472      11483      11482  
     11351      11352      11363      11362      11472      11473      11484      11483  
     11353      11354      11365      11364      11474      11475      11486      11485  
     11354      11355      11366      11365      11475      11476      11487      11486  
     11355      11356      11367      11366      11476      11477      11488      11487  
     11356      11357      11368      11367      11477      11478      11489      11488  
     11357      11358      11369      11368      11478      11479      11490      11489  
     11358      11359      11370      11369      11479      11480      11491      11490  
     11359      11360      11371      11370      11480      11481      11492      11491  
     11360      11361      11372      11371      11481      11482      11493      11492  
     11361      11362      11373      11372      11482      11483      11494      11493  
     11362      11363      11374      11373      11483      11484      11495      11494  
     11375      11376      11387      11386      11496      11497      11508      11507  
     11376      11377      11388      11387      11497      11498      11509      11508  
     11377      11378      11389      11388      11498      11499      11510      11509  
     11378      11379      11390      11389      11499      11500      11511      11510  
     11379      11380      11391      11390      11500      11501      11512      11511  
     11380      11381      11392      11391      11501      11502      11513      11512  
     11381      11382      11393      11392      11502      11503      11514      11513  
     11382      11383      11394      11393      11503      11504      11515      11514  
     11383      11384      11395      11394      11504      11505      11516      11515  
     11384      11385      11396      11395      11505      11506      11517      11516  
     11386      11387      11398      11397      11507      11508      11519      11518  
     11387      11388      11399      11398      11508      11509      11520      11519  
     11388      11389      11400      11399      11509      11510      11521      11520  
     11389      11390      11401      11400      11510      11511      11522      11521  
     11390      11391      11402      11401      11511      11512      11523      11522  
     11391      11392      11403      11402      11512      11513      11524      11523  
     11392      11393      11404      11403      11513      11514      11525      11524  
     11393      11394      11405      11404      11514      11515      11526      11525  
     11394      11395      11406      11405      11515      11516      11527      11526  
     11395      11396      11407      11406      11516      11517      11528      11527  
     11397      11398      11409      11408      11518      11519      11530      11529  
     11398      11399      11410      11409      11519      11520      11531      11530  
     11399      11400      11411      11410      11520      11521      11532      11531  
     11400      11401      11412      11411      11521      11522      11533      11532  
     11401      11402      11413      11412      11522      11523      11534      11533  
     11402      11403      11414      11413      11523      11524      11535      11534  
     11403      11404      11415      11414      11524      11525      11536      11535  
     11404      11405      11416      11415      11525      11526      11537      11536  
     11405      11406      11417      11416      11526      11527      11538      11537  
     11406      11407      11418      11417      11527      11528      11539      11538  
     11408      11409      11420      11419      11529      11530      11541      11540  
     11409      11410      11421      11420      11530      11531      11542      11541  
     11410      11411      11422      11421      11531      11532      11543      11542  
     11411      11412      11423      11422      11532      11533      11544      11543  
     11412      11413      11424      11423      11533      11534      11545      11544  
     11413      11414      11425      11424      11534      11535      11546      11545  
     11414      11415      11426      11425      11535      11536      11547      11546  
     11415      11416      11427      11426      11536      11537      11548      11547  
     11416      11417      11428      11427      11537      11538      11549      11548  
     11417      11418      11429      11428      11538      11539      11550      11549  
     11419      11420      11431      11430      11540      11541      11552      11551  
     11420      11421      11432      11431      11541      11542      11553      11552  
     11421      11422      11433      11432      11542      11543      11554      11553  
     11422      11423      11434      11433      11543      11544      11555      11554  
     11423      11424      11435      11434      11544      11545      11556      11555  
     11424      11425      11436      11435      11545      11546      11557      11556  
     11425      11426      11437      11436      11546      11547      11558      11557  
     11426      11427      11438      11437      11547      11548      11559      11558  
     11427      11428      11439      11438      11548      11549      11560      11559  
     11428      11429      11440      11439      11549      11550      11561      11560  
     11430      11431      11442      11441      11551      11552      11563      11562  
     11431      11432      11443      11442      11552      11553      11564      11563  
     11432      11433      11444      11443      11553      11554      11565      11564  
     11433      11434      11445      11444      11554      11555      11566      11565  
     11434      11435      11446      11445      11555      11556      11567      11566  
     11435      11436      11447      11446      11556      11557      11568      11567  
     11436      11437      11448      11447      11557      11558      11569      11568  
     11437      11438      11449      11448      11558      11559      11570      11569  
     11438      11439      11450      11449      11559      11560      11571      11570  
     11439      11440      11451      11450      11560      11561      11572      11571  
     11441      11442      11453      11452      11562      11563      11574      11573  
     11442      11443      11454      11453      11563      11564      11575      11574  
     11443      11444      11455      11454      11564      11565      11576      11575  
     11444      11445      11456      11455      11565      11566      11577      11576  
     11445      11446      11457      11456      11566      11567      11578      11577  
     11446      11447      11458      11457      11567      11568      11579      11578  
     11447      11448      11459      11458      11568      11569      11580      11579  
     11448      11449      11460      11459      11569      11570      11581      11580  
     11449      11450      11461      11460      11570      11571      11582      11581  
     11450      11451      11462      11461      11571      11572      11583      11582  
     11452      11453      11464      11463      11573      11574      11585      11584  
     11453      11454      11465      11464      11574      11575      11586      11585  
     11454      11455      11466      11465      11575      11576      11587      11586  
     11455      11456      11467      11466      11576      11577      11588      11587  
     11456      11457      11468      11467      11577      11578      11589      11588  
     11457      11458      11469      11468      11578      11579      11590      11589  
     11458      11459      11470      11469      11579      11580      11591      11590  
     11459      11460      11471      11470      11580      11581      11592      11591  
     11460      11461      11472      11471      11581      11582      11593      11592  
     11461      11462      11473      11472      11582      11583      11594      11593  
     11463      11464      11475      11474      11584      11585      11596      11595  
     11464      11465      11476      11475      11585      11586      11597      11596  
     11465      11466      11477      11476      11586      11587      11598      11597  
     11466      11467      11478      11477      11587      11588      11599      11598  
     11467      11468      11479      11478      11588      11589      11600      11599  
     11468      11469      11480      11479      11589      11590      11601      11600  
     11469      11470      11481      11480      11590      11591      11602      11601  
     11470      11471      11482      11481      11591      11592      11603      11602  
     11471      11472      11483      11482      11592      11593      11604      11603  
     11472      11473      11484      11483      11593      11594      11605      11604  
     11474      11475      11486      11485      11595      11596      11607      11606  
     11475      11476      11487      11486      11596      11597      11608      11607  
     11476      11477      11488      11487      11597      11598      11609      11608  
     11477      11478      11489      11488      11598      11599      11610      11609  
     11478      11479      11490      11489      11599      11600      11611      11610  
     11479      11480      11491      11490      11600      11601      11612      11611  
     11480      11481      11492      11491      11601      11602      11613      11612  
     11481      11482      11493      11492      11602      11603      11614      11613  
     11482      11483      11494      11493      11603      11604      11615      11614  
     11483      11484      11495      11494      11604      11605      11616      11615  
     11496      11497      11508      11507      11617      11618      11629      11628  
     11497      11498      11509      11508      11618      11619      11630      11629  
     11498      11499      11510      11509      11619      11620      11631      11630  
     11499      11500      11511      11510      11620      11621      11632      11631  
     11500      11501      11512      11511      11621      11622      11633      11632  
     11501      11502      11513      11512      11622      11623      11634      11633  
     11502      11503      11514      11513      11623      11624      11635      11634  
     11503      11504      11515      11514      11624      11625      11636      11635  
     11504      11505      11516      11515      11625      11626      11637      11636  
     11505      11506      11517      11516      11626      11627      11638      11637  
     11507      11508      11519      11518      11628      11629      11640      11639  
     11508      11509      11520      11519      11629      11630      11641      11640  
     11509      11510      11521      11520      11630      11631      11642      11641  
     11510      11511      11522      11521      11631      11632      11643      11642  
     11511      11512      11523      11522      11632      11633      11644      11643  
     11512      11513      11524      11523      11633      11634      11645      11644  
     11513      11514      11525      11524      11634      11635      11646      11645  
     11514      11515      11526      11525      11635      11636      11647      11646  
     11515      11516      11527      11526      11636      11637      11648      11647  
     11516      11517      11528      11527      11637      11638      11649      11648  
     11518      11519      11530      11529      11639      11640      11651      11650  
     11519      11520      11531      11530      11640      11641      11652      11651  
     11520      11521      11532      11531      11641      11642      11653      11652  
     11521      11522      11533      11532      11642      11643      11654      11653  
     11522      11523      11534      11533      11643      11644      11655      11654  
     11523      11524      11535      11534      11644      11645      11656      11655  
     11524      11525      11536      11535      11645      11646      11657      11656  
     11525      11526      11537      11536      11646      11647      11658      11657  
     11526      11527      11538      11537      11647      11648      11659      11658  
     11527      11528      11539      11538      11648      11649      11660      11659  
     11529      11530      11541      11540      11650      11651      11662      11661  
     11530      11531      11542      11541      11651      11652      11663      11662  
     11531      11532      11543      11542      11652      11653      11664      11663  
     11532      11533      11544      11543      11653      11654      11665      11664  
     11533      11534      11545      11544      11654      11655      11666      11665  
     11534      11535      11546      11545      11655      11656      11667      11666  
     11535      11536      11547      11546      11656      11657      11668      11667  
     11536      11537      11548      11547      11657      11658      11669      11668  
     11537      11538      11549      11548      11658      11659      11670      11669  
     11538      11539      11550      11549      11659      11660      11671      11670  
     11540      11541      11552      11551      11661      11662      11673      11672  
     11541      11542      11553      11552      11662      11663      11674      11673  
     11542      11543      11554      11553      11663      11664      11675      11674  
     11543      11544      11555      11554      11664      11665      11676      11675  
     11544      11545      11556      11555      11665      11666      11677      11676  
     11545      11546      11557      11556      11666      11667      11678      11677  
     11546      11547      11558      11557      11667      11668      11679      11678  
     11547      11548      11559      11558      11668      11669      11680      11679  
     11548      11549      11560      11559      11669      11670      11681      11680  
     11549      11550      11561      11560      11670      11671      11682      11681  
     11551      11552      11563      11562      11672      11673      11684      11683  
     11552      11553      11564      11563      11673      11674      11685      11684  
     11553      11554      11565      11564      11674      11675      11686      11685  
     11554      11555      11566      11565      11675      11676      11687      11686  
     11555      11556      11567      11566      11676      11677      11688      11687  
     11556      11557      11568      11567      11677      11678      11689      11688  
     11557      11558      11569      11568      11678      11679      11690      11689  
     11558      11559      11570      11569      11679      11680      11691      11690  
     11559      11560      11571      11570      11680      11681      11692      11691  
     11560      11561      11572      11571      11681      11682      11693      11692  
     11562      11563      11574      11573      11683      11684      11695      11694  
     11563      11564      11575      11574      11684      11685      11696      11695  
     11564      11565      11576      11575      11685      11686      11697      11696  
     11565      11566      11577      11576      11686      11687      11698      11697  
     11566      11567      11578      11577      11687      11688      11699      11698  
     11567      11568      11579      11578      11688      11689      11700      11699  
     11568      11569      11580      11579      11689      11690      11701      11700  
     11569      11570      11581      11580      11690      11691      11702      11701  
     11570      11571      11582      11581      11691      11692      11703      11702  
     11571      11572      11583      11582      11692      11693      11704      11703  
     11573      11574      11585      11584      11694      11695      11706      11705  
     11574      11575      11586      11585      11695      11696      11707      11706  
     11575      11576      11587      11586      11696      11697      11708      11707  
     11576      11577      11588      11587      11697      11698      11709      11708  
     11577      11578      11589      11588      11698      11699      11710      11709  
     11578      11579      11590      11589      11699      11700      11711      11710  
     11579      11580      11591      11590      11700      11701      11712      11711  
     11580      11581      11592      11591      11701      11702      11713      11712  
     11581      11582      11593      11592      11702      11703      11714      11713  
     11582      11583      11594      11593      11703      11704      11715      11714  
     11584      11585      11596      11595      11705      11706      11717      11716  
     11585      11586      11597      11596      11706      11707      11718      11717  
     11586      11587      11598      11597      11707      11708      11719      11718  
     11587      11588      11599      11598      11708      11709      11720      11719  
     11588      11589      11600      11599      11709      11710      11721      11720  
     11589      11590      11601      11600      11710      11711      11722      11721  
     11590      11591      11602      11601      11711      11712      11723      11722  
     11591      11592      11603      11602      11712      11713      11724      11723  
     11592      11593      11604      11603      11713      11714      11725      11724  
     11593      11594      11605      11604      11714      11715      11726      11725  
     11595      11596      11607      11606      11716      11717      11728      11727  
     11596      11597      11608      11607      11717      11718      11729      11728  
     11597      11598      11609      11608      11718      11719      11730      11729  
     11598      11599      11610      11609      11719      11720      11731      11730  
     11599      11600      11611      11610      11720      11721      11732      11731  
     11600      11601      11612      11611      11721      11722      11733      11732  
     11601      11602      11613      11612      11722      11723      11734      11733  
     11602      11603      11614      11613      11723      11724      11735      11734  
     11603      11604      11615      11614      11724      11725      11736      11735  
     11604      11605      11616      11615      11725      11726      11737      11736  
     11617      11618      11629      11628      11738      11739      11750      11749  
     11618      11619      11630      11629      11739      11740      11751      11750  
     11619      11620      11631      11630      11740      11741      11752      11751  
     11620      11621      11632      11631      11741      11742      11753      11752  
     11621      11622      11633      11632      11742      11743      11754      11753  
     11622      11623      11634      11633      11743      11744      11755      11754  
     11623      11624      11635      11634      11744      11745      11756      11755  
     11624      11625      11636      11635      11745      11746      11757      11756  
     11625      11626      11637      11636      11746      11747      11758      11757  
     11626      11627      11638      11637      11747      11748      11759      11758  
     11628      11629      11640      11639      11749      11750      11761      11760  
     11629      11630      11641      11640      11750      11751      11762      11761  
     11630      11631      11642      11641      11751      11752      11763      11762  
     11631      11632      11643      11642      11752      11753      11764      11763  
     11632      11633      11644      11643      11753      11754      11765      11764  
     11633      11634      11645      11644      11754      11755      11766      11765  
     11634      11635      11646      11645      11755      11756      11767      11766  
     11635      11636      11647      11646      11756      11757      11768      11767  
     11636      11637      11648      11647      11757      11758      11769      11768  
     11637      11638      11649      11648      11758      11759      11770      11769  
     11639      11640      11651      11650      11760      11761      11772      11771  
     11640      11641      11652      11651      11761      11762      11773      11772  
     11641      11642      11653      11652      11762      11763      11774      11773  
     11642      11643      11654      11653      11763      11764      11775      11774  
     11643      11644      11655      11654      11764      11765      11776      11775  
     11644      11645      11656      11655      11765      11766      11777      11776  
     11645      11646      11657      11656      11766      11767      11778      11777  
     11646      11647      11658      11657      11767      11768      11779      11778  
     11647      11648      11659      11658      11768      11769      11780      11779  
     11648      11649      11660      11659      11769      11770      11781      11780  
     11650      11651      11662      11661      11771      11772      11783      11782  
     11651      11652      11663      11662      11772      11773      11784      11783  
     11652      11653      11664      11663      11773      11774      11785      11784  
     11653      11654      11665      11664      11774      11775      11786      11785  
     11654      11655      11666      11665      11775      11776      11787      11786  
     11655      11656      11667      11666      11776      11777      11788      11787  
     11656      11657      11668      11667      11777      11778      11789      11788  
     11657      11658      11669      11668      11778      11779      11790      11789  
     11658      11659      11670      11669      11779      11780      11791      11790  
     11659      11660      11671      11670      11780      11781      11792      11791  
     11661      11662      11673      11672      11782      11783      11794      11793  
     11662      11663      11674      11673      11783      11784      11795      11794  
     11663      11664      11675      11674      11784      11785      11796      11795  
     11664      11665      11676      11675      11785      11786      11797      11796  
     11665      11666      11677      11676      11786      11787      11798      11797  
     11666      11667      11678      11677      11787      11788      11799      11798  
     11667      11668      11679      11678      11788      11789      11800      11799  
     11668      11669      11680      11679      11789      11790      11801      11800  
     11669      11670      11681      11680      11790      11791      11802      11801  
     11670      11671      11682      11681      11791      11792      11803      11802  
     11672      11673      11684      11683      11793      11794      11805      11804  
     11673      11674      11685      11684      11794      11795      11806      11805  
     11674      11675      11686      11685      11795      11796      11807      11806  
     11675      11676      11687      11686      11796      11797      11808      11807  
     11676      11677      11688      11687      11797      11798      11809      11808  
     11677      11678      11689      11688      11798      11799      11810      11809  
     11678      11679      11690      11689      11799      11800      11811      11810  
     11679      11680      11691      11690      11800      11801      11812      11811  
     11680      11681      11692      11691      11801      11802      11813      11812  
     11681      11682      11693      11692      11802      11803      11814      11813  
     11683      11684      11695      11694      11804      11805      11816      11815  
     11684      11685      11696      11695      11805      11806      11817      11816  
     11685      11686      11697      11696      11806      11807      11818      11817  
     11686      11687      11698      11697      11807      11808      11819      11818  
     11687      11688      11699      11698      11808      11809      11820      11819  
     11688      11689      11700      11699      11809      11810      11821      11820  
     11689      11690      11701      11700      11810      11811      11822      11821  
     11690      11691      11702      11701      11811      11812      11823      11822  
     11691      11692      11703      11702      11812      11813      11824      11823  
     11692      11693      11704      11703      11813      11814      11825      11824  
     11694      11695      11706      11705      11815      11816      11827      11826  
     11695      11696      11707      11706      11816      11817      11828      11827  
     11696      11697      11708      11707      11817      11818      11829      11828  
     11697      11698      11709      11708      11818      11819      11830      11829  
     11698      11699      11710      11709      11819      11820      11831      11830  
     11699      11700      11711      11710      11820      11821      11832      11831  
     11700      11701      11712      11711      11821      11822      11833      11832  
     11701      11702      11713      11712      11822      11823      11834      11833  
     11702      11703      11714      11713      11823      11824      11835      11834  
     11703      11704      11715      11714      11824      11825      11836      11835  
     11705      11706      11717      11716      11826      11827      11838      11837  
     11706      11707      11718      11717      11827      11828      11839      11838  
     11707      11708      11719      11718      11828      11829      11840      11839  
     11708      11709      11720      11719      11829      11830      11841      11840  
     11709      11710      11721      11720      11830      11831      11842      11841  
     11710      11711      11722      11721      11831      11832      11843      11842  
     11711      11712      11723      11722      11832      11833      11844      11843  
     11712      11713      11724      11723      11833      11834      11845      11844  
     11713      11714      11725      11724      11834      11835      11846      11845  
     11714      11715      11726      11725      11835      11836      11847      11846  
     11716      11717      11728      11727      11837      11838      11849      11848  
     11717      11718      11729      11728      11838      11839      11850      11849  
     11718      11719      11730      11729      11839      11840      11851      11850  
     11719      11720      11731      11730      11840      11841      11852      11851  
     11720      11721      11732      11731      11841      11842      11853      11852  
     11721      11722      11733      11732      11842      11843      11854      11853  
     11722      11723      11734      11733      11843      11844      11855      11854  
     11723      11724      11735      11734      11844      11845      11856      11855  
     11724      11725      11736      11735      11845      11846      11857      11856  
     11725      11726      11737      11736      11846      11847      11858      11857  
     11738      11739      11750      11749      11859      11860      11871      11870  
     11739      11740      11751      11750      11860      11861      11872      11871  
     11740      11741      11752      11751      11861      11862      11873      11872  
     11741      11742      11753      11752      11862      11863      11874      11873  
     11742      11743      11754      11753      11863      11864      11875      11874  
     11743      11744      11755      11754      11864      11865      11876      11875  
     11744      11745      11756      11755      11865      11866      11877      11876  
     11745      11746      11757      11756      11866      11867      11878      11877  
     11746      11747      11758      11757      11867      11868      11879      11878  
     11747      11748      11759      11758      11868      11869      11880      11879  
     11749      11750      11761      11760      11870      11871      11882      11881  
     11750      11751      11762      11761      11871      11872      11883      11882  
     11751      11752      11763      11762      11872      11873      11884      11883  
     11752      11753      11764      11763      11873      11874      11885      11884  
     11753      11754      11765      11764      11874      11875      11886      11885  
     11754      11755      11766      11765      11875      11876      11887      11886  
     11755      11756      11767      11766      11876      11877      11888      11887  
     11756      11757      11768      11767      11877      11878      11889      11888  
     11757      11758      11769      11768      11878      11879      11890      11889  
     11758      11759      11770      11769      11879      11880      11891      11890  
     11760      11761      11772      11771      11881      11882      11893      11892  
     11761      11762      11773      11772      11882      11883      11894      11893  
     11762      11763      11774      11773      11883      11884      11895      11894  
     11763      11764      11775      11774      11884      11885      11896      11895  
     11764      11765      11776      11775      11885      11886      11897      11896  
     11765      11766      11777      11776      11886      11887      11898      11897  
     11766      11767      11778      11777      11887      11888      11899      11898  
     11767      11768      11779      11778      11888      11889      11900      11899  
     11768      11769      11780      11779      11889      11890      11901      11900  
     11769      11770      11781      11780      11890      11891      11902      11901  
     11771      11772      11783      11782      11892      11893      11904      11903  
     11772      11773      11784      11783      11893      11894      11905      11904  
     11773      11774      11785      11784      11894      11895      11906      11905  
     11774      11775      11786      11785      11895      11896      11907      11906  
     11775      11776      11787      11786      11896      11897      11908      11907  
     11776      11777      11788      11787      11897      11898      11909      11908  
     11777      11778      11789      11788      11898      11899      11910      11909  
     11778      11779      11790      11789      11899      11900      11911      11910  
     11779      11780      11791      11790      11900      11901      11912      11911  
     11780      11781      11792      11791      11901      11902      11913      11912  
     11782      11783      11794      11793      11903      11904      11915      11914  
     11783      11784      11795      11794      11904      11905      11916      11915  
     11784      11785      11796      11795      11905      11906      11917      11916  
     11785      11786      11797      11796      11906      11907      11918      11917  
     11786      11787      11798      11797      11907      11908      11919      11918  
     11787      11788      11799      11798      11908      11909      11920      11919  
     11788      11789      11800      11799      11909      11910      11921      11920  
     11789      11790      11801      11800      11910      11911      11922      11921  
     11790      11791      11802      11801      11911      11912      11923      11922  
     11791      11792      11803      11802      11912      11913      11924      11923  
     11793      11794      11805      11804      11914      11915      11926      11925  
     11794      11795      11806      11805      11915      11916      11927      11926  
     11795      11796      11807      11806      11916      11917      11928      11927  
     11796      11797      11808      11807      11917      11918      11929      11928  
     11797      11798      11809      11808      11918      11919      11930      11929  
     11798      11799      11810      11809      11919      11920      11931      11930  
     11799      11800      11811      11810      11920      11921      11932      11931  
     11800      11801      11812      11811      11921      11922      11933      11932  
     11801      11802      11813      11812      11922      11923      11934      11933  
     11802      11803      11814      11813      11923      11924      11935      11934  
     11804      11805      11816      11815      11925      11926      11937      11936  
     11805      11806      11817      11816      11926      11927      11938      11937  
     11806      11807      11818      11817      11927      11928      11939      11938  
     11807      11808      11819      11818      11928      11929      11940      11939  
     11808      11809      11820      11819      11929      11930      11941      11940  
     11809      11810      11821      11820      11930      11931      11942      11941  
     11810      11811      11822      11821      11931      11932      11943      11942  
     11811      11812      11823      11822      11932      11933      11944      11943  
     11812      11813      11824      11823      11933      11934      11945      11944  
     11813      11814      11825      11824      11934      11935      11946      11945  
     11815      11816      11827      11826      11936      11937      11948      11947  
     11816      11817      11828      11827      11937      11938      11949      11948  
     11817      11818      11829      11828      11938      11939      11950      11949  
     11818      11819      11830      11829      11939      11940      11951      11950  
     11819      11820      11831      11830      11940      11941      11952      11951  
     11820      11821      11832      11831      11941      11942      11953      11952  
     11821      11822      11833      11832      11942      11943      11954      11953  
     11822      11823      11834      11833      11943      11944      11955      11954  
     11823      11824      11835      11834      11944      11945      11956      11955  
     11824      11825      11836      11835      11945      11946      11957      11956  
     11826      11827      11838      11837      11947      11948      11959      11958  
     11827      11828      11839      11838      11948      11949      11960      11959  
     11828      11829      11840      11839      11949      11950      11961      11960  
     11829      11830      11841      11840      11950      11951      11962      11961  
     11830      11831      11842      11841      11951      11952      11963      11962  
     11831      11832      11843      11842      11952      11953      11964      11963  
     11832      11833      11844      11843      11953      11954      11965      11964  
     11833      11834      11845      11844      11954      11955      11966      11965  
     11834      11835      11846      11845      11955      11956      11967      11966  
     11835      11836      11847      11846      11956      11957      11968      11967  
     11837      11838      11849      11848      11958      11959      11970      11969  
     11838      11839      11850      11849      11959      11960      11971      11970  
     11839      11840      11851      11850      11960      11961      11972      11971  
     11840      11841      11852      11851      11961      11962      11973      11972  
     11841      11842      11853      11852      11962      11963      11974      11973  
     11842      11843      11854      11853      11963      11964      11975      11974  
     11843      11844      11855      11854      11964      11965      11976      11975  
     11844      11845      11856      11855      11965      11966      11977      11976  
     11845      11846      11857      11856      11966      11967      11978      11977  
     11846      11847      11858      11857      11967      11968      11979      11978  
     11859      11860      11871      11870      11980      11981      11992      11991  
     11860      11861      11872      11871      11981      11982      11993      11992  
     11861      11862      11873      11872      11982      11983      11994      11993  
     11862      11863      11874      11873      11983      11984      11995      11994  
     11863      11864      11875      11874      11984      11985      11996      11995  
     11864      11865      11876      11875      11985      11986      11997      11996  
     11865      11866      11877      11876      11986      11987      11998      11997  
     11866      11867      11878      11877      11987      11988      11999      11998  
     11867      11868      11879      11878      11988      11989      12000      11999  
     11868      11869      11880      11879      11989      11990      12001      12000  
     11870      11871      11882      11881      11991      11992      12003      12002  
     11871      11872      11883      11882      11992      11993      12004      12003  
     11872      11873      11884      11883      11993      11994      12005      12004  
     11873      11874      11885      11884      11994      11995      12006      12005  
     11874      11875      11886      11885      11995      11996      12007      12006  
     11875      11876      11887      11886      11996      11997      12008      12007  
     11876      11877      11888      11887      11997      11998      12009      12008  
     11877      11878      11889      11888      11998      11999      12010      12009  
     11878      11879      11890      11889      11999      12000      12011      12010  
     11879      11880      11891      11890      12000      12001      12012      12011  
     11881      11882      11893      11892      12002      12003      12014      12013  
     11882      11883      11894      11893      12003      12004      12015      12014  
     11883      11884      11895      11894      12004      12005      12016      12015  
     11884      11885      11896      11895      12005      12006      12017      12016  
     11885      11886      11897      11896      12006      12007      12018      12017  
     11886      11887      11898      11897      12007      12008      12019      12018  
     11887      11888      11899      11898      12008      12009      12020      12019  
     11888      11889      11900      11899      12009      12010      12021      12020  
     11889      11890      11901      11900      12010      12011      12022      12021  
     11890      11891      11902      11901      12011      12012      12023      12022  
     11892      11893      11904      11903      12013      12014      12025      12024  
     11893      11894      11905      11904      12014      12015      12026      12025  
     11894      11895      11906      11905      12015      12016      12027      12026  
     11895      11896      11907      11906      12016      12017      12028      12027  
     11896      11897      11908      11907      12017      12018      12029      12028  
     11897      11898      11909      11908      12018      12019      12030      12029  
     11898      11899      11910      11909      12019      12020      12031      12030  
     11899      11900      11911      11910      12020      12021      12032      12031  
     11900      11901      11912      11911      12021      12022      12033      12032  
     11901      11902      11913      11912      12022      12023      12034      12033  
     11903      11904      11915      11914      12024      12025      12036      12035  
     11904      11905      11916      11915      12025      12026      12037      12036  
     11905      11906      11917      11916      12026      12027      12038      12037  
     11906      11907      11918      11917      12027      12028      12039      12038  
     11907      11908      11919      11918      12028      12029      12040      12039  
     11908      11909      11920      11919      12029      12030      12041      12040  
     11909      11910      11921      11920      12030      12031      12042      12041  
     11910      11911      11922      11921      12031      12032      12043      12042  
     11911      11912      11923      11922      12032      12033      12044      12043  
     11912      11913      11924      11923      12033      12034      12045      12044  
     11914      11915      11926      11925      12035      12036      12047      12046  
     11915      11916      11927      11926      12036      12037      12048      12047  
     11916      11917      11928      11927      12037      12038      12049      12048  
     11917      11918      11929      11928      12038      12039      12050      12049  
     11918      11919      11930      11929      12039      12040      12051      12050  
     11919      11920      11931      11930      12040      12041      12052      12051  
     11920      11921      11932      11931      12041      12042      12053      12052  
     11921      11922      11933      11932      12042      12043      12054      12053  
     11922      11923      11934      11933      12043      12044      12055      12054  
     11923      11924      11935      11934      12044      12045      12056      12055  
     11925      11926      11937      11936      12046      12047      12058      12057  
     11926      11927      11938      11937      12047      12048      12059      12058  
     11927      11928      11939      11938      12048      12049      12060      12059  
     11928      11929      11940      11939      12049      12050      12061      12060  
     11929      11930      11941      11940      12050      12051      12062      12061  
     11930      11931      11942      11941      12051      12052      12063      12062  
     11931      11932      11943      11942      12052      12053      12064      12063  
     11932      11933      11944      11943      12053      12054      12065      12064  
     11933      11934      11945      11944      12054      12055      12066      12065  
     11934      11935      11946      11945      12055      12056      12067      12066  
     11936      11937      11948      11947      12057      12058      12069      12068  
     11937      11938      11949      11948      12058      12059      12070      12069  
     11938      11939      11950      11949      12059      12060      12071      12070  
     11939      11940      11951      11950      12060      12061      12072      12071  
     11940      11941      11952      11951      12061      12062      12073      12072  
     11941      11942      11953      11952      12062      12063      12074      12073  
     11942      11943      11954      11953      12063      12064      12075      12074  
     11943      11944      11955      11954      12064      12065      12076      12075  
     11944      11945      11956      11955      12065      12066      12077      12076  
     11945      11946      11957      11956      12066      12067      12078      12077  
     11947      11948      11959      11958      12068      12069      12080      12079  
     11948      11949      11960      11959      12069      12070      12081      12080  
     11949      11950      11961      11960      12070      12071      12082      12081  
     11950      11951      11962      11961      12071      12072      12083      12082  
     11951      11952      11963      11962      12072      12073      12084      12083  
     11952      11953      11964      11963      12073      12074      12085      12084  
     11953      11954      11965      11964      12074      12075      12086      12085  
     11954      11955      11966      11965      12075      12076      12087      12086  
     11955      11956      11967      11966      12076      12077      12088      12087  
     11956      11957      11968      11967      12077      12078      12089      12088  
     11958      11959      11970      11969      12079      12080      12091      12090  
     11959      11960      11971      11970      12080      12081      12092      12091  
     11960      11961      11972      11971      12081      12082      12093      12092  
     11961      11962      11973      11972      12082      12083      12094      12093  
     11962      11963      11974      11973      12083      12084      12095      12094  
     11963      11964      11975      11974      12084      12085      12096      12095  
     11964      11965      11976      11975      12085      12086      12097      12096  
     11965      11966      11977      11976      12086      12087      12098      12097  
     11966      11967      11978      11977      12087      12088      12099      12098  
     11967      11968      11979      11978      12088      12089      12100      12099  
     11980      11981      11992      11991      12101      12102      12113      12112  
     11981      11982      11993      11992      12102      12103      12114      12113  
     11982      11983      11994      11993      12103      12104      12115      12114  
     11983      11984      11995      11994      12104      12105      12116      12115  
     11984      11985      11996      11995      12105      12106      12117      12116  
     11985      11986      11997      11996      12106      12107      12118      12117  
     11986      11987      11998      11997      12107      12108      12119      12118  
     11987      11988      11999      11998      12108      12109      12120      12119  
     11988      11989      12000      11999      12109      12110      12121      12120  
     11989      11990      12001      12000      12110      12111      12122      12121  
     11991      11992      12003      12002      12112      12113      12124      12123  
     11992      11993      12004      12003      12113      12114      12125      12124  
     11993      11994      12005      12004      12114      12115      12126      12125  
     11994      11995      12006      12005      12115      12116      12127      12126  
     11995      11996      12007      12006      12116      12117      12128      12127  
     11996      11997      12008      12007      12117      12118      12129      12128  
     11997      11998      12009      12008      12118      12119      12130      12129  
     11998      11999      12010      12009      12119      12120      12131      12130  
     11999      12000      12011      12010      12120      12121      12132      12131  
     12000      12001      12012      12011      12121      12122      12133      12132  
     12002      12003      12014      12013      12123      12124      12135      12134  
     12003      12004      12015      12014      12124      12125      12136      12135  
     12004      12005      12016      12015      12125      12126      12137      12136  
     12005      12006      12017      12016      12126      12127      12138      12137  
     12006      12007      12018      12017      12127      12128      12139      12138  
     12007      12008      12019      12018      12128      12129      12140      12139  
     12008      12009      12020      12019      12129      12130      12141      12140  
     12009      12010      12021      12020      12130      12131      12142      12141  
     12010      12011      12022      12021      12131      12132      12143      12142  
     12011      12012      12023      12022      12132      12133      12144      12143  
     12013      12014      12025      12024      12134      12135      12146      12145  
     12014      12015      12026      12025      12135      12136      12147      12146  
     12015      12016      12027      12026      12136      12137      12148      12147  
     12016      12017      12028      12027      12137      12138      12149      12148  
     12017      12018      12029      12028      12138      12139      12150      12149  
     12018      12019      12030      12029      12139      12140      12151      12150  
     12019      12020      12031      12030      12140      12141      12152      12151  
     12020      12021      12032      12031      12141      12142      12153      12152  
     12021      12022      12033      12032      12142      12143      12154      12153  
     12022      12023      12034      12033      12143      12144      12155      12154  
     12024      12025      12036      12035      12145      12146      12157      12156  
     12025      12026      12037      12036      12146      12147      12158      12157  
     12026      12027      12038      12037      12147      12148      12159      12158  
     12027      12028      12039      12038      12148      12149      12160      12159  
     12028      12029      12040      12039      12149      12150      12161      12160  
     12029      12030      12041      12040      12150      12151      12162      12161  
     12030      12031      12042      12041      12151      12152      12163      12162  
     12031      12032      12043      12042      12152      12153      12164      12163  
     12032      12033      12044      12043      12153      12154      12165      12164  
     12033      12034      12045      12044      12154      12155      12166      12165  
     12035      12036      12047      12046      12156      12157      12168      12167  
     12036      12037      12048      12047      12157      12158      12169      12168  
     12037      12038      12049      12048      12158      12159      12170      12169  
     12038      12039      12050      12049      12159      12160      12171      12170  
     12039      12040      12051      12050      12160      12161      12172      12171  
     12040      12041      12052      12051      12161      12162      12173      12172  
     12041      12042      12053      12052      12162      12163      12174      12173  
     12042      12043      12054      12053      12163      12164      12175      12174  
     12043      12044      12055      12054      12164      12165      12176      12175  
     12044      12045      12056      12055      12165      12166      12177      12176  
     12046      12047      12058      12057      12167      12168      12179      12178  
     12047      12048      12059      12058      12168      12169      12180      12179  
     12048      12049      12060      12059      12169      12170      12181      12180  
     12049      12050      12061      12060      12170      12171      12182      12181  
     12050      12051      12062      12061      12171      12172      12183      12182  
     12051      12052      12063      12062      12172      12173      12184      12183  
     12052      12053      12064      12063      12173      12174      12185      12184  
     12053      12054      12065      12064      12174      12175      12186      12185  
     12054      12055      12066      12065      12175      12176      12187      12186  
     12055      12056      12067      12066      12176      12177      12188      12187  
     12057      12058      12069      12068      12178      12179      12190      12189  
     12058      12059      12070      12069      12179      12180      12191      12190  
     12059      12060      12071      12070      12180      12181      12192      12191  
     12060      12061      12072      12071      12181      12182      12193      12192  
     12061      12062      12073      12072      12182      12183      12194      12193  
     12062      12063      12074      12073      12183      12184      12195      12194  
     12063      12064      12075      12074      12184      12185      12196      12195  
     12064      12065      12076      12075      12185      12186      12197      12196  
     12065      12066      12077      12076      12186      12187      12198      12197  
     12066      12067      12078      12077      12187      12188      12199      12198  
     12068      12069      12080      12079      12189      12190      12201      12200  
     12069      12070      12081      12080      12190      12191      12202      12201  
     12070      12071      12082      12081      12191      12192      12203      12202  
     12071      12072      12083      12082      12192      12193      12204      12203  
     12072      12073      12084      12083      12193      12194      12205      12204  
     12073      12074      12085      12084      12194      12195      12206      12205  
     12074      12075      12086      12085      12195      12196      12207      12206  
     12075      12076      12087      12086      12196      12197      12208      12207  
     12076      12077      12088      12087      12197      12198      12209      12208  
     12077      12078      12089      12088      12198      12199      12210      12209  
     12079      12080      12091      12090      12200      12201      12212      12211  
     12080      12081      12092      12091      12201      12202      12213      12212  
     12081      12082      12093      12092      12202      12203      12214      12213  
     12082      12083      12094      12093      12203      12204      12215      12214  
     12083      12084      12095      12094      12204      12205      12216      12215  
     12084      12085      12096      12095      12205      12206      12217      12216  
     12085      12086      12097      12096      12206      12207      12218      12217  
     12086      12087      12098      12097      12207      12208      12219      12218  
     12087      12088      12099      12098      12208      12209      12220      12219  
     12088      12089      12100      12099      12209      12210      12221      12220  
