TITLE="results for TO code"
VARIABLES = "x", "y", "z", "density", "sigmaxx", "sigmayy", "sigmazz", "sigmaxy", "sigmaxz", "sigmayz"
ZONE T="load step 1", NODES= 12221, ELEMENTS= 10000, DATAPACKING=POINT, ZONETYPE=FEBRICK
               0.00000000                0.00000000                0.00000000                1.00000000                0.00000000               -0.00000000                1.83466287               -0.00000000                0.53498297                1.10012658
               1.00000000                0.00000000                0.00000000                1.00000000                0.00000000                0.00000000                1.26007299                0.00000000                0.02993163                0.74792476
               2.00000000                0.00000000                0.00000000                1.00000000                0.00000000               -0.00000000                0.66883091               -0.00000000               -0.16152955                0.37975804
               3.00000000                0.00000000                0.00000000                1.00000000               -0.00000000               -0.00000000                0.14498106               -0.00000000               -0.14557520                0.08645893
               4.00000000                0.00000000                0.00000000                1.00000000                0.00000000                0.00000000               -0.01396037                0.00000000               -0.03214046               -0.00751039
               5.00000000                0.00000000                0.00000000                1.00000000                0.00000000                0.00000000               -0.00586425               -0.00000000                0.00172450               -0.00513335
               6.00000000                0.00000000                0.00000000                1.00000000                0.00000000                0.00000000               -0.01410383                0.00000000               -0.00439038               -0.00156524
               7.00000000                0.00000000                0.00000000                1.00000000                0.00000000               -0.00000000               -0.08663845               -0.00000000               -0.05324286               -0.09107163
               8.00000000                0.00000000                0.00000000                1.00000000                0.00000000               -0.00000000               -0.76294543               -0.00000000               -0.05053907               -0.47063154
               9.00000000                0.00000000                0.00000000                1.00000000                0.00000000                0.00000000               -1.56395366                0.00000000                0.24233892               -0.86818222
              10.00000000                0.00000000                0.00000000                1.00000000               -0.00000000               -0.00000000               -2.25076050                0.00000000                0.86672014               -1.20737659
               0.00000000                1.00000000                0.00000000                1.00000000               -0.00000000               -0.00000000                1.48678209               -0.00000000                0.73923507                0.58801368
               1.00000000                1.00000000                0.00000000                1.00000000               -0.00000000               -0.00000000                0.93256644               -0.00000000                0.26601820                0.36812284
               2.00000000                1.00000000                0.00000000                1.00000000                0.00000000                0.00000000                0.40493776               -0.00000000                0.05480183                0.12097099
               3.00000000                1.00000000                0.00000000                1.00000000                0.00000000                0.00000000                0.04605876                0.00000000                0.00937338               -0.00665422
               4.00000000                1.00000000                0.00000000                1.00000000               -0.00000000               -0.00000000               -0.00113295               -0.00000000                0.00452834               -0.01455008
               5.00000000                1.00000000                0.00000000                1.00000000                0.00000000                0.00000000               -0.00089874                0.00000000                0.00709386               -0.00373384
               6.00000000                1.00000000                0.00000000                1.00000000                0.00000000               -0.00000000               -0.00743468               -0.00000000                0.02324421                0.00378032
               7.00000000                1.00000000                0.00000000                1.00000000                0.00000000                0.00000000               -0.00851064                0.00000000                0.06667118               -0.01847856
               8.00000000                1.00000000                0.00000000                1.00000000               -0.00000000                0.00000000               -0.37698815               -0.00000000                0.15340639               -0.15721991
               9.00000000                1.00000000                0.00000000                1.00000000               -0.00000000               -0.00000000               -1.08495083                0.00000000                0.45815729               -0.38963884
              10.00000000                1.00000000                0.00000000                1.00000000                0.00000000               -0.00000000               -1.86327015               -0.00000000                1.04573035               -0.56913518
               0.00000000                2.00000000                0.00000000                1.00000000               -0.00000000                0.00000000                1.44200052               -0.00000000                0.81513210                0.31044627
               1.00000000                2.00000000                0.00000000                1.00000000               -0.00000000                0.00000000                0.78913142                0.00000000                0.32700294                0.17007061
               2.00000000                2.00000000                0.00000000                1.00000000               -0.00000000                0.00000000                0.17997413                0.00000000                0.11416616                0.01259254
               3.00000000                2.00000000                0.00000000                1.00000000                0.00000000               -0.00000000               -0.01656030               -0.00000000                0.04936155               -0.01081622
               4.00000000                2.00000000                0.00000000                1.00000000                0.00000000               -0.00000000                0.00355767                0.00000000                0.01973697               -0.00890312
               5.00000000                2.00000000                0.00000000                1.00000000                0.00000000                0.00000000               -0.00055118               -0.00000000                0.01272482               -0.00384443
               6.00000000                2.00000000                0.00000000                1.00000000               -0.00000000               -0.00000000               -0.00146326               -0.00000000                0.02530333               -0.00302652
               7.00000000                2.00000000                0.00000000                1.00000000               -0.00000000               -0.00000000               -0.00004357               -0.00000000                0.06407964               -0.01920000
               8.00000000                2.00000000                0.00000000                1.00000000                0.00000000               -0.00000000               -0.06685960                0.00000000                0.15574990               -0.02685784
               9.00000000                2.00000000                0.00000000                1.00000000               -0.00000000                0.00000000               -0.69578446                0.00000000                0.43283456               -0.13476649
              10.00000000                2.00000000                0.00000000                1.00000000               -0.00000000                0.00000000               -1.76179910                0.00000000                1.03994301               -0.20789998
               0.00000000                3.00000000                0.00000000                1.00000000                0.00000000                0.00000000                1.38462140                0.00000000                0.80996066                0.13493908
               1.00000000                3.00000000                0.00000000                1.00000000               -0.00000000                0.00000000                0.65481571                0.00000000                0.33483602                0.05488801
               2.00000000                3.00000000                0.00000000                1.00000000               -0.00000000               -0.00000000                0.03973631               -0.00000000                0.15726961               -0.03596653
               3.00000000                3.00000000                0.00000000                1.00000000               -0.00000000               -0.00000000                0.00329237                0.00000000                0.06257560               -0.00957991
               4.00000000                3.00000000                0.00000000                1.00000000                0.00000000                0.00000000                0.00118081               -0.00000000                0.02538918               -0.00449390
               5.00000000                3.00000000                0.00000000                1.00000000               -0.00000000               -0.00000000               -0.00000305                0.00000000                0.01509858               -0.00309592
               6.00000000                3.00000000                0.00000000                1.00000000                0.00000000                0.00000000               -0.00064324               -0.00000000                0.02205582               -0.00531428
               7.00000000                3.00000000                0.00000000                1.00000000                0.00000000               -0.00000000               -0.00894658                0.00000000                0.04908073               -0.01156217
               8.00000000                3.00000000                0.00000000                1.00000000               -0.00000000                0.00000000                0.03153387                0.00000000                0.11955003               -0.02288954
               9.00000000                3.00000000                0.00000000                1.00000000               -0.00000000                0.00000000               -0.41150629                0.00000000                0.32649818               -0.04302622
              10.00000000                3.00000000                0.00000000                1.00000000                0.00000000               -0.00000000               -1.57197510               -0.00000000                0.88581927               -0.00651250
               0.00000000                4.00000000                0.00000000                1.00000000               -0.00000000               -0.00000000                1.31884917               -0.00000000                0.77673874                0.01643181
               1.00000000                4.00000000                0.00000000                1.00000000                0.00000000                0.00000000                0.51072339                0.00000000                0.32568002               -0.02295107
               2.00000000                4.00000000                0.00000000                1.00000000               -0.00000000               -0.00000000               -0.07260810                0.00000000                0.17836726               -0.05004258
               3.00000000                4.00000000                0.00000000                1.00000000                0.00000000               -0.00000000                0.01272472               -0.00000000                0.06981747               -0.00554955
               4.00000000                4.00000000                0.00000000                1.00000000               -0.00000000                0.00000000                0.00091745               -0.00000000                0.02677332               -0.00206028
               5.00000000                4.00000000                0.00000000                1.00000000               -0.00000000               -0.00000000                0.00024104                0.00000000                0.01478974               -0.00212527
               6.00000000                4.00000000                0.00000000                1.00000000               -0.00000000               -0.00000000               -0.00093417                0.00000000                0.01815620               -0.00414589
               7.00000000                4.00000000                0.00000000                1.00000000               -0.00000000                0.00000000               -0.00415458               -0.00000000                0.04008921               -0.00914947
               8.00000000                4.00000000                0.00000000                1.00000000                0.00000000               -0.00000000                0.01383883                0.00000000                0.09793773               -0.01626199
               9.00000000                4.00000000                0.00000000                1.00000000                0.00000000                0.00000000               -0.30547166               -0.00000000                0.27359738                0.01023504
              10.00000000                4.00000000                0.00000000                1.00000000               -0.00000000               -0.00000000               -1.38554961                0.00000000                0.75302673                0.08371380
               0.00000000                5.00000000                0.00000000                1.00000000                0.00000000                0.00000000                1.24028157               -0.00000000                0.72247675               -0.06900532
               1.00000000                5.00000000                0.00000000                1.00000000                0.00000000               -0.00000000                0.34270042                0.00000000                0.29380483               -0.06618385
               2.00000000                5.00000000                0.00000000                1.00000000                0.00000000               -0.00000000               -0.11731423                0.00000000                0.16603752               -0.03869561
               3.00000000                5.00000000                0.00000000                1.00000000               -0.00000000                0.00000000                0.01587739                0.00000000                0.06684471               -0.00195781
               4.00000000                5.00000000                0.00000000                1.00000000                0.00000000               -0.00000000                0.00063451                0.00000000                0.02589090               -0.00024992
               5.00000000                5.00000000                0.00000000                1.00000000               -0.00000000                0.00000000                0.00035365               -0.00000000                0.01354572               -0.00121745
               6.00000000                5.00000000                0.00000000                1.00000000               -0.00000000                0.00000000               -0.00054887                0.00000000                0.01500036               -0.00325779
               7.00000000                5.00000000                0.00000000                1.00000000                0.00000000                0.00000000               -0.00352178               -0.00000000                0.03130500               -0.00777960
               8.00000000                5.00000000                0.00000000                1.00000000               -0.00000000                0.00000000                0.00943320               -0.00000000                0.07751903               -0.01366766
               9.00000000                5.00000000                0.00000000                1.00000000               -0.00000000               -0.00000000               -0.20804174               -0.00000000                0.22232311                0.04554567
              10.00000000                5.00000000                0.00000000                1.00000000                0.00000000                0.00000000               -1.19803305               -0.00000000                0.64553696                0.15022972
               0.00000000                6.00000000                0.00000000                1.00000000               -0.00000000                0.00000000                1.13109266                0.00000000                0.64596041               -0.12476508
               1.00000000                6.00000000                0.00000000                1.00000000                0.00000000               -0.00000000                0.20360406                0.00000000                0.25614116               -0.08360805
               2.00000000                6.00000000                0.00000000                1.00000000               -0.00000000                0.00000000               -0.11063837                0.00000000                0.14488539               -0.02851279
               3.00000000                6.00000000                0.00000000                1.00000000               -0.00000000                0.00000000                0.01375466                0.00000000                0.06092464               -0.00065059
               4.00000000                6.00000000                0.00000000                1.00000000               -0.00000000                0.00000000                0.00077263                0.00000000                0.02401287                0.00063877
               5.00000000                6.00000000                0.00000000                1.00000000                0.00000000               -0.00000000                0.00039147                0.00000000                0.01209636               -0.00056555
               6.00000000                6.00000000                0.00000000                1.00000000                0.00000000                0.00000000               -0.00041285               -0.00000000                0.01209007               -0.00244437
               7.00000000                6.00000000                0.00000000                1.00000000               -0.00000000               -0.00000000               -0.00219759               -0.00000000                0.02319553               -0.00587713
               8.00000000                6.00000000                0.00000000                1.00000000                0.00000000                0.00000000                0.00400494                0.00000000                0.05251219               -0.00944103
               9.00000000                6.00000000                0.00000000                1.00000000                0.00000000               -0.00000000               -0.11546035                0.00000000                0.14383741                0.05704085
              10.00000000                6.00000000                0.00000000                1.00000000               -0.00000000                0.00000000               -0.88301929                0.00000000                0.51714623                0.20468758
               0.00000000                7.00000000                0.00000000                1.00000000                0.00000000               -0.00000000                0.99855512               -0.00000000                0.56567171               -0.15692631
               1.00000000                7.00000000                0.00000000                1.00000000               -0.00000000               -0.00000000                0.10477638                0.00000000                0.23067939               -0.08853484
               2.00000000                7.00000000                0.00000000                1.00000000               -0.00000000               -0.00000000               -0.11629629                0.00000000                0.13988381               -0.02145171
               3.00000000                7.00000000                0.00000000                1.00000000                0.00000000                0.00000000                0.01309225                0.00000000                0.05865465                0.00079122
               4.00000000                7.00000000                0.00000000                1.00000000               -0.00000000                0.00000000                0.00068647                0.00000000                0.02231295                0.00163593
               5.00000000                7.00000000                0.00000000                1.00000000               -0.00000000               -0.00000000                0.00040153               -0.00000000                0.01048082               -0.00000511
               6.00000000                7.00000000                0.00000000                1.00000000               -0.00000000               -0.00000000               -0.00028690                0.00000000                0.00963538               -0.00190596
               7.00000000                7.00000000                0.00000000                1.00000000               -0.00000000                0.00000000               -0.00123704                0.00000000                0.01771362               -0.00351391
               8.00000000                7.00000000                0.00000000                1.00000000               -0.00000000               -0.00000000               -0.00033585               -0.00000000                0.03655059                0.00081320
               9.00000000                7.00000000                0.00000000                1.00000000               -0.00000000                0.00000000               -0.04413736               -0.00000000                0.08521056                0.06149768
              10.00000000                7.00000000                0.00000000                1.00000000                0.00000000                0.00000000               -0.52658737                0.00000000                0.35324960                0.17769680
               0.00000000                8.00000000                0.00000000                1.00000000               -0.00000000               -0.00000000                0.85948118                0.00000000                0.49486454               -0.18941193
               1.00000000                8.00000000                0.00000000                1.00000000               -0.00000000               -0.00000000                0.02653018                0.00000000                0.21539977               -0.07879752
               2.00000000                8.00000000                0.00000000                1.00000000                0.00000000                0.00000000               -0.15166810                0.00000000                0.15043421               -0.00039627
               3.00000000                8.00000000                0.00000000                1.00000000               -0.00000000                0.00000000                0.01100329               -0.00000000                0.06120017                0.01047809
               4.00000000                8.00000000                0.00000000                1.00000000                0.00000000               -0.00000000                0.00006635                0.00000000                0.02026673                0.00473442
               5.00000000                8.00000000                0.00000000                1.00000000               -0.00000000               -0.00000000                0.00052688                0.00000000                0.00870972                0.00025823
               6.00000000                8.00000000                0.00000000                1.00000000                0.00000000                0.00000000               -0.00015663                0.00000000                0.00769385               -0.00195733
               7.00000000                8.00000000                0.00000000                1.00000000               -0.00000000                0.00000000               -0.00091603               -0.00000000                0.01449751               -0.00345973
               8.00000000                8.00000000                0.00000000                1.00000000               -0.00000000               -0.00000000               -0.00146160               -0.00000000                0.03747474                0.00702088
               9.00000000                8.00000000                0.00000000                1.00000000                0.00000000                0.00000000               -0.00721088                0.00000000                0.08109268                0.08177605
              10.00000000                8.00000000                0.00000000                1.00000000               -0.00000000                0.00000000               -0.40126036               -0.00000000                0.27040451                0.14588834
               0.00000000                9.00000000                0.00000000                1.00000000               -0.00000000               -0.00000000                0.69300896               -0.00000000                0.39215215               -0.26705635
               1.00000000                9.00000000                0.00000000                1.00000000                0.00000000                0.00000000               -0.03637041               -0.00000000                0.19211251               -0.04279143
               2.00000000                9.00000000                0.00000000                1.00000000               -0.00000000                0.00000000               -0.28470254                0.00000000                0.17087767                0.08440369
               3.00000000                9.00000000                0.00000000                1.00000000                0.00000000               -0.00000000               -0.02462163                0.00000000                0.06934239                0.05040888
               4.00000000                9.00000000                0.00000000                1.00000000               -0.00000000               -0.00000000                0.00351970               -0.00000000                0.01894927                0.00971283
               5.00000000                9.00000000                0.00000000                1.00000000                0.00000000                0.00000000                0.00029274               -0.00000000                0.00961876               -0.00083891
               6.00000000                9.00000000                0.00000000                1.00000000                0.00000000               -0.00000000               -0.00005331               -0.00000000                0.00684646               -0.00183870
               7.00000000                9.00000000                0.00000000                1.00000000                0.00000000               -0.00000000               -0.00037762                0.00000000                0.01003561               -0.00560903
               8.00000000                9.00000000                0.00000000                1.00000000                0.00000000               -0.00000000               -0.00407612                0.00000000                0.03553046               -0.00771119
               9.00000000                9.00000000                0.00000000                1.00000000               -0.00000000               -0.00000000                0.08073040               -0.00000000                0.11880631                0.08910951
              10.00000000                9.00000000                0.00000000                1.00000000               -0.00000000                0.00000000               -0.45568252               -0.00000000                0.26536499                0.20308485
               0.00000000               10.00000000                0.00000000                1.00000000               -0.00000000                0.00000000                0.65210116               -0.00000000                0.10536694               -0.44844809
               1.00000000               10.00000000                0.00000000                1.00000000                0.00000000               -0.00000000               -0.07736952                0.00000000               -0.01478325                0.01386469
               2.00000000               10.00000000                0.00000000                1.00000000                0.00000000                0.00000000               -0.50667439                0.00000000                0.10125418                0.33725581
               3.00000000               10.00000000                0.00000000                1.00000000               -0.00000000                0.00000000               -0.13840703                0.00000000                0.12885923                0.16006068
               4.00000000               10.00000000                0.00000000                1.00000000                0.00000000                0.00000000               -0.00008270               -0.00000000                0.05200117                0.02104419
               5.00000000               10.00000000                0.00000000                1.00000000               -0.00000000                0.00000000               -0.00093750               -0.00000000                0.01774698                0.00256152
               6.00000000               10.00000000                0.00000000                1.00000000               -0.00000000               -0.00000000                0.00082635                0.00000000                0.00938472               -0.00168110
               7.00000000               10.00000000                0.00000000                1.00000000                0.00000000               -0.00000000                0.00261412               -0.00000000                0.01161195               -0.00794527
               8.00000000               10.00000000                0.00000000                1.00000000               -0.00000000                0.00000000                0.01337178               -0.00000000                0.01526116               -0.02890175
               9.00000000               10.00000000                0.00000000                1.00000000               -0.00000000                0.00000000                0.10536232                0.00000000                0.01131318                0.01894693
              10.00000000               10.00000000                0.00000000                1.00000000                0.00000000               -0.00000000               -0.57378455                0.00000000                0.07748030                0.38656722
               0.00534983                0.01100127                1.01834663                1.00000000               -0.50505134               -0.51211290                1.78122053               -0.14794972               -0.05334454                0.50188672
               1.00029932                0.00747925                1.01260073                1.00000000               -0.34825626               -0.37980192                1.26454601               -0.12409770               -0.27683849                0.24957499
               1.99838470                0.00379758                1.00668831                0.88292638               -0.08775341               -0.25878706                0.72591415               -0.11440153               -0.39778622                0.02781469
               2.99854425                0.00086459                1.00144981                0.46534838                0.06469454               -0.09311315                0.23407405               -0.03868563               -0.24931087               -0.09234178
               3.99967860               -0.00007510                0.99986040                0.37941666                0.07364985               -0.00703969               -0.04189955               -0.00912734                0.17510119               -0.08920927
               5.00001724               -0.00005133                0.99994136                0.38197893                0.01387504                0.00139951               -0.12902543                0.00834193                0.38939028               -0.07739410
               5.99995610               -0.00001565                0.99985896                0.43884682               -0.02748368                0.00534556               -0.25637121               -0.01533455                0.32623402               -0.06896756
               6.99946757               -0.00091072                0.99913362                0.61282308               -0.02307434                0.07259307               -0.54140224               -0.11461911               -0.06724967               -0.12147967
               7.99949461               -0.00470632                0.99237055                1.00000000                0.14779089                0.31341162               -0.94759346               -0.18460984               -0.35163266               -0.04407217
               9.00242339               -0.00868182                0.98436046                1.00000000                0.45862960                0.47854338               -1.53348233               -0.15255416               -0.15996082               -0.19359083
              10.00866720               -0.01207377                0.97749240                1.00000000                0.62438122                0.63824141               -2.15412325               -0.16018415                0.14991681               -0.51822087
               0.00739235                1.00588014                1.01486782                1.00000000               -0.47321687               -0.39484015                1.57805678               -0.07981628                0.18922566                0.40861103
               1.00266018                1.00368123                1.00932566                1.00000000               -0.34221662               -0.28892708                1.05381629               -0.08498569               -0.00792172                0.16374795
               2.00054802                1.00120971                1.00404938                0.39549151               -0.12832241               -0.18358275                0.56785814               -0.04954067               -0.04441321               -0.06767479
               3.00009373                0.99993346                1.00046059                0.00010000               -0.02513675               -0.04863757                0.18871330                0.02970784                0.14951444               -0.13501905
               4.00004528                0.99985450                0.99998867                0.00010000               -0.00113976               -0.00069637                0.01160706                0.02739890                0.31440285               -0.13809199
               5.00007094                0.99996266                0.99999101                0.00010000                0.00935793                0.00064446               -0.05393510                0.01466536                0.36824011               -0.05575494
               6.00023244                1.00003780                0.99992565                0.00010000                0.02978866               -0.00073064               -0.16878962                0.00747450                0.43177959                0.03897669
               7.00066671                0.99981521                0.99991489                0.01130471                0.06508109                0.03593582               -0.39692279               -0.02183886                0.33309460                0.00738735
               8.00153406                0.99842780                0.99623012                0.82577845                0.19574306                0.22188685               -0.77001601               -0.08243565                0.05908746                0.09125391
               9.00458157                0.99610361                0.98915049                1.00000000                0.44616198                0.36670787               -1.33384741               -0.11070982                0.04553357               -0.02595331
              10.01045730                0.99430865                0.98136730                1.00000000                0.58757307                0.49973830               -1.89280951               -0.09288491                0.26136943               -0.37661776
               0.00815132                2.00310446                1.01442001                1.00000000               -0.48812917               -0.22653730                1.48278260               -0.10501287                0.21553314                0.34474866
               1.00327003                2.00170071                1.00789131                1.00000000               -0.35048297               -0.15661742                0.88775917               -0.11451796                0.03319276                0.11138493
               2.00114166                2.00012593                1.00179974                0.05679078               -0.13882069               -0.07846876                0.30063041               -0.03920952                0.14809214               -0.10160498
               3.00049362                1.99989184                0.99983440                0.00010000               -0.04721460               -0.00146285                0.02658151                0.01585328                0.55484837               -0.17795918
               4.00019737                1.99991097                1.00003558                0.00010000               -0.01831837                0.00502809               -0.01437265                0.01391631                0.64455924               -0.11093712
               5.00012725                1.99996156                0.99999449                0.00010000                0.00278318                0.00031896               -0.07607015                0.00694066                0.62255392               -0.07411111
               6.00025303                1.99996973                0.99998537                0.00010000                0.02567741               -0.00454730               -0.14309788               -0.00827198                0.68656784               -0.02826358
               7.00064080                1.99980800                0.99999956                0.00010000                0.06522329                0.00345819               -0.37532747               -0.02071089                0.80039082                0.02382973
               8.00155750                1.99973142                0.99933140                0.15271799                0.18437746                0.06716519               -0.62730359               -0.07471142                0.43481830                0.10780290
               9.00432835                1.99865234                0.99304216                1.00000000                0.44209655                0.17330631               -1.08249933               -0.15635062                0.07020296                0.05765794
              10.01039943                1.99792100                0.98238201                1.00000000                0.60710845                0.28131134               -1.70339558               -0.15308904                0.08169586               -0.21905844
               0.00809961                3.00134939                1.01384621                1.00000000               -0.47512464               -0.14700723                1.41204552               -0.09924776                0.20561197                0.18771365
               1.00334836                3.00054888                1.00654816                1.00000000               -0.32634552               -0.09651084                0.74128178               -0.08611426                0.06382225                0.00879355
               2.00157270                2.99964033                1.00039736                0.00010000               -0.13613021               -0.03131756                0.06224253               -0.00013341                0.33071863               -0.10855591
               3.00062576                2.99990420                1.00003292                0.00010000               -0.06594022                0.00263334               -0.27475316                0.02596428                0.79723637               -0.19214403
               4.00025389                2.99995506                1.00001181                0.00010000               -0.02373851                0.00342142               -0.03931716                0.00676017                0.81973648               -0.07339967
               5.00015099                2.99996904                0.99999997                0.00010000               -0.00166668                0.00085958               -0.08261195                0.00062227                0.82224450               -0.06474312
               6.00022056                2.99994686                0.99999357                0.00010000                0.01699107               -0.00055968               -0.13862263               -0.00780670                0.83655610               -0.03771731
               7.00049081                2.99988438                0.99991053                0.00010000                0.04874711                0.00502527               -0.15229053               -0.02078285                0.89181619                0.00478577
               8.00119550                2.99977110                1.00031534                0.03760028                0.13870873                0.00529793               -0.61672718               -0.04463811                0.85321184                0.04565104
               9.00326498                2.99956974                0.99588494                1.00000000                0.38313462                0.07250077               -0.72343540               -0.07143007                0.11951016                0.02452245
              10.00885819                2.99993488                0.98428025                1.00000000                0.55932109                0.14580689               -1.54698026               -0.10694442               -0.01934127                0.01097642
               0.00776739                4.00016432                1.01318849                1.00000000               -0.45105872               -0.10197220                1.33173405               -0.08312483                0.16504307                0.07444516
               1.00325680                3.99977049                1.00510723                0.89663543               -0.29918574               -0.06053593                0.60888838               -0.05375279                0.09163069               -0.08022397
               2.00178367                3.99949957                0.99927392                0.00010000               -0.12793127               -0.00136454               -0.13007396                0.01308472                0.49761681               -0.10346750
               3.00069817                3.99994450                1.00012725                0.00010000               -0.07579697                0.00381105               -0.08116303                0.02612570                0.90724079               -0.07767717
               4.00026773                3.99997940                1.00000917                0.00010000               -0.02751387                0.00212199               -0.09138051                0.00196300                0.93523341               -0.06993098
               5.00014790                3.99997875                1.00000241                0.00010000               -0.00430856                0.00093923               -0.08629415               -0.00181923                0.97506019               -0.04566139
               6.00018156                3.99995854                0.99999066                0.00010000                0.01264973                0.00102825               -0.09586547               -0.00703982                0.98561383               -0.01968400
               7.00040089                3.99990851                0.99995845                0.00010000                0.03989077                0.00189129               -0.10031939               -0.01494591                1.01104952                0.00860030
               8.00097938                3.99983738                1.00013839                0.02444424                0.11675408                0.00461094               -0.03773290               -0.01132324                0.81455187                0.09364386
               9.00273597                4.00010235                0.99694528                1.00000000                0.32754450                0.04428595               -0.51931066               -0.00209964                0.19950414                0.01963717
              10.00753027                4.00083714                0.98614450                1.00000000                0.47942935                0.07837111               -1.37803124               -0.04666240                0.00485973                0.12274387
               0.00722477                4.99930995                1.01240282                1.00000000               -0.42867192               -0.07059844                1.23656177               -0.06256769                0.09518227               -0.02337705
               1.00293805                4.99933816                1.00342700                0.73610101               -0.27821961               -0.03032849                0.47588739               -0.01961457                0.14845638               -0.12952549
               2.00166038                4.99961304                0.99882686                0.00010000               -0.11348006                0.01076490               -0.34078220                0.01537209                0.66023280               -0.07173222
               3.00066845                4.99998042                1.00015877                0.00010000               -0.07007331                0.00244948               -0.19544251                0.01477642                1.06851463               -0.11670783
               4.00025891                4.99999750                1.00000635                0.00010000               -0.02664949                0.00134953               -0.12622949               -0.00101005                1.07380142               -0.06060351
               5.00013546                4.99998783                1.00000354                0.00010000               -0.00544527                0.00077986               -0.08648335               -0.00285062                1.10635556               -0.03030208
               6.00015000                4.99996742                0.99999451                0.00010000                0.00887964                0.00085076               -0.05627018               -0.00631413                1.11055399               -0.00822025
               7.00031305                4.99992220                0.99996478                0.00010000                0.03125934                0.00163617                0.00417240               -0.01365178                1.08022439                0.02522408
               8.00077519                4.99986332                1.00009433                0.03019139                0.09550905                0.00341048                0.40234141                0.00394986                0.79249143                0.14482784
               9.00222323                5.00045546                0.99791958                0.93793666                0.28400896                0.02340290               -0.36497083                0.01706871                0.26407545                0.08388741
              10.00645537                5.00150230                0.98801967                1.00000000                0.42321385                0.06048689               -1.26141576               -0.01325620                0.03676932                0.27170599
               0.00645960                5.99875235                1.01131093                1.00000000               -0.38981926               -0.04396050                1.13071973               -0.03724549                0.06103448               -0.11024634
               1.00256141                5.99916392                1.00203604                0.66147803               -0.25053751               -0.01117550                0.31517379                0.01656343                0.22944034               -0.12738976
               2.00144885                5.99971487                0.99889362                0.08026638               -0.09760826                0.00862195               -0.57685242                0.02840188                0.78044008               -0.05622163
               3.00060925                5.99999349                1.00013755                0.00010000               -0.06043626                0.00137452               -0.80852278                0.01048075                1.21052489               -0.10036885
               4.00024013                6.00000639                1.00000773                0.00010000               -0.02441414                0.00094292               -0.14762376               -0.00174646                1.20143673               -0.03395161
               5.00012096                5.99999434                1.00000391                0.00010000               -0.00596140                0.00060617               -0.09070408               -0.00307402                1.21743665               -0.01291454
               6.00012090                5.99997556                0.99999587                0.00010000                0.00554958                0.00067592               -0.01627882               -0.00533828                1.20892617                0.00189575
               7.00023196                5.99994123                0.99997802                0.00010000                0.02021106                0.00213284                0.09313130               -0.01029402                1.13684561                0.03132093
               8.00052512                5.99990559                1.00004005                0.04760890                0.06032094                0.00724043                0.80215412                0.01097477                0.76928524                0.16576468
               9.00143837                6.00057041                0.99884540                0.76817678                0.23231702                0.00797601               -0.24228292                0.03850804                0.37966889                0.13212308
              10.00517146                6.00204688                0.99116981                1.00000000                0.37330882                0.01373354               -1.22430750                0.00150305                0.18890173                0.43674349
               0.00565672                6.99843074                1.00998555                1.00000000               -0.33499232               -0.03232343                1.01387366               -0.00715647                0.06441533               -0.17394636
               1.00230679                6.99911465                1.00104776                0.65834930               -0.21289395                0.00240527                0.15805947                0.04736660                0.28906531               -0.10725882
               2.00139884                6.99978548                0.99883704                0.18383535               -0.08601237                0.01405826               -0.76995613                0.04743744                0.85026778               -0.04021094
               3.00058655                7.00000791                1.00013092                0.00010000               -0.05878543                0.00556434               -1.23488728                0.01168159                1.26470155                0.05204182
               4.00022313                7.00001636                1.00000686                0.00010000               -0.02408691                0.00204783               -0.18042442               -0.00227124                1.28080553                0.00866733
               5.00010481                6.99999995                1.00000402                0.00010000               -0.00633878                0.00041189               -0.10113407               -0.00346427                1.29982764                0.01075909
               6.00009635                6.99998094                0.99999713                0.00010000                0.00361640                0.00024352                0.01609961               -0.00395251                1.28822553                0.00757350
               7.00017714                6.99996486                0.99998763                0.00010000                0.01345761                0.00120870                0.16896135               -0.00298943                1.17911537                0.02331333
               8.00036551                7.00000813                0.99999664                0.08080685                0.03374847                0.00823096                1.16180615                0.02498707                0.74288799                0.14324573
               9.00085211                7.00061498                0.99955863                0.69856842                0.15834950                0.01236760               -0.08243477                0.05706944                0.51948117                0.15676137
              10.00353250                7.00177697                0.99473413                1.00000000                0.26803904               -0.02939962               -1.17518813               -0.00717174                0.39162169                0.38698033
               0.00494865                7.99810588                1.00859481                1.00000000               -0.27946478               -0.05506502                0.88620675                0.02385463                0.06865020               -0.24000558
               1.00215400                7.99921202                1.00026530                0.72365619               -0.17221517                0.02287171                0.04022375                0.07522439                0.31438702               -0.08149563
               2.00150434                7.99999604                0.99848332                0.31372804               -0.07709980                0.05292770               -0.88389030                0.06013474                0.88487391               -0.02214499
               3.00061200                8.00010478                1.00011003                0.00010000               -0.06508374                0.02480883               -1.17440692                0.00790921                1.31657106                0.15003767
               4.00020267                8.00004734                1.00000066                0.00010000               -0.02624523                0.00403845               -0.22493646               -0.00679177                1.29752691                0.08328448
               5.00008710                8.00000258                1.00000527                0.00010000               -0.00628644               -0.00041690               -0.11976980               -0.00377691                1.35546066                0.03704141
               6.00007694                7.99998043                0.99999843                0.00010000                0.00289390                0.00003363                0.04149091               -0.00325344                1.34878351                0.00670254
               7.00014498                7.99996540                0.99999084                0.00010000                0.01489045               -0.00104756                0.22612650                0.00065010                1.21584691                0.00458706
               8.00037475                8.00007021                0.99998538                0.14698819                0.03329758               -0.00426220                1.41481309                0.04210782                0.73185705                0.04949300
               9.00081093                8.00081776                0.99992789                0.75584392                0.11646489                0.01380592                0.11984679                0.08623160                0.55845656                0.18621138
              10.00270405                8.00145888                0.99598740                1.00000000                0.18931182                0.01269402               -0.98310608                0.02016998                0.43205787                0.19756151
               0.00392152                8.99732944                1.00693009                1.00000000               -0.20003963               -0.12951808                0.75208775                0.02951612                0.06261006               -0.26323697
               1.00192113                8.99957209                0.99963630                0.88775876               -0.11063724                0.04633111               -0.04934939                0.06063851                0.24870056               -0.04369418
               2.00170878                9.00084404                0.99715297                0.52137408               -0.06138506                0.16882604               -0.85643291                0.02201014                0.84694356               -0.01503381
               3.00069342                9.00050409                0.99975378                0.00010000               -0.07596420                0.07479129               -1.11056975               -0.00351590                1.27618453                0.19529058
               4.00018949                9.00009713                1.00003520                0.00010000               -0.02986181                0.00815488               -0.26676705               -0.00975668                1.27968996                0.16889270
               5.00009619                8.99999161                1.00000293                0.00010000               -0.00605141                0.00115164               -0.14243817               -0.00125714                1.39766165                0.06423293
               6.00006846                8.99998161                0.99999947                0.00010000                0.00020843                0.00013812                0.05875632               -0.00153962                1.39764626                0.00370727
               7.00010036                8.99994391                0.99999622                0.00010000                0.01434200               -0.00224277                0.27952743               -0.00437903                1.23219463               -0.04038906
               8.00035530                8.99992289                0.99995924                0.31152956                0.05438535               -0.01796132                1.48472057                0.03625249                0.77287385               -0.02860713
               9.00118806                9.00089110                1.00080730                1.00000000                0.11491727               -0.03141456                0.25113105                0.07050827                0.50827656                0.14556259
              10.00265365                9.00203085                0.99544317                1.00000000                0.14655869                0.12033944               -0.69152476                0.01751323                0.23860811                0.09759410
               0.00105367                9.99551552                1.00652101                1.00000000               -0.12015018               -0.18139174                0.65360351                0.17552757               -0.16179242               -0.29238206
               0.99985217               10.00013865                0.99922630                1.00000000               -0.00205638                0.05665612               -0.13293005                0.18595619               -0.03426098               -0.00430163
               2.00101254               10.00337256                0.99493326                0.84044701                0.07182124                0.25285212               -0.89033263                0.00347450                0.64155203                0.07797577
               3.00128859               10.00160061                0.99861593                0.37166400               -0.02462650                0.10965180               -1.25229245               -0.09858897                1.25685729                0.31012262
               4.00052001               10.00021044                0.99999917                0.35039586               -0.05555613                0.01133136               -0.32359763               -0.04569768                1.37703417                0.27603039
               5.00017747               10.00002562                0.99999063                0.36425350               -0.02130823                0.00340043               -0.18010338               -0.00323443                1.48224910                0.10695570
               6.00009385                9.99998319                1.00000826                0.39931924               -0.00306751                0.00015761                0.06167723               -0.00271514                1.47138804                0.00430279
               7.00011612                9.99992055                1.00002614                0.46948887                0.00293822               -0.00233624                0.31121692               -0.01203399                1.26843672               -0.10393527
               8.00015261                9.99971098                1.00013372                0.74193359               -0.00014939               -0.02119056                1.58457217               -0.00682320                0.68677274               -0.10782555
               9.00011313               10.00018947                1.00105362                1.00000000                0.03110957               -0.07016258                0.29530432                0.10024135                0.30342778                0.03175988
              10.00077480               10.00386567                0.99426215                1.00000000                0.06616712                0.18348237               -0.55469561                0.17973559               -0.08260374                0.13716206
               0.01042491                0.01699535                2.03562441                1.00000000               -0.43033570               -0.48965058                1.72799153               -0.10097996               -0.25349939                0.23619130
               1.00612155                0.01154163                2.02529092                1.00000000               -0.36148560               -0.35572562                1.26362034               -0.10421375               -0.24656577                0.01258395
               2.00319519                0.00583416                2.01451828                0.95512045               -0.21399272               -0.22990849                0.76582598               -0.09233928               -0.26700099               -0.09689207
               3.00184170                0.00013161                2.00468148                0.49668513                0.09076409               -0.12165777                0.29632897                0.12718552               -0.06904294               -0.11707815
               4.00501048               -0.00204073                1.99916201                0.40682487                0.29737724               -0.08962865               -0.01173012                0.08577540                0.45992201               -0.05391454
               5.00778924               -0.00164719                1.99741949                0.41313126                0.11609728                0.04789627               -0.22510621               -0.00974210                0.78407392               -0.01173799
               6.00733242               -0.00151273                1.99487258                0.48791038               -0.08229088                0.21658624               -0.49898506                0.02068094                0.60547491                0.00998416
               7.00614342               -0.00399215                1.98917196                0.70505902                0.02040382                0.32739478               -0.82452025                0.06700769                0.30804169                0.02743392
               8.00774050               -0.00860059                1.98104813                1.00000000                0.27677559                0.34648089               -1.13220280               -0.05242096                0.08545006                0.00089306
               9.01167893               -0.01345187                1.96933035                1.00000000                0.44969870                0.42511149               -1.52443673               -0.06622608               -0.08836552               -0.08769453
              10.01673447               -0.01811422                1.95691753                1.00000000                0.50555387                0.56922552               -1.99611576               -0.06030494               -0.17635610               -0.11450997
               0.01486883                1.01209884                2.03156114                1.00000000               -0.42088174               -0.45393849                1.65691486               -0.06429006               -0.04115893                0.34645724
               1.01066001                1.00798437                2.02107633                1.00000000               -0.34460069               -0.32682125                1.16884292               -0.07006016                0.02361220                0.06535045
               2.00797681                1.00353507                2.01135716                0.62617866               -0.18045064               -0.21071209                0.69515471               -0.06228885                0.14208379               -0.18863742
               3.00705100                0.99891503                2.00377427                0.00010000               -0.06095903               -0.16315650                0.24969411                0.22736722                0.41394232               -0.22922889
               4.00675763                0.99706298                2.00023214                0.00010000                0.01884117               -0.01005731                0.01941319                0.38186774                0.71154955               -0.19896137
               5.00742782                0.99883177                1.99892130                0.00010000                0.09770393                0.00780065               -0.14136557                0.41510979                0.81722243               -0.11285482
               6.00871171                1.00065313                1.99662421                0.00010000                0.14648037                0.04397741               -0.37200703                0.34219429                0.75397417                0.03073799
               7.01035743                0.99928180                1.99206154                0.20616885                0.16172202                0.22365519               -0.70264085                0.23647245                0.58793801               -0.02198458
               8.01194615                0.99486422                1.98459968                1.00000000                0.27080322                0.33357134               -1.04538085               -0.02846402                0.33170739               -0.03010046
               9.01577349                0.99079924                1.97332305                1.00000000                0.44238119                0.39352933               -1.48139076               -0.03058347                0.16537680               -0.06007399
              10.02079377                0.98757803                1.96214381                1.00000000                0.50202836                0.54100526               -1.89697466               -0.01113425                0.12082138               -0.22284756
               0.01736804                2.00791658                2.02965565                1.00000000               -0.40839257               -0.35565288                1.53205931               -0.09916107                0.02098582                0.39620703
               1.01328412                2.00500521                2.01775518                1.00000000               -0.31746423               -0.25122117                0.99485820               -0.11156891                0.07451856                0.07231317
               2.01101876                2.00161991                2.00601261                0.22096402               -0.02114935               -0.15901839                0.44759099               -0.14919661                0.39160615               -0.30842635
               3.01286113                1.99686848                2.00053163                0.00010000                0.08561668               -0.15253817               -0.00472801                0.27087456                0.91910092               -0.49436348
               4.01273109                1.99775812                1.99971255                0.00010000               -0.01799222                0.07477146               -0.04577779                0.56551962                1.25470978               -0.20875291
               5.01250129                1.99850882                1.99847860                0.00010000                0.04975936               -0.00672776               -0.16789290                0.53220026                1.27436999               -0.18394877
               6.01372628                1.99936681                1.99713804                0.00010000                0.20802461               -0.07063827               -0.34818091                0.50404900                1.18791022               -0.09768739
               7.01666178                2.00048095                1.99249345                0.00010000                0.09637471                0.04275136               -0.42969195                0.29305748                1.02160164                0.17853079
               8.01565377                1.99807084                1.98745393                0.43760928                0.08458371                0.26209082               -0.89612949                0.15407210                0.80280643               -0.13985114
               9.01835345                1.99441871                1.97835001                1.00000000                0.36502175                0.28940395               -1.34992103               -0.13565777                0.43503676                0.15065872
              10.02295421                1.99270588                1.96593209                1.00000000                0.46007559                0.44395013               -1.67972069               -0.06984447                0.19287558               -0.25169552
               0.01870835                3.00498579                2.02824091                1.00000000               -0.39830573               -0.24921393                1.43313032               -0.09781692                0.04505066                0.32012072
               1.01472530                3.00295995                2.01482564                1.00000000               -0.27893736               -0.17442663                0.82521071               -0.10840075                0.09123290                0.03851759
               2.01312961                3.00035470                2.00124485                0.07564307                0.08024932               -0.10593798                0.15364367               -0.15910596                0.43460837               -0.28426827
               3.01633028                2.99586427                1.99450494                0.00010000                0.16490390                0.07260630               -0.37328659                0.13760665                1.40434026               -0.15438225
               4.01642768                2.99855841                1.99921366                0.00010000                0.00664241                0.04243617               -0.14402099                0.44656789                1.86103692               -0.19935155
               5.01646313                2.99869722                1.99834776                0.00010000                0.01964367                0.02871922               -0.19185197                0.38501933                1.63787360               -0.13904975
               6.01682056                2.99924036                1.99722755                0.00010000                0.05257111                0.01192811               -0.26521137                0.37347810                1.69196420               -0.06768427
               7.01751455                3.00013683                1.99695419                0.00010000                0.21346383               -0.01815981               -0.42999545                0.21385771                1.32028195                0.14759213
               8.02108983                3.00010604                1.98766546                0.29929919                0.04553702                0.20115230               -0.54800563                0.00504643                1.08077642                0.38209373
               9.01842529                2.99658732                1.98553129                1.00000000                0.08663585                0.19696922               -1.05977050               -0.20092449                0.75887062                0.19414410
              10.02282255                2.99645703                1.96906039                1.00000000                0.43972579                0.30047881               -1.51202249               -0.07580156               -0.02857084               -0.15015807
               0.01946338                4.00293230                2.02663468                1.00000000               -0.37161905               -0.17878813                1.33561936               -0.08421704                0.08415741                0.21729078
               1.01574719                4.00151667                2.01217777                1.00000000               -0.22655270               -0.12396338                0.67158974               -0.08056782                0.12930003               -0.00125965
               2.01493232                3.99950116                1.99739852                0.05723135                0.08311869               -0.07045229               -0.11223631                0.00736066                0.92811542               -0.29524203
               3.01740956                3.99832061                1.99837674                0.00010000                0.19485911                0.08956374               -0.24659453                0.14831055                1.84993908                0.05564869
               4.01882951                3.99860684                1.99817239                0.00010000                0.10550799                0.01154847               -0.22220059                0.29830904                1.93216991               -0.15859997
               5.01951972                3.99908321                1.99827412                0.00010000                0.04633639                0.03476193               -0.20024235                0.33371737                1.99818156               -0.09411734
               6.01975623                3.99960538                1.99808269                0.00010000                0.02767702                0.02950095               -0.20257270                0.32319148                2.00685507               -0.01639402
               7.02007326                4.00011776                1.99799361                0.00010000               -0.02260124                0.01740432               -0.18298863                0.32393111                2.03005103                0.06137648
               8.01930421                4.00209388                1.99924534                0.29182058               -0.10446467                0.14444297               -0.01445134               -0.24772328                1.36791666                0.86761774
               9.01798397                3.99835810                1.98961379                1.00000000                0.11972727                0.15951571               -0.77826173               -0.22237742                0.43624916                0.08824208
              10.02169875                3.99871546                1.97243938                1.00000000                0.37147864                0.19758915               -1.35977143               -0.07863102               -0.00101396               -0.06561162
               0.01985527                5.00141002                2.02473124                1.00000000               -0.33101828               -0.13599819                1.23075277               -0.07757981                0.12624610                0.12400667
               1.01654509                5.00048068                2.00951775                1.00000000               -0.16911911               -0.08426141                0.52560628               -0.06027174                0.14345852               -0.07111551
               2.01647289                4.99894566                1.99318436                0.09725935                0.18228598               -0.03178838               -0.39521471               -0.01250835                1.09567899               -0.35450989
               3.02019081                4.99765554                1.99609115                0.00010000                0.25791899               -0.01500659               -0.41866187                0.27652736                2.16771718               -0.65894783
               4.02163127                4.99878938                1.99747541                0.00010000                0.09740699                0.03568024               -0.29785621                0.35348857                2.23503752               -0.06556811
               5.02213894                4.99939245                1.99827033                0.00010000                0.03092841                0.03290126               -0.20489582                0.29409356                2.29249879               -0.05710735
               6.02224983                4.99983038                1.99887460                0.00010000               -0.03171389                0.02149595               -0.11452157                0.27703195                2.31569019                0.00786945
               7.02150467                5.00048491                2.00008345                0.00010000               -0.21774029                0.02429066                0.06682175                0.28919939                2.56687435                0.12393485
               8.01789503                5.00299490                2.00804683                0.30294241               -0.20742478                0.06595501                0.45438861               -0.17465762                1.50877781                0.75441716
               9.01735617                4.99977764                1.99270058                1.00000000                0.13200921                0.13226599               -0.54858893               -0.20532131                0.17606005                0.09387673
              10.02053521                5.00040882                1.97477168                1.00000000                0.31790410                0.16524780               -1.25749084               -0.06535886               -0.02012065               -0.10057281
               0.01977046                6.00021234                2.02261439                1.00000000               -0.27643445               -0.10864182                1.12044728               -0.07265859                0.10687136                0.03584238
               1.01700612                5.99983145                2.00630348                0.92498970               -0.11315830               -0.04275605                0.35470384               -0.04811075                0.10643467               -0.12840306
               2.01750730                5.99886539                1.98846295                0.17433372                0.30451353                0.03302100               -0.68059112               -0.01808300                0.75172165               -0.32417251
               3.02309639                5.99802047                1.98382954                0.00010000                0.33275355                0.17064031               -0.97289819                0.21942293                2.30222826               -0.90147739
               4.02416237                5.99932045                1.99704752                0.00010000                0.06321000                0.06955156               -0.42745626                0.29162540                2.93153643               -0.01652755
               5.02436059                5.99974123                1.99818592                0.00010000                0.00210238                0.04106869               -0.21319652                0.22910943                2.52466290               -0.02991541
               6.02420441                6.00003530                1.99967442                0.00010000               -0.08339267                0.01592630               -0.03127500                0.21967014                2.57359865                0.02376682
               7.02269273                6.00060357                2.00186263                0.00010000               -0.38430408               -0.00157304                0.29801582                0.27279093                3.02994848                0.11448755
               8.01651833                6.00341298                2.01604308                0.32793092               -0.31145571               -0.00376579                0.86690576               -0.11042093                1.61910109                0.70729425
               9.01646362                6.00100342                1.99515434                1.00000000                0.13054405                0.11375488               -0.33971815               -0.15483021               -0.11434054                0.16440734
              10.01912921                6.00202041                1.97551385                1.00000000                0.26655932                0.12566003               -1.22095821               -0.05098940               -0.13873557               -0.10276920
               0.01916388                6.99923719                2.02027747                1.00000000               -0.22340612               -0.09784939                1.00737195               -0.04808440                0.06599402               -0.05363108
               1.01692982                6.99962556                2.00316119                0.90821436               -0.06208424               -0.00249449                0.17255668               -0.01189965                0.06477669               -0.10828585
               2.01792220                6.99960608                1.98460088                0.27725248                0.35971915                0.11878874               -0.92889916                0.08941195                0.53127352               -0.17877062
               3.02412420                7.00106835                1.97530225                0.00010000                0.39104106                0.26787089               -1.35256708                0.11460099                2.36664704               -0.26503689
               4.02574302                7.00018041                1.99639151                0.00010000                0.09410415                0.11584545               -0.58174331                0.05192068                3.39145928                0.00720307
               5.02600629                7.00021383                1.99797732                0.00010000                0.00189391                0.05003427               -0.23943884                0.13596769                2.72178894               -0.01192093
               6.02578090                7.00014891                2.00032199                0.00010000               -0.12117447                0.00482097                0.03809733                0.15126543                2.79123761                0.02663843
               7.02358280                7.00045345                2.00337923                0.00010000               -0.52470666               -0.02602121                0.50074498                0.22039629                3.43673524                0.08414994
               8.01528676                7.00291958                2.02323612                0.37084735               -0.39653292               -0.11928607                1.24559841               -0.01094806                1.75490583                0.55541508
               9.01565214                7.00205273                1.99835130                1.00000000                0.10973354                0.07360661               -0.11743165               -0.06470321               -0.37774434                0.27129544
              10.01748143                7.00292202                1.97649624                1.00000000                0.18292954                0.06108843               -1.18152312               -0.04342486               -0.29691466                0.11399816
               0.01803202                7.99825535                2.01772413                1.00000000               -0.16327907               -0.12140634                0.89285274               -0.01358411                0.05733185               -0.13333384
               1.01639923                7.99978156                2.00080447                0.97949790               -0.00896385                0.02697754                0.02101432                0.04035593                0.04626306               -0.05589932
               2.01785275                8.00124116                1.98232219                0.41373711                0.42074217                0.18216541               -1.05230909                0.12477618                0.67595283                0.07573206
               3.02481408                8.00337789                1.97651186                0.00010000                0.41012777                0.21657823               -1.33587551               -0.05432704                2.31244108                0.31989290
               4.02605530                8.00163736                1.99550127                0.00010000                0.11486832                0.15994676               -0.74377118               -0.15171694                3.36799623                0.04723695
               5.02711144                8.00074192                1.99760460                0.00010000                0.04673985                0.05427373               -0.28074860                0.02385171                2.90114239                0.01216105
               6.02699010                8.00013171                2.00082982                0.00010000               -0.13907275               -0.00422961                0.09348706                0.07599818                2.97400483                0.02314779
               7.02432999                8.00008315                2.00452253                0.01662585               -0.61450049               -0.06482669                0.66459531                0.09984360                3.72300884                0.03992568
               8.01470009                8.00102726                2.02829626                0.44909557               -0.45814345               -0.18200282                1.53315648                0.08760184                1.91278627                0.23291836
               9.01516712                8.00247555                2.00239694                1.00000000                0.09110287               -0.01336064                0.12314988                0.06221878               -0.45509063                0.23794995
              10.01652215                8.00324218                1.98033788                1.00000000                0.13550282                0.03775533               -0.99634971               -0.02238751               -0.31763724                0.40253239
               0.01583979                8.99680906                2.01504175                1.00000000               -0.10886624               -0.16424176                0.79154241                0.00168231                0.05484113               -0.14963928
               1.01475113                9.00016511                1.99901301                1.00000000                0.04907974                0.04761970               -0.10480229                0.04718142                0.09470719               -0.02502989
               2.01682138                9.00324939                1.98287134                0.63285126                0.39451710                0.23788949               -1.05195347                0.04117351                0.68821664                0.21489479
               3.02264147                9.00539991                1.97778860                0.00010000                0.42616360                0.25501340               -1.28815955               -0.23064450                2.12183213                0.31219924
               4.02534466                9.00337934                1.99466466                0.00010000                0.26737474                0.19776493               -0.91718407               -0.19949633                3.35044739                0.10411279
               5.02798896                9.00129930                1.99715124                0.00010000                0.13074866                0.07109015               -0.32319502               -0.03952902                3.06884760                0.02929819
               6.02795963                9.00006432                2.00117513                0.00010000               -0.16524211               -0.00316261                0.13411630                0.01298801                3.14779843                0.01731168
               7.02468412                8.99915692                2.00559055                0.04662916               -0.66566160               -0.11108436                0.80670324                0.00642501                3.80497739               -0.00745916
               8.01464640                8.99927952                2.02969441                0.61050623               -0.50012628               -0.17663659                1.61442985                0.03182430                1.91681529                0.00706322
               9.01468160                9.00178552                2.00502262                1.00000000                0.04270119               -0.11664953                0.31176169                0.05853002               -0.33854367                0.06759506
              10.01550042                9.00367712                1.98616950                1.00000000                0.08188254                0.09315500               -0.73412915               -0.04040382               -0.09558778                0.37876617
               0.01135357                9.99497051                2.01307207                1.00000000               -0.04510293               -0.18385460                0.62491015                0.12772111               -0.03134972               -0.11465839
               1.01090254               10.00073395                1.99734140                1.00000000                0.10439253                0.05688361               -0.25141607                0.16656284                0.03681010                0.00228127
               2.01344142               10.00599895                1.98219335                0.88939177                0.45843465                0.27495659               -1.06298365                0.04921376                0.46674619                0.18746260
               3.02007123               10.00847816                1.97495415                0.37658328                0.63622862                0.30782455               -1.34210327               -0.27733877                1.94301026                0.16705701
               4.02616599               10.00559266                1.99352805                0.35224940                0.47823313                0.22133115               -1.02022744               -0.23358881                3.54260666                0.08661107
               5.02963589               10.00216372                1.99639793                0.37210805                0.16131283                0.08644165               -0.35604155               -0.11151682                3.24222652                0.04875149
               6.02939224               10.00006846                2.00123354                0.42589866               -0.21963057                0.00041470                0.15357855               -0.07185136                3.31877207                0.02946366
               7.02524328                9.99786146                2.00622434                0.53329330               -0.83421360               -0.12954574                0.89193727               -0.07278065                3.95090603               -0.00397001
               8.01270797                9.99749453                2.03169144                0.86324705               -0.66515806               -0.17849927                1.69099217               -0.07978742                1.83449998                0.01475701
               9.01194012               10.00014256                2.00590609                1.00000000               -0.03885551               -0.16429605                0.49030715                0.10638991               -0.40803453               -0.03064969
              10.01193086               10.00510528                1.98890609                1.00000000               -0.00092563                0.14281578               -0.48690288                0.13931642               -0.01532950                0.20707557
               0.02094682                0.02385164                3.05290646                1.00000000               -0.44726941               -0.50736015                1.73164543               -0.10995570               -0.21581373                0.25298666
               1.01647413                0.01616012                3.03787314                1.00000000               -0.36463493               -0.36361414                1.25957035               -0.09725608               -0.26053615               -0.00659288
               2.01365412                0.00818198                3.02200483                0.92653409               -0.19772325               -0.22393432                0.77339544               -0.08736996               -0.23344335               -0.12525973
               3.01251966                0.00033746                3.00737639                0.50366723                0.12424507               -0.08387254                0.30255840                0.12401191                0.18214451               -0.12809062
               4.01613903               -0.00329366                2.99962579                0.43648455                0.37342466               -0.13816071                0.09093340                0.11766357                0.78018941               -0.00985396
               5.01998816               -0.00328971                2.99543923                0.44922515                0.20870527               -0.00638337               -0.17977171                0.00223775                0.96720267                0.00617936
               6.02031313               -0.00331923                2.98987926                0.51480011               -0.02676530                0.17063293               -0.50120134                0.04327939                0.87750513                0.04158448
               7.01945285               -0.00614122                2.98264321                0.70635337                0.03660409                0.21952434               -0.72230232                0.07609896                0.53937968                0.03380068
               8.02104521               -0.01179155                2.96972649                1.00000000                0.26669121                0.32115467               -1.13247858               -0.02784549                0.10261718                0.15776409
               9.02478667               -0.01842111                2.95387173                1.00000000                0.44602518                0.43035814               -1.53158454               -0.09541768               -0.08164573                0.00226964
              10.02996572               -0.02481651                2.93757008                1.00000000                0.51790415                0.56536584               -1.92826905               -0.11289064               -0.10612547               -0.13889708
               0.02753879                1.01877804                3.04800612                1.00000000               -0.42023930               -0.47514066                1.63277371               -0.05414899               -0.01224547                0.34431855
               1.02333640                1.01252397                3.03270252                1.00000000               -0.34235189               -0.33812279                1.15178773               -0.04530439                0.02289963                0.00203286
               2.02069175                1.00594264                3.01795247                0.58691635               -0.19193984               -0.20561345                0.66988744               -0.02410146                0.16519014               -0.28752824
               3.01949760                0.99949873                3.00545447                0.00010000               -0.07812557               -0.05317795                0.21547847                0.10190645                0.62820455               -0.32056155
               4.01912924                0.99532473                3.00037693                0.00010000                0.02628595                0.00240272                0.04948821                0.41766509                1.08327734               -0.16254728
               5.02002332                0.99664646                2.99716370                0.00010000                0.15212184                0.00729120               -0.16884678                0.56316794                1.12664308               -0.14473323
               6.02217168                0.99838710                2.99248551                0.00010000                0.22133395                0.03659401               -0.43341369                0.45454105                1.01418871               -0.09051042
               7.02445000                0.99605403                2.98586208                0.22242177                0.23675125                0.23135934               -0.66626835                0.21684954                0.78687203                0.12295458
               8.02690670                0.99141999                2.97532250                1.00000000                0.29474896                0.28300873               -0.94232431                0.02701485                0.38291217                0.17298132
               9.03034498                0.98588247                2.95952268                1.00000000                0.41627554                0.39391894               -1.37435839               -0.04093024                0.09138338                0.04802503
              10.03523222                0.98083714                2.94342781                1.00000000                0.48872360                0.53935098               -1.83592293               -0.04817906                0.06085258               -0.17132948
               0.03237197                2.01434883                3.04506119                1.00000000               -0.39685303               -0.40026319                1.52572591               -0.08049797                0.03773220                0.44558071
               1.02840344                2.00939766                3.02778848                1.00000000               -0.30873185               -0.28136633                1.00107510               -0.07232193                0.06420760                0.01415508
               2.02619734                2.00406971                3.01075156                0.21464963               -0.16138747               -0.16867899                0.48319851               -0.01149770                0.37917598               -0.44856998
               3.02517570                1.99927390                2.99973984                0.00010000                0.05736303               -0.02636421                0.00644306                0.19654189                1.06741343               -0.52072701
               4.02734460                1.99675440                2.99912002                0.00010000                0.15067288                0.10917268               -0.08939852                0.60423918                1.56575794               -0.25103237
               5.02818915                1.99685612                2.99663663                0.00010000                0.13258928                0.03730331               -0.20952250                0.77647492                1.46723645               -0.22358042
               6.02999638                1.99741265                2.99302175                0.00010000                0.12838954               -0.03692864               -0.37706580                0.74557939                1.52866972               -0.12108264
               7.03075694                1.99848597                2.99140573                0.00010000                0.08803404                0.06410160               -0.24611687                0.42322562                1.14084068                0.01565172
               8.03175706                1.99386862                2.98140881                0.42621221                0.18969886                0.21007856               -0.68926105               -0.08507397                0.57503380                0.26762737
               9.03455092                1.98945727                2.96604373                1.00000000                0.36678633                0.31531873               -1.22822909               -0.05978203                0.22779170                0.20492087
              10.03909279                1.98597050                2.94878760                1.00000000                0.45418710                0.47936417               -1.69075846               -0.04885871                0.11898107               -0.20314492
               0.03583117                3.01077278                3.04250882                1.00000000               -0.36620917               -0.31645099                1.40933138               -0.08799347                0.05464717                0.41633954
               1.03216908                3.00689665                3.02305237                1.00000000               -0.26228037               -0.21722379                0.82694295               -0.07641016                0.07427228                0.00500502
               2.03058556                3.00256906                3.00347024                0.07875063               -0.07126613               -0.12072412                0.24903848                0.00122352                0.49906092               -0.41975578
               3.03074376                2.99897145                2.99256719                0.00010000                0.15231220                0.00986839               -0.13969115                0.33432615                1.59553772               -0.09966045
               4.03363181                2.99750819                2.99713139                0.00010000                0.20754059                0.08956246               -0.21877578                0.50451171                2.15412461               -0.23697260
               5.03489457                2.99739253                2.99616293                0.00010000                0.09108038                0.06588555               -0.23431893                0.60762058                1.90175296               -0.17279455
               6.03545341                2.99764852                2.99468934                0.00010000                0.07819851                0.02854822               -0.28341290                0.52731590                1.79336876               -0.05893465
               7.03645854                2.99733606                2.99131063                0.00010000               -0.06097438               -0.02395971               -0.42472053                0.35276799                1.74935611               -0.05451087
               8.03423393                2.99562157                2.98935523                0.30636648                0.02944593                0.14698704               -0.15726653               -0.00933709                1.00228771                0.49793867
               9.03704746                2.99218885                2.97468953                1.00000000                0.34973219                0.26203157               -1.07573977               -0.07405675                0.31380167                0.26017948
              10.04122857                2.99042443                2.95403980                1.00000000                0.41811142                0.39215555               -1.50319033               -0.03814094               -0.00846334               -0.18371609
               0.03836436                4.00801981                3.03990088                1.00000000               -0.32854015               -0.24812048                1.30002292               -0.07938772                0.07176343                0.34176634
               1.03507896                4.00505318                3.01853903                1.00000000               -0.21086767               -0.15532523                0.64548644               -0.05897802                0.09555184               -0.01879108
               2.03414701                4.00165523                2.99702919                0.02890322                0.09220632               -0.05553207                0.00426744                0.04165361                1.05896223               -0.36406924
               3.03692309                3.99947127                2.99519536                0.00010000                0.24333722                0.11886068               -0.29656789                0.29391987                2.14854080                0.07848597
               4.03901375                3.99854564                2.99556516                0.00010000                0.16390702                0.11514082               -0.27496811                0.39256165                2.27054362               -0.15447239
               5.04020123                3.99817383                2.99599756                0.00010000                0.07927074                0.07706758               -0.24473330                0.45648235                2.26967202               -0.11745372
               6.04059917                3.99798361                2.99593920                0.00010000               -0.01809833                0.04422773               -0.22025326                0.45151135                2.26374611               -0.04231916
               7.03983926                3.99800678                2.99629868                0.00010000               -0.19408162                0.05979139               -0.16881886                0.24222596                2.38158891                0.21411251
               8.03671754                3.99680836                2.99984936                0.30556118               -0.07861687                0.12661805               -0.05618179                0.03954046                1.37218827                0.54976863
               9.03826692                3.99469790                2.98138005                1.00000000                0.25706378                0.23017951               -0.84155398               -0.05113140                0.22409923                0.15580106
              10.04185881                3.99381362                2.95894908                1.00000000                0.35918877                0.29959695               -1.33978080               -0.05431933                0.00993617               -0.17397580
               0.04017666                5.00581037                3.03701787                1.00000000               -0.28225666               -0.20484248                1.19316069               -0.05929702                0.07333154                0.24645679
               1.03735410                5.00379014                3.01393913                0.95002723               -0.15880559               -0.10503836                0.46909624               -0.02946822                0.10726411               -0.05874777
               2.03700055                5.00145842                2.99092256                0.01080310                0.11888191                0.00798362               -0.19349602                0.11843630                1.28230586               -0.31276294
               3.03973174                5.00134866                2.99178554                0.00010000                0.28899617                0.16407883               -0.35585691               -0.02506303                2.51930107               -0.47870235
               4.04278048                4.99981100                2.99404922                0.00010000                0.24272552                0.11070455               -0.35045531                0.15429733                2.60008250               -0.14158319
               5.04458625                4.99893388                2.99590562                0.00010000                0.09351081                0.07576113               -0.25475277                0.32540847                2.61910005               -0.07819985
               6.04465069                4.99853308                2.99770408                0.00010000               -0.10539708                0.05099427               -0.12196235                0.34575038                2.69057498                0.00494857
               7.04247831                4.99853189                3.00130122                0.00010000               -0.31585407                0.04642121                0.06311730                0.21219265                2.93120859                0.21534227
               8.03833361                4.99815393                3.00918210                0.31584211               -0.17293648                0.10269085                0.03814307                0.05792210                1.64072677                0.45031457
               9.03901958                4.99679244                2.98694780                1.00000000                0.17885712                0.17549667               -0.59741706               -0.01618443                0.11471316                0.11814889
              10.04191075                4.99641637                2.96286985                1.00000000                0.28911782                0.22266619               -1.16000424               -0.04666095                0.00321453               -0.16300735
               0.04121887                6.00392296                3.03371987                1.00000000               -0.23773212               -0.17809958                1.07848279               -0.04542919                0.05716237                0.14893363
               1.03884155                6.00295242                3.00913012                0.81443772               -0.11308254               -0.06711039                0.31424319               -0.00916164                0.11856345               -0.08292627
               2.03895722                6.00181490                2.98528179                0.01403560               -0.03861546                0.04462064               -0.34111566                0.13415578                1.09884289               -0.24493426
               3.03806924                6.00275284                2.98067958                0.00010000                0.27786325                0.03380985               -0.07755538               -0.23290243                2.76202229               -0.67085324
               4.04451448                6.00075974                2.99145860                0.00010000                0.49590422                0.09478356               -0.52354764               -0.02335082                3.24130506               -0.18877166
               5.04798732                5.99968905                2.99573998                0.00010000                0.17008414                0.07044838               -0.27342791                0.21338107                2.97434877               -0.06525962
               6.04791617                5.99900350                2.99937037                0.00010000               -0.17625283                0.04126182               -0.02907880                0.25573274                3.07608354                0.01422012
               7.04446227                5.99893520                3.00593834                0.00989896               -0.41503689                0.02280343                0.28189725                0.16890440                3.39760452                0.19386163
               8.03961543                5.99886218                3.01737816                0.33319124               -0.23907353                0.03546640                0.13040679                0.07152836                1.86755713                0.38156601
               9.03968080                5.99820783                2.99205103                0.93920713                0.10311528                0.10029273               -0.34630095                0.02111442                0.04137264                0.11476562
              10.04167773                5.99826694                2.96675064                1.00000000                0.19969383                0.14082684               -0.90530945               -0.02441029                0.02275755               -0.10900484
               0.04120917                7.00224837                3.03013299                1.00000000               -0.19302417               -0.16240184                0.96321343               -0.04425731                0.03723983                0.06786651
               1.03927892                7.00244794                3.00449890                0.74879492               -0.06629610               -0.03551006                0.15186506               -0.01289475                0.12774917               -0.05677169
               2.03988324                7.00235083                2.98025905                0.03766576               -0.15750353                0.07126567               -0.53163771               -0.00321420                1.04679753               -0.11417148
               3.03612885                7.00202486                2.97307958                0.00010000                0.27470038                0.06317232                0.01510052               -0.25158226                2.98238733               -0.26262972
               4.04537725                7.00170667                2.98837200                0.00010000                0.72406267                0.09796003               -0.72342296                0.01366768                3.69865401               -0.22034153
               5.05061011                7.00034284                2.99521524                0.00010000                0.25709732                0.06914172               -0.31189967                0.12228572                3.32148353               -0.07136148
               6.05051920                6.99935831                3.00075908                0.00010000               -0.23061981                0.02933757                0.05239526                0.16840269                3.42595865                0.01283739
               7.04599771                6.99898796                3.01000253                0.02347196               -0.50138263               -0.01913030                0.48644564                0.10906909                3.82046596                0.15091730
               8.04049154                6.99886325                3.02490861                0.35742540               -0.29803029               -0.02959461                0.22596144                0.04754872                2.08334510                0.29580488
               9.04003710                6.99879829                2.99720999                0.89817304                0.04063962                0.03488046               -0.14142821                0.01781754               -0.01415958                0.11205703
              10.04130434                6.99923290                2.97110366                1.00000000                0.12672328                0.07846622               -0.66115921               -0.01695478                0.06327973               -0.01872313
               0.03993460                8.00067492                3.02645187                1.00000000               -0.14534025               -0.16298296                0.85764572               -0.04993746                0.05018630                0.01360376
               1.03848120                8.00224222                3.00068559                0.75455982               -0.03092951                0.00433144               -0.02380334               -0.03639749                0.19188930               -0.00186224
               2.03931601                8.00324021                2.97743714                0.09015490               -0.23997266                0.14599756               -0.74208762               -0.07058269                1.29577157                0.05280698
               3.03368175                8.00401629                2.97339252                0.00010000                0.35769187                0.31404635               -0.52700249               -0.26566909                3.05290930                0.03790548
               4.04646985                8.00271894                2.98512524                0.00010000                0.95498255                0.12229663               -0.92626188               -0.02429227                3.78901660               -0.22951997
               5.05278140                8.00107189                2.99439030                0.00010000                0.30846297                0.07207008               -0.35585629                0.06119391                3.66095871               -0.06338591
               6.05263911                7.99959025                3.00186817                0.00010000               -0.28213447                0.02829029                0.12062101                0.07733166                3.73685771                0.01255624
               7.04713871                7.99855259                3.01328275                0.03871973               -0.59415209               -0.04475188                0.67520806                0.01814741                4.13552125                0.10644217
               8.04075607                7.99827029                3.03064851                0.39098431               -0.37356053               -0.10971417                0.36662059               -0.04395791                2.26149443                0.07369527
               9.03966750                7.99890544                3.00239089                0.89232814               -0.01433259               -0.00322227                0.01077632               -0.02645162               -0.00852619                0.08315307
              10.04046942                7.99983626                2.97606040                0.97898136                0.08019175                0.09025298               -0.55846762               -0.04972849                0.08124891                0.05193286
               0.03707583                8.99898872                3.02276094                1.00000000               -0.10901473               -0.17566006                0.75821229               -0.04774442                0.09191115               -0.00813670
               1.03598568                9.00253456                2.99754025                0.81264410               -0.01891563                0.06426417               -0.20214317               -0.03660219                0.29685238                0.02390641
               2.03669752                9.00527078                2.97611391                0.17665994               -0.23244664                0.26187925               -1.03394263               -0.04050390                1.48020762                0.11318308
               3.03133675                9.00830578                2.97399059                0.00010000                0.55691460                0.32971833               -1.46952337               -0.29929105                2.97129343                0.02813570
               4.04783581                9.00415261                2.98169152                0.00010000                1.18129613                0.07484752               -1.07488449               -0.15315119                3.87312888               -0.16360051
               5.05496267                9.00178425                2.99353903                0.00010000                0.33746562                0.07176842               -0.39450431                0.01533091                3.99938318               -0.04069249
               6.05458512                8.99992412                3.00268179                0.00010000               -0.36410265                0.04326888                0.17955031                0.01562227                4.03035884                0.02041339
               7.04768062                8.99809292                3.01613029                0.04252192               -0.76627914                0.00104864                0.82171535               -0.08587582                4.23670508                0.07111940
               8.03925954                8.99666897                3.03224784                0.41759744               -0.48692614               -0.11291147                0.58380008               -0.14771380                2.34838408               -0.12263050
               9.03794210                8.99873385                3.00704254                0.95185256               -0.04057058               -0.05479493                0.21889046               -0.02803547                0.13069971                0.03840570
              10.03844813                9.00103796                2.98076059                0.96881237                0.05060304                0.13488770               -0.56638072               -0.06964860                0.06465937                0.03932271
               0.03188802                9.99716172                3.01901921                1.00000000               -0.04209249               -0.18269947                0.58171013                0.11779658                0.11386156               -0.00640540
               1.03146709               10.00352750                2.99419798                0.92876448                0.04233482                0.09929350               -0.39494422                0.11394491                0.34403091                0.05011816
               2.03273471               10.00847780                2.97367358                0.62090637               -0.13264975                0.32070196               -1.25016982               -0.04212252                1.52763290                0.15715972
               3.02881410               10.01061065                2.97177386                0.36502668                0.85968249                0.23048707               -1.61367738               -0.46536084                3.09000718                0.13386778
               4.04992836               10.00421589                2.97959462                0.35077291                1.42512028                0.00632789               -1.17354128               -0.19591459                4.07702180               -0.17295074
               5.05731650               10.00250725                2.99286979                0.37082725                0.33572595                0.07230073               -0.38974512                0.04737007                4.21440772               -0.02655367
               6.05664288               10.00045563                3.00307983                0.41822940               -0.43200808                0.05315056                0.23106363                0.00909184                4.23654061                0.03674853
               7.04867634                9.99857357                3.01786489                0.51057130               -0.97410096                0.04806495                0.92691382               -0.12260614                4.40689145                0.15241417
               8.03716086                9.99601206                3.03395356                0.70060540               -0.69692722               -0.06569125                0.73756956               -0.24806864                2.46436300               -0.20796671
               9.03473780                9.99780954                3.01085977                1.00000000               -0.13463266               -0.09243012                0.48809215                0.00566804                0.23750673                0.02491797
              10.03446821               10.00253402                2.98452410                0.99049429               -0.02695868                0.14960553               -0.41090709                0.07445566                0.06764372               -0.01065197
               0.03617528                0.03185577                4.07025732                1.00000000               -0.43628199               -0.50252826                1.72014437               -0.10489338               -0.23491078                0.27516766
               1.03181246                0.02175100                4.05048233                1.00000000               -0.35761013               -0.36413109                1.26281938               -0.08518542               -0.26273971               -0.01372464
               2.02902307                0.01143368                4.02998619                0.92101189               -0.19744185               -0.23959015                0.81372268               -0.06630881               -0.23471383               -0.15389357
               3.02786362                0.00141364                4.01073265                0.51661399                0.17641733               -0.12732836                0.37254716                0.17401188                0.30297832               -0.13861444
               4.03255142               -0.00374009                4.00098068                0.47437072                0.45081032               -0.19420988                0.16286375                0.09694366                1.00651138               -0.00822525
               5.03687983               -0.00497254                3.99382406                0.49659894                0.25635633               -0.02877501               -0.14884803               -0.01044515                1.06938623                0.00471098
               6.03767855               -0.00589355                3.98484855                0.55025974                0.01019800                0.15939800               -0.50652350                0.02278979                0.95940284                0.03292179
               7.03708379               -0.00975387                3.97472591                0.72745981                0.04428882                0.27322429               -0.80719536                0.08022007                0.61677071                0.01118922
               8.03856432               -0.01663733                3.95839856                1.00000000                0.25593213                0.32788525               -1.13700644               -0.00977836                0.13128004                0.20191791
               9.04220243               -0.02470838                3.93869866                1.00000000                0.43254686                0.42961120               -1.51054903               -0.06917175               -0.07635999                0.02095990
              10.04721526               -0.03260762                3.91835215                1.00000000                0.50128320                0.55415429               -1.90090956               -0.09139341               -0.12084475               -0.14965233
               0.04523111                1.02683048                4.06421661                1.00000000               -0.40594599               -0.47651368                1.59856491               -0.04743738               -0.00604174                0.38214604
               1.04117165                1.01810969                4.04411208                1.00000000               -0.33512198               -0.34062711                1.13575617               -0.03636322                0.04355239               -0.01240952
               2.03852867                1.00903777                4.02475491                0.57480927               -0.19905118               -0.21514628                0.69415266               -0.01707448                0.21456400               -0.35798397
               3.03719062                1.00014035                4.00808384                0.00010000               -0.09073605               -0.10362101                0.29741338                0.16286763                0.82701904               -0.41221804
               4.03671395                0.99431781                4.00122191                0.00010000                0.03307392               -0.01384437                0.12203589                0.45986962                1.35231942               -0.22726096
               5.03785210                0.99473971                3.99554436                0.00010000                0.17915811                0.00052621               -0.14728593                0.62235427                1.32543412               -0.16048668
               6.04029711                0.99570043                3.98795593                0.00010000                0.27028879                0.03174413               -0.46251044                0.50453489                1.16966487               -0.05356619
               7.04325788                0.99297838                3.97873618                0.23857386                0.28233426                0.25496539               -0.72635436                0.24744161                0.95651390                0.27267839
               8.04594379                0.98664152                3.96575319                1.00000000                0.31189882                0.30139958               -0.98217355                0.02807393                0.45353071                0.23895368
               9.04949585                0.97958774                3.94583588                1.00000000                0.41283870                0.40293279               -1.36831459               -0.01897590                0.09024661                0.06209456
              10.05420057                0.97293393                3.92542535                1.00000000                0.47047136                0.53193027               -1.77246648               -0.03383860                0.05205935               -0.17954037
               0.05266811                2.02232549                4.06017017                1.00000000               -0.37902136               -0.41787967                1.48842369               -0.06454893                0.04034200                0.49448921
               1.04887790                2.01493846                4.03777669                1.00000000               -0.30085970               -0.29000946                0.99369190               -0.05585319                0.07099450               -0.01683004
               2.04665092                2.00713075                4.01567658                0.23382793               -0.15184803               -0.16779090                0.50654977               -0.02649529                0.43802875               -0.57214591
               3.04584094                1.99934122                4.00066049                0.00010000                0.02492690               -0.08624071                0.13156238                0.31207643                1.42423220               -0.78018965
               4.04714946                1.99598302                3.99792458                0.00010000                0.10516738                0.15280039               -0.08187982                0.74486282                1.91737435               -0.38087208
               5.04794429                1.99503798                3.99428815                0.00010000                0.11905605                0.05703409               -0.22138454                0.89232250                1.78055274               -0.27651256
               6.04953058                1.99474133                3.98959673                0.00010000                0.15736201               -0.02781081               -0.36329131                0.87752920                1.85260665               -0.10915183
               7.05109153                1.99534544                3.98757111                0.00010000                0.14929308                0.05876384               -0.44346825                0.46136188                1.45835903                0.13478860
               8.05251644                1.98939066                3.97366871                0.43589017                0.22194893                0.24913703               -0.80884241               -0.00911341                0.59579232                0.43415833
               9.05553051                1.98335028                3.95378543                1.00000000                0.36648345                0.34334299               -1.22574827               -0.04193871                0.22096156                0.22952428
              10.05984611                1.97803099                3.93211692                1.00000000                0.43156033                0.48436528               -1.64161755               -0.04432059                0.11541257               -0.19389876
               0.05871419                3.01847289                4.05642754                1.00000000               -0.34648695               -0.35334572                1.37108173               -0.06862730                0.04793409                0.48695251
               1.05524933                3.01230950                4.03136449                1.00000000               -0.25590957               -0.23421829                0.83101409               -0.05694624                0.06194966               -0.02304875
               2.05359600                3.00568196                4.00622562                0.09531473               -0.03347203               -0.11816535                0.29426772               -0.05448210                0.58271762               -0.55103060
               3.05457988                2.99841554                3.99171111                0.00010000                0.11592172                0.06653816               -0.08263014                0.38476620                2.02084058               -0.39996837
               4.05591444                2.99737382                3.99483814                0.00010000                0.11801764                0.13082722               -0.19401669                0.68767813                2.57834909               -0.28401948
               5.05694024                2.99588039                3.99366138                0.00010000                0.08128996                0.09767286               -0.25028706                0.71826152                2.27290620               -0.20552832
               6.05754024                2.99514421                3.99155929                0.00010000                0.04477757                0.05014598               -0.31168062                0.67363587                2.16205882               -0.06815228
               7.05783579                2.99415365                3.98845978                0.00010000                0.01082244               -0.04680119               -0.34811215                0.45917002                2.05600060               -0.00987203
               8.05775669                2.99162426                3.98452013                0.30552951                0.10904820                0.19358587               -0.52083501                0.07255546                1.30370385                0.74349653
               9.06001675                2.98645460                3.96401650                1.00000000                0.30980271                0.29327811               -1.05924612               -0.05836500                0.23351793                0.29924120
              10.06395274                2.98262123                3.93899659                1.00000000                0.39359870                0.41874494               -1.48789952               -0.03767079               -0.01215376               -0.19003240
               0.06362235                4.01525858                4.05263514                1.00000000               -0.30924365               -0.29763615                1.25358180               -0.06218910                0.05686193                0.43526709
               1.06052991                4.01025409                4.02508750                1.00000000               -0.20835532               -0.17974308                0.66182033               -0.04773920                0.07204587               -0.02854972
               2.05945524                4.00476744                3.99748387                0.03644645                0.06572485               -0.06220791                0.07475870                0.05472405                1.18563964               -0.48485142
               3.06184441                4.00067198                3.99244538                0.00010000                0.19914656                0.20908651               -0.25940179                0.33512018                2.50840366               -0.01814464
               4.06343817                3.99859956                3.99267303                0.00010000                0.13473562                0.13452304               -0.26798101                0.49589269                2.74831932               -0.21846486
               5.06453912                3.99699144                3.99337945                0.00010000                0.06459330                0.11028224               -0.26176438                0.55352697                2.72191876               -0.15539188
               6.06473004                3.99574425                3.99367763                0.00010000               -0.03721188                0.06769856               -0.23821811                0.52717375                2.70948584               -0.01018060
               7.06379488                3.99440942                3.99461723                0.00010000               -0.15317154                0.04992233               -0.21245240                0.41665753                2.87178846                0.26448564
               8.06166661                3.99326238                3.99812171                0.30703345               -0.02143217                0.14240609               -0.24358285                0.10563586                1.63037805                0.77202199
               9.06336624                3.98921584                3.97278271                1.00000000                0.25464090                0.25075160               -0.85853586               -0.04552791                0.10813892                0.20484783
              10.06675942                3.98640589                3.94564376                1.00000000                0.33931861                0.33629352               -1.31503073               -0.04086224                0.00177057               -0.21242665
               0.06747938                5.01252017                4.04859445                1.00000000               -0.26937062               -0.25913433                1.14048417               -0.05700909                0.07021772                0.35946712
               1.06478568                5.00871464                4.01889967                0.94483297               -0.16033926               -0.13204705                0.50271128               -0.03984066                0.09133828               -0.05185387
               2.06427260                5.00443780                3.98931444                0.01501454                0.13322469               -0.00686157               -0.12955457                0.11810398                1.54603555               -0.43601833
               3.06745017                5.00259727                3.98897401                0.00010000                0.26201179                0.13186920               -0.24196463                0.29710486                3.09253400               -0.36866376
               4.06951283                5.00006428                3.99046630                0.00010000                0.17079588                0.13113373               -0.31983043                0.29893304                3.16353203               -0.28201848
               5.07086609                4.99808604                3.99317528                0.00010000                0.05764522                0.10674895               -0.26647178                0.39152918                3.18960475               -0.13483732
               6.07066574                4.99649819                3.99643535                0.00010000               -0.11076360                0.07602234               -0.15159061                0.39318769                3.26778393                0.03677730
               7.06865081                4.99515210                4.00134579                0.00693600               -0.28013799                0.06850377               -0.05411280                0.34081743                3.49184615                0.27830890
               8.06506298                4.99447238                4.00880969                0.31915089               -0.13440643                0.10277103               -0.07068490                0.12038531                1.88668081                0.58947928
               9.06596269                4.99146963                3.98075224                1.00000000                0.18462143                0.19103492               -0.63033717               -0.02864628                0.07197830                0.15250779
              10.06875541                4.98934710                3.95157160                1.00000000                0.27927194                0.26003089               -1.12321937               -0.04096657                0.00712220               -0.22280860
               0.07009322                6.01007589                4.04418405                1.00000000               -0.22777542               -0.23288216                1.03179433               -0.06139977                0.07019442                0.28278387
               1.06781546                6.00761315                4.01258834                0.80386445               -0.10792653               -0.08899907                0.34340376               -0.04363071                0.11829260               -0.08088608
               2.06793469                6.00463021                3.98164064                0.01744748                0.21722809                0.03647535               -0.34031297                0.08505402                1.72571804               -0.41512105
               3.07216003                6.00330937                3.98227844                0.00010000                0.29966892                0.02527726               -0.02706078                0.24004310                3.71523853               -0.53547044
               4.07392807                6.00122224                3.98657657                0.00010000                0.18878831                0.10213319               -0.37373464                0.19423314                3.77013610               -0.36960323
               5.07593579                5.99912642                3.99271736                0.00010000                0.07998311                0.10251249               -0.28262412                0.26126268                3.72054197               -0.14105315
               6.07552773                5.99726470                3.99909285                0.00010000               -0.16493804                0.07048332               -0.06478692                0.27500567                3.78671108                0.04122608
               7.07263703                5.99577949                4.00750057                0.01734004               -0.38854731                0.04876467                0.09500192                0.26224341                4.05384163                0.24273612
               8.06775678                5.99531780                4.01865122                0.33665679               -0.23592186                0.05464722                0.11262364                0.09701365                2.11979393                0.51792227
               9.06791859                5.99303654                3.98822832                0.94067071                0.12141816                0.12421948               -0.40430679               -0.02500437                0.03598790                0.13282796
              10.07018515                5.99160651                3.95740766                1.00000000                0.22665507                0.19453466               -0.94092520               -0.03278948                0.02439812               -0.18765426
               0.07117686                7.00786252                4.03954174                1.00000000               -0.18181239               -0.20882068                0.92448718               -0.06903211                0.04989660                0.22849900
               1.06935874                7.00693466                4.00619849                0.72855988               -0.04497000               -0.04550972                0.15879215               -0.06294669                0.12282322               -0.07006752
               2.07027746                7.00516731                3.97396812                0.04298162                0.31501328                0.09061194               -0.61200292               -0.03526431                1.88185627               -0.34427743
               3.07565901                7.00310282                3.97560426                0.00010000                0.36514884               -0.00421876               -0.04771212                0.14818839                4.24321507               -0.57662126
               4.07758044                7.00210694                3.98192305                0.00010000                0.21949361                0.12526015               -0.47809271                0.19716320                4.31924496               -0.38439470
               5.08004888                7.00013629                3.99173933                0.00010000                0.09661688                0.10119946               -0.31121718                0.17264013                4.24666857               -0.13937488
               6.07951278                6.99790785                4.00136990                0.00010000               -0.21031469                0.05977120                0.01578462                0.16490910                4.28139732                0.03377500
               7.07584258                6.99612739                4.01310814                0.02774011               -0.48832887                0.01523697                0.24724053                0.16402593                4.57014385                0.20529362
               8.06974620                6.99556533                4.02775535                0.35807596               -0.33343458               -0.00779285                0.29790148                0.04458397                2.34536883                0.43023836
               9.06917389                6.99395402                3.99552274                0.90039336                0.06067431                0.06347630               -0.19358166               -0.03307108                0.00693688                0.13853479
              10.07095969                6.99323780                3.96327305                1.00000000                0.17857947                0.15087029               -0.79239748               -0.04047462                0.02395010               -0.13049244
               0.07056831                8.00589948                4.03487705                1.00000000               -0.13165584               -0.18917722                0.81816660               -0.07252579                0.05411796                0.19965933
               1.06925175                8.00670296                4.00032841                0.72056892                0.02464685                0.00980941               -0.05668728               -0.07402801                0.15951924               -0.01911411
               2.07106124                8.00644245                3.96748044                0.09926324                0.44662056                0.20546486               -0.97767959               -0.18901192                1.85121077               -0.19127069
               3.07818416                8.00322499                3.96597181                0.00010000                0.48883082                0.22392356               -0.76376427               -0.09421448                4.58407987               -1.08282322
               4.08083786                8.00372744                3.97697603                0.00010000                0.27017612                0.17655052               -0.65043835                0.18018883                4.89075331               -0.28776921
               5.08358768                8.00115041                3.99048748                0.00010000                0.09984720                0.09348348               -0.34185439                0.08350775                4.73585323               -0.11485168
               6.08283480                7.99846012                4.00324224                0.00010000               -0.26638041                0.06765357                0.08818165                0.06982939                4.73403406                0.03048342
               7.07826007                7.99608423                4.01802669                0.03500640               -0.60064845               -0.00651136                0.40853725                0.03557067                5.01619744                0.15560229
               8.07082184                7.99516194                4.03562867                0.38162960               -0.43376840               -0.10217314                0.53378751               -0.04112680                2.57321413                0.26048182
               9.06958471                7.99430607                4.00261246                0.89442776               -0.00068686                0.00653693                0.00339147               -0.04645452                0.02554526                0.13387184
              10.07080810                7.99462391                3.96916853                0.97200637                0.12233919                0.13810441               -0.67995621               -0.04832495                0.01779704               -0.08773589
               0.06811939                9.00407898                4.03020600                1.00000000               -0.07841809               -0.17868120                0.70985423               -0.05956568                0.09232277                0.15193169
               1.06733521                9.00713085                3.99497015                0.76595722                0.09279030                0.08589440               -0.29370744               -0.04626696                0.24631188                0.00710860
               2.06997519                9.00927660                3.96219249                0.17702780                0.45772600                0.37901703               -1.37682407               -0.20963052                1.40184595               -0.07026323
               3.07648973                9.00758129                3.94839814                0.00010000                0.66418026                0.61819913               -1.96262403               -0.29362405                4.67045222               -0.89186265
               4.08325880                9.00563795                3.97316697                0.00010000                0.52483114                0.12999916               -0.79277398                0.00986511                5.76029673               -0.18356874
               5.08698635                9.00200596                3.98926115                0.00010000                0.13583727                0.09103515               -0.36482717                0.02370633                5.12804142               -0.06560155
               6.08597554                8.99926092                4.00476613                0.00010000               -0.35670848                0.07736128                0.15433242                0.01421845                5.13342142                0.03148142
               7.07985218                8.99599716                4.02202486                0.02937740               -0.76368574                0.06781581                0.53932888               -0.07458747                5.35754016                0.07688629
               8.07070183                8.99352187                4.04137041                0.39494136               -0.55346732               -0.26190982                0.93359432               -0.18669450                2.85391480                0.10440947
               9.06878283                8.99408476                4.00940043                0.94250762               -0.06721645               -0.06498023                0.22274687               -0.04934853                0.14175147                0.09438497
              10.06935750                8.99599988                3.97484189                0.95762264                0.05746669                0.13706608               -0.56450510               -0.05113842                0.01227192               -0.07743248
               0.06327326               10.00232585                4.02470627                1.00000000               -0.01444730               -0.17531254                0.53352241                0.12488637                0.19363419                0.12206211
               1.06312879               10.00842085                3.98944251                0.91263835                0.15724671                0.12899995               -0.51691208                0.16420483                0.37567918                0.01451422
               2.06641819               10.01402279                3.95718995                0.61905873                0.64107728                0.47461889               -1.60339310                0.00270629                1.50259031               -0.01179687
               3.07595033               10.01558897                3.94268060                0.35941694                1.00961507                0.80076857               -2.23296680               -0.43870789                4.90748037               -0.28558549
               4.08661049               10.00632742                3.97005722                0.35132752                0.72442520                0.06894738               -0.89199468               -0.29572346                6.11977853               -0.14335349
               5.09043884               10.00297111                3.98860303                0.37266682                0.12587349                0.09651567               -0.36208127                0.02924490                5.45184672               -0.03024458
               6.08912796               10.00000735                4.00585482                0.41960201               -0.39657264                0.07464261                0.21728910                0.03871378                5.43623259                0.03758698
               7.08250738                9.99744055                4.02476261                0.50793621               -1.00638054                0.14433827                0.65357406               -0.23865992                5.72388110                0.07278058
               8.06900035                9.98992375                4.04644283                0.69662441               -0.81938323               -0.35981201                1.22755868               -0.39185185                3.11756917               -0.04051939
               9.06611972                9.99300646                4.01566793                1.00000000               -0.15226388               -0.10782944                0.46232287                0.10576279                0.28381627                0.06734399
              10.06595508                9.99736523                3.98068795                0.98450020               -0.01646422                0.13653488               -0.36530491                0.09563457                0.07895174               -0.08008690
               0.05579859                0.04143641                5.08730935                1.00000000               -0.43081293               -0.49283036                1.68641667               -0.09818716               -0.26302240                0.31310309
               1.05149046                0.02862612                5.06312952                1.00000000               -0.35445326               -0.36446911                1.26370807               -0.07561895               -0.29056701               -0.01417013
               2.04870953                0.01556667                5.03827928                0.92680686               -0.19528583               -0.24740979                0.83960815               -0.05799078               -0.25331936               -0.18039027
               3.04758474                0.00286279                5.01482733                0.53125185                0.22341596               -0.15362670                0.43759494                0.22325992                0.39500365               -0.16619134
               4.05317784               -0.00394062                5.00288307                0.51196671                0.49616321               -0.22237637                0.20861690                0.07878132                1.12724952               -0.01696788
               5.05750801               -0.00663610                4.99246227                0.54391657                0.27107456               -0.03912664               -0.12916914               -0.01775071                1.07837233                0.00446085
               6.05859934               -0.00887557                4.97974879                0.58584855                0.03651227                0.14431622               -0.50628336                0.01228900                0.95619774                0.02957669
               7.05823825               -0.01393797                4.96649930                0.75116565                0.05493618                0.26003593               -0.82389542                0.07513153                0.63761369                0.02670443
               8.05969806               -0.02246246                4.94698636                1.00000000                0.25338128                0.33913833               -1.14855570                0.00103594                0.13117056                0.23842718
               9.06330588               -0.03227635                4.92366075                1.00000000                0.42718894                0.43139485               -1.50133760               -0.05748721               -0.10130828                0.02712153
              10.06824184               -0.04195596                4.89955189                1.00000000                0.49359583                0.54375266               -1.86161871               -0.08269718               -0.14729250               -0.17467468
               0.06762702                1.03650811                5.07997742                1.00000000               -0.39578713               -0.47043646                1.55304443               -0.04430872               -0.00509009                0.43276168
               1.06366914                1.02498143                5.05541765                1.00000000               -0.33078686               -0.34087360                1.12592875               -0.02945373                0.05341312               -0.01535054
               2.06101128                1.01309257                5.03183553                0.58910454               -0.20490779               -0.22052922                0.71852363               -0.01451583                0.25802570               -0.41189657
               3.05957099                1.00132653                5.01140274                0.00010000               -0.11480873               -0.14099843                0.34886501                0.22853202                0.99750195               -0.46815923
               4.05871510                0.99383561                5.00281765                0.00010000                0.01134930               -0.02693303                0.17996945                0.52663467                1.54140369               -0.29711642
               5.05979797                0.99297264                4.99421798                0.02545237                0.18290289               -0.00775282               -0.12402915                0.66760143                1.40646686               -0.18791633
               6.06237316                0.99256759                4.98323530                0.00959839                0.29925216                0.02509112               -0.46961214                0.54279845                1.24470706               -0.03299944
               7.06578302                0.98866239                4.97133499                0.25829875                0.32522250                0.26980551               -0.74445030                0.29876068                1.04973869                0.33428670
               8.06887761                0.98092892                4.95567903                1.00000000                0.33473680                0.31236601               -1.01824285                0.05678684                0.50827105                0.28917833
               9.07247775                0.97203759                4.93215638                1.00000000                0.41084280                0.40717485               -1.36463788               -0.01156446                0.08691127                0.07110462
              10.07709447                0.96348157                4.90797848                1.00000000                0.46167137                0.52386240               -1.72524298               -0.03079083                0.04669049               -0.20728528
               0.07796578                2.03202768                5.07482967                1.00000000               -0.36488584               -0.42306263                1.44281533               -0.05745781                0.04196398                0.55834392
               1.07431693                2.02180864                5.04766232                1.00000000               -0.29458390               -0.29282821                0.98354689               -0.04653780                0.07443188               -0.02855307
               2.07207411                2.01115608                5.02088256                0.25123329               -0.14522928               -0.16757085                0.53607639               -0.04419012                0.50496058               -0.66822063
               3.07141234                2.00004283                5.00237108                0.00010000               -0.00048386               -0.10696693                0.19108176                0.36708455                1.60657462               -0.90466284
               4.07206443                1.99552072                4.99748242                0.00010000                0.03578583                0.16218659               -0.00258856                0.88497177                2.20392892               -0.50443902
               5.07212806                1.99320885                4.99220894                0.00010000                0.08505606                0.06090095               -0.15983609                0.99695527                2.04818953               -0.33215022
               6.07376555                1.99162626                4.98575592                0.00010000                0.18620429               -0.01815080               -0.43217562                0.98861635                2.14476854               -0.07562754
               7.07585214                1.99145814                4.98253636                0.00010000                0.18465211                0.07150533               -0.52824307                0.54966482                1.64145355                0.21589142
               8.07745859                1.98378486                4.96523197                0.42719604                0.23348983                0.25547886               -0.85946593                0.01413374                0.63234759                0.54797211
               9.08052194                1.97586714                4.94152877                1.00000000                0.36397375                0.35694006               -1.22212627               -0.02499831                0.22244867                0.24937648
              10.08473807                1.96852129                4.91595524                1.00000000                0.42161281                0.48076841               -1.59731782               -0.03804284                0.12025944               -0.21995537
               0.08691594                3.02804686                5.06993046                1.00000000               -0.33059497               -0.37347225                1.32935635               -0.06064447                0.04150663                0.55912028
               1.08360999                3.01912486                5.03967265                1.00000000               -0.25113218               -0.24308167                0.82879348               -0.04757410                0.05299642               -0.03931908
               2.08189330                3.00974115                5.00935559                0.10166247               -0.05309716               -0.11433498                0.32918012               -0.07549311                0.63807985               -0.65965622
               3.08254805                2.99918719                4.99091459                0.00010000                0.06776121                0.09013242               -0.05449818                0.39139275                2.24155448               -0.49572013
               4.08324852                2.99707935                4.99325105                0.00010000                0.05417485                0.15137331               -0.13498287                0.79925535                2.97958229               -0.38124306
               5.08363154                2.99419066                4.99115719                0.00010000                0.03238372                0.11716245               -0.23720849                0.83160902                2.66033215               -0.25011864
               6.08389619                2.99220458                4.98845573                0.00010000                0.04930850                0.06388422               -0.32182843                0.78436961                2.52511423               -0.04372135
               7.08461771                2.99009250                4.98434838                0.00010000                0.04275459               -0.05238335               -0.43976068                0.54063623                2.41143500                0.02437698
               8.08475129                2.98603850                4.97893853                0.29584829                0.13118196                0.20871912               -0.60743353                0.13924649                1.36856762                0.88157092
               9.08724135                2.97917639                4.95350460                1.00000000                0.31370130                0.30959845               -1.04603371               -0.02779243                0.19011837                0.33222838
              10.09102531                2.97309694                4.92428181                1.00000000                0.37839594                0.42343892               -1.45374614               -0.03624304               -0.01249993               -0.20509125
               0.09459689                4.02455824                5.06497251                1.00000000               -0.29257390               -0.32980296                1.21513220               -0.05839112                0.04593767                0.52584015
               1.09167115                4.01694701                5.03177544                1.00000000               -0.20474851               -0.19363195                0.66960374               -0.04189835                0.05839955               -0.03755947
               2.09050192                4.00886938                4.99852437                0.03277426                0.01154272               -0.05799367                0.12401712                0.04260464                1.28422940               -0.58839817
               3.09190200                4.00184547                4.99000732                0.00010000                0.12720769                0.24775704               -0.21320376                0.37806509                2.86951813               -0.04139337
               4.09304607                3.99854818                4.99020554                0.00010000                0.08665014                0.15938715               -0.23257942                0.61539760                3.25657800               -0.27423730
               5.09363501                3.99555210                4.99076228                0.00010000                0.02525154                0.13542832               -0.25633839                0.65667545                3.20823668               -0.18177051
               6.09355110                3.99290394                4.99117484                0.00010000               -0.04020278                0.08244114               -0.26453156                0.63990201                3.19072180                0.00255540
               7.09283095                3.99041047                4.99204963                0.00010000               -0.11957383                0.05611160               -0.28970673                0.51892372                3.32445007                0.34713310
               8.09115962                3.98795924                4.99497770                0.29858556                0.00383497                0.16877514               -0.35441670                0.17790655                1.77287910                0.86154454
               9.09290765                3.98205911                4.96420933                1.00000000                0.25062471                0.26102911               -0.85436485               -0.02566447                0.05092103                0.24962283
              10.09617212                3.97699007                4.93264846                1.00000000                0.32644698                0.35496765               -1.28682920               -0.03744557                0.00009908               -0.22650434
               0.10097057                5.02145080                5.05982755                1.00000000               -0.25096950               -0.29634478                1.10457951               -0.05899298                0.06129276                0.47172792
               1.09846088                5.01525222                5.02399336                0.93220247               -0.15618238               -0.14555671                0.51067550               -0.03949273                0.08610454               -0.05339127
               2.09784692                5.00858128                4.98833147                0.00660646                0.09848353               -0.00052961               -0.07555518                0.10848362                1.79925985               -0.53514360
               3.10043055                5.00414233                4.98694624                0.00010000                0.20014629                0.17838526               -0.19806988                0.36109414                3.54110434               -0.29061371
               4.10184985                5.00026709                4.98765261                0.00010000                0.09893742                0.16813691               -0.26953304                0.45945515                3.67966974               -0.27743609
               5.10240930                4.99689922                4.99057618                0.00010000               -0.00069979                0.13759226               -0.25484963                0.49165968                3.77305133               -0.16033907
               6.10183585                4.99385340                4.99467227                0.00010000               -0.12342042                0.09947655               -0.19509322                0.48157914                3.86057310                0.05577165
               7.09994089                4.99121473                5.00021896                0.00261210               -0.25875379                0.08085515               -0.14536166                0.43551881                4.03082614                0.35304034
               8.09666078                4.98941400                5.00776841                0.31134224               -0.11218285                0.11578621               -0.13487439                0.16530893                2.10059673                0.66752664
               9.09769723                4.98439698                4.97434106                1.00000000                0.18768514                0.20173917               -0.64527576               -0.02406232                0.03555524                0.20256283
              10.10041448                4.98019629                4.94040547                1.00000000                0.27172509                0.29111652               -1.11133376               -0.03832352                0.00281561               -0.24872648
               0.10581418                6.01863134                5.05435576                1.00000000               -0.20633671               -0.26627211                0.99503782               -0.06339527                0.06611144                0.41442332
               1.10375081                6.01403588                5.01599819                0.79018505               -0.10163485               -0.09728531                0.33935435               -0.04622112                0.12551288               -0.08848675
               2.10378148                6.00885879                4.97847553                0.00746895                0.18436319                0.05220982               -0.29708543                0.08224861                2.11741053               -0.54061590
               3.10743808                6.00541318                4.98013837                0.00010000                0.28484000                0.13283635               -0.25912721                0.28299038                4.11001205               -0.47973468
               4.10947828                6.00191092                4.98398391                0.00010000                0.12219056                0.16761150               -0.27380286                0.33339999                4.29557126               -0.35816990
               5.10988189                5.99830394                4.99008750                0.00010000               -0.03055525                0.14430037               -0.24852844                0.33349424                4.38464302               -0.16924428
               6.10886718                5.99489347                4.99807463                0.00010000               -0.19505793                0.10155109               -0.12174065                0.33330554                4.50253762                0.05821762
               7.10598073                5.99202758                5.00783838                0.01218544               -0.37918108                0.06764893                0.00032700                0.32278687                4.67989876                0.31712324
               8.10128356                5.99027496                5.01963064                0.32847010               -0.21683088                0.05382830                0.08008469                0.11949298                2.41689093                0.59035085
               9.10164411                5.98609389                4.98396490                0.94355198                0.12617318                0.13939350               -0.43558830               -0.02508261                0.03931507                0.17469834
              10.10380702                5.98281240                4.94793214                1.00000000                0.21629084                0.23329486               -0.94458236               -0.03473779                0.01344698               -0.24333913
               0.10889360                7.01612536                5.04862273                1.00000000               -0.15845932               -0.23137471                0.87981725               -0.06688072                0.04729125                0.37728349
               1.10730901                7.01330652                5.00767474                0.71276553               -0.03895028               -0.04738012                0.14436045               -0.05912496                0.13046066               -0.09791258
               2.10811459                7.00962548                4.96801900                0.03240416                0.28646092                0.11658210               -0.57302975                0.02039414                2.37091465               -0.53464055
               3.11303823                7.00679906                4.97212534                0.00010000                0.37562478                0.20763857               -0.41735491                0.12117600                4.61097113               -0.71721565
               4.11562709                7.00361932                4.97881014                0.00010000                0.15292038                0.19043563               -0.33280552                0.16385698                4.89199252               -0.43517426
               5.11609663                6.99978523                4.98899089                0.00010000               -0.04243803                0.14745429               -0.25267218                0.18077372                5.02303775               -0.17074471
               6.11477833                6.99588442                5.00107477                0.00010000               -0.25407500                0.09551055               -0.04927295                0.18479394                5.12819061                0.05005470
               7.11101513                6.99256771                5.01494734                0.02017183               -0.48970041                0.03601738                0.15054864                0.18508177                5.29947862                0.27957658
               8.10498432                6.99049057                5.03086664                0.34818631               -0.31784959               -0.02050500                0.30536731                0.04840815                2.72959349                0.51434714
               9.10465814                6.98718485                4.99333836                0.90003918                0.06491965                0.08056476               -0.23001104               -0.03169682                0.04652230                0.16250341
              10.10628271                6.98486219                4.95525571                1.00000000                0.16245730                0.18501536               -0.79471205               -0.03695532                0.00903269               -0.22788296
               0.11011424                8.01400385                5.04281520                1.00000000               -0.10460514               -0.19636150                0.75650948               -0.06653806                0.04507884                0.36147619
               1.10906819                8.01308827                4.99955184                0.70038573                0.02912901                0.01280567               -0.07822022               -0.05984956                0.14453525               -0.07429048
               2.11069682                8.01119043                4.95788355                0.08411169                0.33997800                0.22652644               -0.92069275               -0.01652353                2.30133731               -0.45481383
               3.11586775                8.00956595                4.95811724                0.00010000                0.45362127                0.34803413               -0.67818626               -0.23688552                4.94470716               -1.33773613
               4.11976925                8.00571963                4.97211647                0.00010000                0.26822524                0.18903622               -0.48243641               -0.08806423                5.66971208               -0.44086199
               5.12123226                8.00125303                4.98755321                0.00010000                0.00056638                0.12857171               -0.27197092                0.04558754                5.66878232               -0.13895344
               6.11978058                7.99680368                5.00363181                0.00010000               -0.30780177                0.10283730                0.01955548                0.06032068                5.71709042                0.04281049
               7.11507622                7.99274792                5.02145349                0.02412063               -0.60729991                0.01635062                0.30699555                0.01365954                5.88640425                0.21793035
               8.10763458                7.98986486                5.04132426                0.36914372               -0.42188355               -0.12737832                0.57190447               -0.05323979                3.04774905                0.41510229
               9.10663855                7.98770519                5.00245872                0.89689417                0.00393249                0.01906155               -0.02700048               -0.03523238                0.07215834                0.15770888
              10.10771323                7.98651271                4.96246128                0.96966497                0.10746780                0.15538519               -0.65684630               -0.04285166                0.00697578               -0.22242657
               0.10939399                9.01219813                5.03695802                1.00000000               -0.04685574               -0.17007152                0.62763249               -0.05485095                0.06593364                0.29292448
               1.10892543                9.01356263                4.99166610                0.74026397                0.09562293                0.08923887               -0.32319123               -0.03066577                0.19658732               -0.05631179
               2.11130645                9.01415601                4.94857742                0.14323452                0.24229413                0.35282520               -1.28626307               -0.04756414                1.74462038               -0.29697815
               3.11377131                9.01375974                4.93473811                0.00010000                0.54361415                0.33840311               -0.99304494               -0.42636397                5.19996124               -1.08880106
               4.12217873                9.00740004                4.96583604                0.00010000                0.60765115                0.09243381               -0.67220498               -0.23854091                6.85674036               -0.32371796
               5.12592434                9.00235666                4.98624248                0.00010000                0.11555570                0.09827883               -0.29116614               -0.00676446                6.24057244               -0.07277350
               6.12448984                8.99794117                5.00576844                0.00010000               -0.38485975                0.11131574                0.08090409               -0.00172853                6.23254753                0.03103489
               7.11822714                8.99289472                5.02691687                0.02052491               -0.77637924                0.09028679                0.45808618               -0.12542232                6.43667755                0.11646999
               8.10896226                8.98794300                5.05091972                0.38423442               -0.54607469               -0.24040180                0.90835319               -0.21781442                3.40373307                0.26413402
               9.10730565                8.98756608                5.01149748                0.94537149               -0.05758076               -0.05418820                0.19215783               -0.02213231                0.12472003                0.13941065
              10.10781064                8.98796989                4.96947049                0.95653242                0.05049964                0.13637303               -0.51507228               -0.04491939               -0.00945119               -0.18941557
               0.10628822               10.01060242                5.02968966                1.00000000                0.02087803               -0.15957066                0.45051712                0.11648616                0.24228628                0.24058896
               1.10649700               10.01487305                4.98385974                0.89897624                0.16301068                0.13104226               -0.54628840                0.13938257                0.44061346               -0.05478827
               2.10954843               10.01824694                4.94160572                0.59198545                0.37997181                0.40909328               -1.48061150               -0.10275356                1.98256823               -0.22772269
               3.11409643               10.01633401                4.92711453                0.35660902                0.84265382                0.25742739               -1.20418768               -0.50141934                5.49327753               -0.61085769
               4.12640151               10.00756831                4.96175473                0.35154021                0.82297040                0.01682671               -0.74806426               -0.23349283                7.32289435               -0.26203893
               5.13055584               10.00321860                4.98562817                0.37388081                0.14032210                0.08619394               -0.29472167                0.03623477                6.66816981               -0.03636294
               6.12920795                9.99903000                5.00742562                0.42041460               -0.39949481                0.10888265                0.13463408                0.03856339                6.63869569                0.03665681
               7.12256595                9.99455366                5.03093637                0.50723004               -1.03005086                0.16589403                0.58100907               -0.26477806                6.91997274                0.07222701
               8.10860693                9.98505683                5.05850473                0.69485070               -0.81984675               -0.28861721                1.13214231               -0.43214443                3.80698125                0.21098364
               9.10616901                9.98662143                5.02010622                1.00000000               -0.12998603               -0.09446520                0.41509964                0.09550338                0.32127404                0.13096761
              10.10600721                9.98924017                4.97721800                0.98455492               -0.01617993                0.12702761               -0.32880159                0.08153099                0.09927366               -0.16073159
               0.07927447                0.05278169                6.10398565                1.00000000               -0.42432926               -0.48162901                1.64820124               -0.09159606               -0.30201094                0.35597213
               1.07503118                0.03689136                6.07575649                1.00000000               -0.35077976               -0.36214677                1.25825302               -0.06835315               -0.33274821               -0.01328103
               2.07225888                0.02071339                6.04677835                0.93993944               -0.19356374               -0.25168162                0.85454562               -0.05309646               -0.28415098               -0.19636721
               3.07115991                0.00493900                6.01948455                0.54709627                0.26012966               -0.17055842                0.48218481                0.26676275                0.45114156               -0.19751079
               4.07746147               -0.00394862                6.00515301                0.54779262                0.52108225               -0.22752587                0.23406473                0.05984310                1.17729333               -0.02056160
               5.08158155               -0.00839474                5.99124067                0.58861876                0.26520000               -0.03705408               -0.11762615               -0.01809757                1.04244375                0.00268972
               6.08276547               -0.01227504                5.97472288                0.61929210                0.05084693                0.13083517               -0.49549382                0.00605676                0.91885417                0.02332061
               7.08259849               -0.01889115                5.95824800                0.77282882                0.06304093                0.25182035               -0.82505127                0.07208931                0.62062048                0.02780610
               8.08402629               -0.02925413                5.93542745                1.00000000                0.25061227                0.34336099               -1.15788832                0.01284961                0.10227058                0.26445116
               9.08761074               -0.04115722                5.90867191                1.00000000                0.42304199                0.42990259               -1.49529398               -0.05261797               -0.13783554                0.03000087
              10.09248713               -0.05295428                5.88111978                1.00000000                0.48763946                0.53391495               -1.82993091               -0.07940006               -0.18307588               -0.20576253
               0.09424885                1.04796540                6.09527750                1.00000000               -0.38670449               -0.46211784                1.50880185               -0.04117014               -0.01023916                0.49002796
               1.09038180                1.03326989                6.06663066                1.00000000               -0.32723778               -0.33894824                1.11560502               -0.02431814                0.05528504               -0.01304411
               2.08770409                1.01819657                6.03912538                0.61431209               -0.21116327               -0.22335567                0.73547264               -0.01269920                0.28256894               -0.45288184
               3.08615854                1.00323342                6.01506114                0.00010000               -0.14886574               -0.16014467                0.37659794                0.28961060                1.13456484               -0.51817741
               4.08472678                0.99377612                6.00482129                0.03511585               -0.02973740               -0.02952730                0.20701870                0.59650041                1.68309306               -0.34784960
               5.08556379                0.99123472                5.99306378                0.07814112                0.16737340               -0.00747420               -0.11116532                0.71551075                1.43908542               -0.18233339
               6.08807424                0.98903331                5.97856369                0.04806297                0.31225688                0.01417006               -0.46104662                0.58626968                1.27978515               -0.06083049
               7.09180893                0.98362705                5.96384717                0.27928817                0.36067881                0.27705135               -0.74817032                0.34961199                1.10924244                0.39662138
               8.09528782                0.97417948                5.94538834                1.00000000                0.35628547                0.31723673               -1.03194302                0.08297246                0.53905297                0.32356959
               9.09893464                0.96314181                5.91854313                1.00000000                0.41011881                0.40734038               -1.35649723               -0.00745759                0.08478264                0.07425786
              10.10349020                0.95238487                5.89092049                1.00000000                0.45555612                0.51414163               -1.69121518               -0.03013334                0.04075135               -0.24240109
               0.10784209                2.04353933                6.08902648                1.00000000               -0.35284446               -0.42264763                1.39835548               -0.05213983                0.04028295                0.63120587
               1.10431365                2.03011239                6.05744762                1.00000000               -0.29003641               -0.29299436                0.97348594               -0.03953713                0.07761464               -0.02984518
               2.10204136                2.01624627                6.02639811                0.26653013               -0.14705413               -0.16747737                0.56432032               -0.04823539                0.55826962               -0.75098563
               3.10137257                2.00173611                6.00448213                0.00010000               -0.03255908               -0.11842585                0.22472615                0.42857691                1.77530357               -1.00650413
               4.10139018                1.99546084                5.99787281                0.00010000               -0.03689924                0.16248564                0.10534235                1.01281859                2.46463616               -0.62139134
               5.10063458                1.99145577                5.99109143                0.00010000                0.03541736                0.05449829               -0.00710079                1.09629713                2.17838574               -0.34796318
               6.10209853                1.98800836                5.98095321                0.00010000                0.19049881               -0.00912204               -0.56109937                1.09855937                2.29672805               -0.08244804
               7.10444456                1.98664988                5.97700625                0.00010000                0.20362272                0.07504329               -0.56097667                0.64275071                1.81124309                0.26602568
               8.10617098                1.97709061                5.95647939                0.41816987                0.24058229                0.26652294               -0.88063369                0.05118548                0.66632636                0.62364826
               9.10925620                1.96698959                5.92934291                1.00000000                0.36136826                0.36383969               -1.21304296               -0.01104287                0.23479640                0.26890128
              10.11339835                1.95732855                5.90017056                1.00000000                0.41421471                0.47206626               -1.56367809               -0.03319727                0.12686034               -0.25507583
               0.12005993                3.03951245                6.08301467                1.00000000               -0.31758134               -0.38305252                1.28834143               -0.05558620                0.03662265                0.63798796
               1.11688412                3.02741000                6.04794036                1.00000000               -0.24721336               -0.24650946                0.82352321               -0.04165115                0.04561590               -0.04450767
               2.11511566                3.01484702                6.01280922                0.10704052               -0.06843037               -0.11113366                0.35873335               -0.08392607                0.68550394               -0.75619718
               3.11551551                3.00086490                5.99062115                0.00010000                0.00739098                0.10381750               -0.00313520                0.41799211                2.50004164               -0.60888566
               4.11526348                2.99702584                5.99213848                0.00010000               -0.02866516                0.16262118               -0.08501907                0.89421869                3.33834350               -0.47989737
               5.11494221                2.99232468                5.98891721                0.00010000               -0.02060777                0.12406310               -0.21618354                0.94625028                2.99669447               -0.32391478
               6.11485133                2.98885087                5.98512272                0.00010000                0.03197418                0.07852312               -0.32711393                0.89809107                2.84217540                0.00340845
               7.11558169                2.98512792                5.97966457                0.00010000                0.05602436               -0.05841881               -0.48850689                0.63477684                2.65981791                0.04470410
               8.11597182                2.97950994                5.97237146                0.28678041                0.14470732                0.22863904               -0.67714598                0.20420949                1.48536955                1.01650644
               9.11847584                2.97041860                5.94309582                1.00000000                0.30882590                0.31911268               -1.03493749               -0.01130258                0.19190889                0.36902282
              10.12214833                2.96182619                5.90992167                1.00000000                0.36724962                0.42117979               -1.42208149               -0.03500123               -0.01280093               -0.22732848
               0.13093526                4.03587828                6.07693778                1.00000000               -0.27892101               -0.34704823                1.17738198               -0.05392278                0.03923920                0.61616848
               1.12814605                4.02518220                6.03847957                1.00000000               -0.20136583               -0.19929720                0.66870819               -0.03674759                0.04874330               -0.04069162
               2.12690794                4.01402360                5.99996421                0.03240977               -0.02962276               -0.05316316                0.15972925                0.04097492                1.37635421               -0.68109323
               3.12755359                4.00381246                5.98818131                0.00010000                0.04534170                0.28945243               -0.17736443                0.40626326                3.22488812               -0.04960610
               4.12781478                3.99871326                5.98802144                0.00010000                0.00904798                0.18556761               -0.20605521                0.71686890                3.73201240               -0.31597451
               5.12773455                3.99393703                5.98825268                0.00010000               -0.02788305                0.16146734               -0.24609533                0.76154063                3.67106626               -0.20684970
               6.12725712                3.98957882                5.98838699                0.00010000               -0.06267664                0.09314795               -0.28696053                0.74637789                3.63334432                0.01041315
               7.12648102                3.98548150                5.98882310                0.00010000               -0.11463124                0.06481209               -0.34135555                0.63370377                3.71907272                0.39948717
               8.12496449                3.98166339                5.99103337                0.29057395                0.01164412                0.18300211               -0.41114645                0.24356702                1.93114544                0.99612292
               9.12671390                3.97337184                5.95569541                1.00000000                0.24593287                0.26733585               -0.84757792               -0.01751753                0.02997610                0.29466512
              10.12988315                3.96575214                5.91990718                1.00000000                0.31692451                0.36313519               -1.26296078               -0.03524118               -0.00095555               -0.24216794
               0.14037364                5.03257148                6.07068604                1.00000000               -0.23697865               -0.31545515                1.06545493               -0.05497638                0.05952253                0.57612974
               1.13800385                5.02342406                6.02911318                0.91724323               -0.15343650               -0.15100846                0.51141976               -0.03639121                0.08534457               -0.05871856
               2.13730491                5.01378376                5.98780333                0.00256677                0.04736335                0.00533857               -0.03323426                0.12323378                2.01657829               -0.64070119
               3.13895112                5.00665395                5.98501261                0.00010000                0.10856906                0.23615590               -0.18553742                0.41258647                3.98414812               -0.26631746
               4.13947629                5.00073719                5.98507564                0.00010000                0.01781712                0.20940242               -0.25317766                0.54878297                4.17959117               -0.28171542
               5.13930746                4.99555403                5.98807829                0.00010000               -0.06209321                0.16948945               -0.24957701                0.58900075                4.32210184               -0.16608214
               6.13823442                4.99071383                5.99253349                0.00010000               -0.15681293                0.12238646               -0.22417682                0.57203098                4.40984933                0.07304603
               7.13617120                4.98642416                5.99843856                0.00010000               -0.26408050                0.09560392               -0.19763751                0.53270694                4.54098507                0.40991098
               8.13295281                4.98316998                6.00611220                0.30336842               -0.10672338                0.11815970               -0.18159871                0.21723754                2.32369839                0.77537613
               9.13403673                4.97576532                5.96784673                1.00000000                0.18650482                0.20806825               -0.64948978               -0.01957991                0.01809792                0.25206822
              10.13668291                4.96908889                5.92934492                1.00000000                0.26461768                0.30686648               -1.09807203               -0.03581973               -0.00031762               -0.27412980
               0.14813058                6.02956918                6.06408481                1.00000000               -0.19246334               -0.28113639                0.94920380               -0.05846254                0.06695676                0.52927822
               1.14620595                6.02216203                6.01937543                0.77500046               -0.09939280               -0.10006499                0.33664116               -0.04354824                0.13122276               -0.10766966
               2.14614272                6.01413037                5.97569893                0.00168862                0.13229734                0.06413623               -0.25785981                0.11568993                2.42719298               -0.68735876
               3.14885189                6.00853558                5.97709589                0.00010000                0.18738165                0.20628414               -0.30194419                0.34535507                4.70119556               -0.54978313
               4.14989036                6.00290131                5.98110051                0.00010000                0.03430174                0.22668508               -0.28959811                0.39348476                4.85759185               -0.38380710
               5.14953793                5.99732682                5.98774679                0.00010000               -0.10313767                0.18508278               -0.23693266                0.40313962                5.01690399               -0.17826005
               6.14782760                5.99202655                5.99665803                0.00010000               -0.24294627                0.13189718               -0.15199474                0.39762385                5.15503034                0.07827886
               7.14467900                5.98739358                6.00750711                0.00538491               -0.39297608                0.08398257               -0.05223251                0.39345601                5.30691018                0.37592823
               8.13996808                5.98402658                6.02025291                0.32017703               -0.21378041                0.04943304                0.04771387                0.15669346                2.71243064                0.70044945
               9.14040339                5.97753321                5.97951656                0.94515993                0.12757602                0.14724734               -0.44913854               -0.02292888                0.03153439                0.21930034
              10.14251960                5.97188947                5.93851601                1.00000000                0.21162079                0.25310514               -0.93563540               -0.03323728                0.01360827               -0.29001432
               0.15401868                7.02694875                6.05713809                1.00000000               -0.14469844               -0.23877327                0.82334348               -0.05929885                0.04723909                0.49637819
               1.15257169                7.02142276                6.00908570                0.69722919               -0.03867586               -0.04681224                0.14083062               -0.05070548                0.13334171               -0.13693828
               2.15324516                7.01506648                5.96250753                0.02439224                0.22577941                0.13286879               -0.52663041                0.08683737                2.76011896               -0.74179628
               3.15708728                7.01077963                5.96725717                0.00010000                0.26547879                0.26609583               -0.46616265                0.20989442                5.36565358               -0.84217002
               4.15855473                7.00527089                5.97526694                0.00010000                0.05788638                0.24915007               -0.34906921                0.16909124                5.58035312               -0.53307011
               5.15824501                6.99925568                5.98668588                0.00010000               -0.12172946                0.18964636               -0.23051729                0.19954737                5.76885116               -0.20499973
               6.15612015                6.99335177                6.00038444                0.00010000               -0.31023601                0.12980560               -0.07862495                0.21484270                5.89966758                0.06618569
               7.15204029                6.98810381                6.01611911                0.01258170               -0.50865474                0.05398670                0.09770803                0.22117871                6.05452035                0.34237093
               8.14594705                6.98415864                6.03386270                0.33982048               -0.31625118               -0.03078390                0.28616389                0.07049807                3.10146843                0.64626439
               9.14571526                6.97871027                5.99092252                0.89940936                0.06792909                0.08839604               -0.24926510               -0.02600919                0.04669499                0.19858840
              10.14730563                6.97415100                5.94737881                1.00000000                0.15903690                0.20355652               -0.78056244               -0.03478230                0.01286298               -0.30060968
               0.15799660                8.02479371                6.05000724                1.00000000               -0.09224893               -0.19428744                0.68667975               -0.05663121                0.04032333                0.48132057
               1.15707411                8.02122579                5.99876400                0.68124020                0.02629996                0.01369772               -0.07479627               -0.04650534                0.12864345               -0.13351252
               2.15852260                8.01678775                5.94906659                0.06717589                0.28856343                0.22741904               -0.84138094                0.05910687                2.83992332               -0.70292744
               3.16284538                8.01385749                5.95240809                0.00010000                0.31367675                0.30141710               -0.50581974               -0.13801889                5.96641434               -1.52977621
               4.16479613                8.00788431                5.96732731                0.00010000                0.13013092                0.21272218               -0.42499565               -0.12016216                6.51310991               -0.59101799
               5.16544799                8.00111975                5.98504806                0.00010000               -0.07598998                0.16099206               -0.24228213                0.01793695                6.57583474               -0.19470053
               6.16327633                7.99462266                6.00363335                0.00010000               -0.35761453                0.13680207               -0.00955254                0.05927635                6.62596571                0.05293376
               7.15829570                7.98847331                6.02416660                0.01662042               -0.62523708                0.03699380                0.25052435                0.00912025                6.79333054                0.28356888
               8.15077159                7.98341090                6.04706676                0.36108187               -0.42024223               -0.12672849                0.54767998               -0.04616759                3.49715911                0.58282675
               9.14989086                7.97930113                6.00207245                0.89829296                0.00854525                0.02575993               -0.04907003               -0.02195491                0.06300700                0.19158427
              10.15094249                7.97596060                5.95603160                0.96976332                0.10516353                0.16519273               -0.63201086               -0.03821175                0.00841441               -0.30671223
               0.16002190                9.02306300                6.04275865                1.00000000               -0.03743509               -0.15596803                0.54388481               -0.04751785                0.05294899                0.39437297
               1.15964755                9.02169671                5.98850632                0.71326041                0.08868438                0.08560059               -0.30543528               -0.02486254                0.17210906               -0.11780228
               2.16179559                9.01961486                5.93646723                0.10648089                0.17913938                0.33119986               -1.15813422               -0.02982804                2.46660083               -0.48924952
               3.16323034                9.01680797                5.92853724                0.00010000                0.35468220                0.23807464               -0.35482484               -0.36340170                6.60284847               -1.37557933
               4.16888923                9.00952533                5.95972287                0.00010000                0.43175269                0.06824737               -0.51656245               -0.22869193                7.87884105               -0.42317643
               5.17186539                9.00247553                5.98343783                0.00010000                0.05314390                0.11763661               -0.26088426               -0.03770844                7.31050216               -0.11434017
               6.16995211                8.99608781                6.00638421                0.00010000               -0.42154715                0.14017367                0.05070249               -0.01572452                7.28132078                0.03473523
               7.16343445                8.98884369                6.03118658                0.01634980               -0.78781152                0.11863862                0.39924365               -0.14658612                7.50585454                0.16778462
               8.15419588                8.98162408                6.05953748                0.37708829               -0.53539918               -0.22187559                0.81467850               -0.22098448                3.94069635                0.41346666
               9.15272647                8.97922546                6.01324359                0.94652231               -0.04867169               -0.04464056                0.15826417               -0.01140738                0.10626399                0.17601788
              10.15322245                8.97745485                5.96454044                0.95747860                0.04959815                0.13474894               -0.47967657               -0.03833603               -0.01416113               -0.25818078
               0.15977883               10.02167435                6.03371662                1.00000000                0.02461707               -0.13886524                0.36978961                0.10203705                0.28484934                0.32291352
               1.16002500               10.02293780                5.97851675                0.88453769                0.15179725                0.12410880               -0.51873253                0.12461407                0.50175423               -0.11123645
               2.16281477               10.02341174                5.92757772                0.56747742                0.28209378                0.37968792               -1.35072992               -0.11402254                2.78853050               -0.33286728
               3.16566687               10.01861899                5.91859685                0.35544336                0.58699850                0.18110118               -0.53581734               -0.46447102                7.10565321               -0.81256572
               4.17455474               10.00924926                5.95509594                0.35179559                0.62322366               -0.02760770               -0.55530893               -0.19077447                8.51709977               -0.25687847
               5.17813135               10.00347248                5.98270860                0.37457159                0.10194688                0.09969578               -0.27185744                0.03543924                7.84440473               -0.04631203
               6.17659368                9.99742614                6.00854750                0.42077205               -0.41518133                0.13383229                0.09788203                0.03283669                7.79359184                0.03831784
               7.16982772                9.99084608                6.03638280                0.50748992               -1.03117780                0.20023967                0.50871097               -0.28331022                8.10552579                0.11261544
               8.15597012                9.97897339                6.06908568                0.69323410               -0.79978920               -0.26506820                1.00258631               -0.44446421                4.45807085                0.29308028
               9.15383193                9.97840832                6.02396992                1.00000000               -0.11265619               -0.08171464                0.36138755                0.09465634                0.35623216                0.16574484
              10.15371700                9.97865558                5.97411191                0.98551523               -0.01149360                0.12007312               -0.30180555                0.07418160                0.12412790               -0.21021562
               0.10621670                0.06597216                7.12027337                1.00000000               -0.41739047               -0.47043198                1.61029354               -0.08607823               -0.34453479                0.40004786
               1.10204279                0.04661216                7.08829458                1.00000000               -0.34591264               -0.35827538                1.24694028               -0.06292852               -0.38469053               -0.01041993
               2.09929845                0.02694527                7.05537019                0.95562052               -0.19049394               -0.25300828                0.85962285               -0.04926493               -0.32706682               -0.20338611
               3.09823292                0.00775940                7.02447103                0.56288144                0.28345691               -0.17940027                0.50779229                0.30166202                0.47710290               -0.23256394
               4.10496758               -0.00368841                7.00756436                0.57992994                0.52770505               -0.21527547                0.24182006                0.04127778                1.18169211               -0.01768011
               5.10878702               -0.01022851                6.99010975                0.62779005                0.25007542               -0.02962693               -0.11036290               -0.01509103                0.98298222                0.00336947
               6.10996909               -0.01609077                6.96983891                0.64797067                0.05795419                0.12114262               -0.48205927                0.00405416                0.86168120                0.01525526
               7.10994610               -0.02458019                6.94999828                0.79051812                0.06752338                0.24167556               -0.82293854                0.06948951                0.57830568                0.02932199
               8.11131956               -0.03709522                6.92382859                1.00000000                0.24553669                0.34435920               -1.15780405                0.02238650                0.05987688                0.28209779
               9.11485683               -0.05141877                6.89375487                1.00000000                0.41825104                0.42705244               -1.48656592               -0.05042853               -0.17738237                0.03009670
              10.11968458               -0.06567263                6.86295327                1.00000000                0.48277474                0.52553959               -1.80646289               -0.07836779               -0.21873985               -0.23899237
               0.12471592                1.06126784                7.11015345                1.00000000               -0.37889595               -0.45287648                1.46877229               -0.03822097               -0.01813224                0.54920438
               1.12092696                1.04302941                7.07772975                1.00000000               -0.32418709               -0.33550652                1.10327582               -0.01989338                0.05104653               -0.00769727
               2.11823218                1.02441518                7.04654498                0.64256871               -0.21802920               -0.22463660                0.74463451               -0.00787297                0.29021190               -0.48134348
               3.11656638                1.00596540                7.01893470                0.00010000               -0.19289279               -0.17033374                0.39467970                0.34772235                1.23860037               -0.56565779
               4.11437432                0.99415883                7.00695803                0.07523790               -0.08645443               -0.02679425                0.21397196                0.66450427                1.78854296               -0.33931972
               5.11483729                0.98947522                6.99199468                0.12613987                0.14055758                0.03123314               -0.10496562                0.73950835                1.44843531               -0.07901258
               6.11718547                0.98512065                6.97401437                0.08313685                0.31529671               -0.02454809               -0.44897201                0.60887705                1.29637039               -0.17533600
               7.12114322                0.97783657                6.95637158                0.29868545                0.38886215                0.27707251               -0.74476126                0.39162227                1.14626321                0.44865778
               8.12496272                0.96634837                6.93504017                1.00000000                0.37490156                0.31849636               -1.03274368                0.10720468                0.55811385                0.35047201
               9.12864125                0.95285176                6.90502644                1.00000000                0.40960243                0.40556206               -1.34577714               -0.00478715                0.08343952                0.07533875
              10.13315476                0.93958277                6.87415417                1.00000000                0.45135125                0.50456157               -1.66558307               -0.03012992                0.03662528               -0.28048522
               0.14192915                2.05691463                7.10279677                1.00000000               -0.34315616               -0.41862674                1.35815019               -0.04720648                0.03763895                0.70817952
               1.13849759                2.03990203                7.06713204                1.00000000               -0.28620778               -0.29133246                0.96295046               -0.03306557                0.08144039               -0.02536523
               2.13620500                2.02245253                7.03216896                0.28268781               -0.15269383               -0.16820392                0.58611533               -0.04294464                0.59798043               -0.82314489
               3.13544371                2.00435273                7.00686561                0.00010000               -0.07285708               -0.13275525                0.24932172                0.49882055                1.97198262               -1.09848125
               4.13474785                1.99577570                6.99958927                0.00010000               -0.14141748                0.15869665                0.30791351                1.16942132                2.73505341               -0.69593057
               5.13261536                1.99039615                6.99206692                0.00010000               -0.04812843                0.05379422                0.14270726                1.16932356                2.03935030               -0.35192681
               6.13378529                1.98341826                6.97453394                0.00010000                0.19677336               -0.01408424               -0.63092425                1.16859937                2.23265059               -0.07995854
               7.13655083                1.98096126                6.97131683                0.00010000                0.23315903                0.06665820               -0.57757637                0.76392771                2.03490143                0.29763254
               8.13844847                1.96927470                6.94761929                0.41037762                0.24879315                0.27331370               -0.88518260                0.08979570                0.69748336                0.67911714
               9.14152669                1.95669247                6.91726791                1.00000000                0.35857479                0.36762960               -1.20105750                0.00159829                0.25168115                0.28742984
              10.14561996                1.94441860                6.88468168                1.00000000                0.40932681                0.46154954               -1.53745280               -0.02924495                0.13566784               -0.29329201
               0.15779699                3.05289531                7.09569728                1.00000000               -0.30692443               -0.38522000                1.24969179               -0.05080776                0.03259575                0.71982060
               1.15472775                3.03720276                7.05614312                1.00000000               -0.24372030               -0.24708360                0.81634632               -0.03611051                0.03933591               -0.04419210
               2.15292259                3.02105110                7.01653026                0.11471881               -0.07540660               -0.10995615                0.38278098               -0.08850970                0.73025468               -0.84609035
               3.15321962                3.00331030                6.99085189                0.00010000               -0.06016304                0.10545799                0.04249506                0.45902431                2.73568329               -0.73162734
               4.15171933                2.99733277                6.99155067                0.00010000               -0.13192112                0.17579163               -0.04230825                1.00539468                3.65061162               -0.61146119
               5.15058120                2.99055110                6.98683352                0.00010000               -0.08634891                0.09289394               -0.18432417                1.07908075                3.28598245               -0.47259189
               6.14999235                2.98483897                6.98191345                0.00010000               -0.00079293                0.11415869               -0.32477145                1.02404569                3.10229250                0.10569287
               7.15056534                2.97916973                6.97457824                0.00010000                0.05175351               -0.06675195               -0.51627837                0.74954349                2.85963150                0.04753432
               8.15102742                2.97181464                6.96539561                0.27752220                0.14819916                0.24331237               -0.71082428                0.27481874                1.60496119                1.13189465
               9.15352932                2.96020435                6.93280586                1.00000000                0.30450937                0.32545186               -1.02282214                0.00528946                0.21316239                0.40530963
              10.15711761                2.94881376                6.89584018                1.00000000                0.35882869                0.41524254               -1.39704310               -0.03358323               -0.01320266               -0.25293964
               0.17229810                4.04921023                7.08852015                1.00000000               -0.26785104               -0.35344701                1.13951185               -0.04950030                0.03423293                0.70353369
               1.16961959                4.03496036                7.04514960                1.00000000               -0.19854150               -0.20103821                0.66433747               -0.03170491                0.04127887               -0.04174826
               2.16832727                4.02025341                7.00171895                0.03581888               -0.06385238               -0.05092828                0.18870179                0.04289996                1.44215214               -0.76548159
               3.16834254                4.00646189                6.98646003                0.00010000               -0.03561619                0.32955493               -0.18214565                0.43298529                3.53726519               -0.08236964
               4.16761494                3.99929153                6.98608444                0.00010000               -0.08258811                0.21104702               -0.18302467                0.82244078                4.18549347               -0.36499777
               5.16669078                3.99225403                6.98584037                0.00010000               -0.09836857                0.17661845               -0.23477053                0.86111001                4.09514091               -0.23124750
               6.16564757                3.98570144                6.98543563                0.00010000               -0.10623747                0.11021571               -0.29713059                0.85262053                4.03144156                0.00003653
               7.16456603                3.97962622                6.98522252                0.00010000               -0.13686733                0.07796039               -0.37004189                0.75280241                4.08633820                0.45079317
               8.16291022                3.97414095                6.98675478                0.28236817                0.00336709                0.19436703               -0.43819938                0.31372244                2.09700450                1.12809271
               9.16463337                3.96320151                6.94725777                1.00000000                0.24096271                0.27064239               -0.83921569               -0.00601759                0.02376143                0.33673247
              10.16772948                3.95272345                6.90738925                1.00000000                0.30961099                0.36455502               -1.24194188               -0.03309935               -0.00145437               -0.26110413
               0.18530674                5.04582637                7.08113665                1.00000000               -0.22562604               -0.32226870                1.02486727               -0.05073844                0.05990649                0.66852592
               1.18305048                5.03318200                7.03422175                0.90272437               -0.15138387               -0.15251967                0.50920766               -0.03261364                0.08816396               -0.06758046
               2.18227906                5.02003254                6.98766679                0.00319403               -0.01046385                0.00770053                0.00371484                0.14985042                2.20578339               -0.74175960
               3.18284120                5.00990139                6.98323550                0.00010000                0.00484719                0.28555381               -0.16927663                0.46195156                4.39061996               -0.26140627
               4.18237600                5.00155371                6.98258906                0.00010000               -0.07238539                0.23759736               -0.24288955                0.62731772                4.66130256               -0.29730931
               5.18139349                4.99408347                6.98558464                0.00010000               -0.13517184                0.19385574               -0.24665510                0.67306238                4.83824934               -0.17616594
               6.17967257                4.98704328                6.99018873                0.00010000               -0.21058094                0.14533279               -0.23900624                0.66026806                4.91904729                0.08665715
               7.17718187                4.98072894                6.99626621                0.00010000               -0.29729927                0.11196839               -0.22714811                0.63083644                5.02728528                0.46397823
               8.17372658                4.97570198                7.00413643                0.29550375               -0.11777031                0.11962526               -0.20740525                0.27503779                2.54832320                0.88653639
               9.17482647                4.96561720                6.96135127                1.00000000                0.18425764                0.21013000               -0.64748845               -0.01093987                0.01007271                0.29711022
              10.17741173                4.95610486                6.91844402                1.00000000                0.25852673                0.31273876               -1.08114916               -0.03369422               -0.00164858               -0.29725378
               0.19657207                6.04276486                7.07333983                1.00000000               -0.18109306               -0.28479410                0.90270881               -0.05366836                0.06722949                0.62287773
               1.19476114                6.03190997                7.02273102                0.76112195               -0.09835995               -0.10014112                0.33424294               -0.04007582                0.13718889               -0.13333214
               2.19460488                6.02040742                6.97331834                0.00051044                0.06496289                0.06946779               -0.21844269                0.15647226                2.69793684               -0.82929100
               3.19606040                6.01217296                6.97409948                0.00010000                0.06871723                0.23710340               -0.28305936                0.41933723                5.24431633               -0.63395598
               4.19597922                6.00404348                6.97819195                0.00010000               -0.06989774                0.25887107               -0.28166149                0.46938064                5.44565772               -0.41759753
               5.19466245                5.99613114                6.98534885                0.00010000               -0.18858779                0.21502477               -0.23725599                0.47636404                5.62333036               -0.18972979
               6.19220746                5.98860809                6.99503474                0.00010000               -0.30691963                0.15947709               -0.16721137                0.47001652                5.76868650                0.09640352
               7.18852405                5.98186559                7.00679373                0.00010000               -0.43423708                0.10133484               -0.08168885                0.46853847                5.90832490                0.43443643
               8.18352272                5.97653346                7.02058491                0.31223412               -0.22561791                0.04500097                0.02140359                0.20111106                2.99912113                0.81442292
               9.18401170                5.96740411                6.97498213                0.94748275                0.12787735                0.14917619               -0.45338391               -0.01528841                0.02584043                0.26139850
              10.18608027                5.95897823                6.92921943                1.00000000                0.20685733                0.26147760               -0.92028643               -0.03180544                0.01262949               -0.32446286
               0.20594316                7.04013049                7.06508960                1.00000000               -0.13367567               -0.23775817                0.76947874               -0.05337612                0.04493956                0.58708213
               1.20460640                7.03117917                7.01049135                0.68334305               -0.03988249               -0.04562838                0.14140199               -0.04440119                0.13427039               -0.17945393
               2.20514551                7.02142189                6.95748639                0.01986353                0.14927417                0.13823824               -0.47570387                0.13553106                3.11725402               -0.92856264
               3.20759188                7.01464346                6.96280209                0.00010000                0.13299654                0.27586951               -0.41737356                0.30920760                6.07499964               -0.90502341
               4.20780544                7.00673113                6.97182876                0.00010000               -0.06178618                0.26999331               -0.32526731                0.25763789                6.30571847               -0.58680244
               5.20635616                6.99838397                6.98438055                0.00010000               -0.22334938                0.22379632               -0.22288693                0.26410794                6.48834735               -0.23390394
               6.20333845                6.99023282                6.99950227                0.00010000               -0.38644396                0.16272432               -0.09194293                0.26727767                6.62735904                0.07989173
               7.19862728                6.98275564                7.01690150                0.00691823               -0.55640836                0.07431228                0.06684935                0.26772707                6.77834374                0.40471725
               8.19221028                6.97660200                7.03658992                0.33199794               -0.32756768               -0.03434184                0.25583788                0.09971359                3.45138747                0.77089919
               9.19207593                6.96860072                6.98835306                0.89953443                0.07085529                0.09058496               -0.26029091               -0.01727177                0.04010341                0.23554222
              10.19362739                6.96133441                6.93964447                1.00000000                0.15514617                0.21193018               -0.76348474               -0.03248334                0.01235151               -0.34899668
               0.21340718                8.03800970                7.05654879                1.00000000               -0.08254669               -0.18771393                0.62642468               -0.05050657                0.03446095                0.56906295
               1.21258171                8.03099740                6.99805592                0.66446104                0.02220135                0.01373339               -0.06563640               -0.03924381                0.11736547               -0.19116460
               2.21385121                8.02317219                6.94105593                0.05398373                0.21768036                0.22189931               -0.76325020                0.10774993                3.37241770               -0.91886189
               3.21693532                8.01769036                6.94800084                0.00010000                0.17701334                0.27079637               -0.41975207                0.06259604                6.87154782               -1.37117066
               4.21739147                8.00944335                6.96361656                0.00010000               -0.02462058                0.22183782               -0.33246706               -0.00168801                7.32957938               -0.66486404
               5.21644291                8.00060707                6.98270757                0.00010000               -0.21050628                0.20126786               -0.21461687                0.07680544                7.41685968               -0.23462211
               6.21318135                7.99186258                7.00344076                0.00010000               -0.44667458                0.17444498               -0.02083545                0.08869122                7.48356676                0.06071535
               7.20750942                7.98335184                7.02646398                0.01199553               -0.67547191                0.06392917                0.21511799                0.02738644                7.65003978                0.34587410
               8.19967191                7.97584662                7.05227786                0.35349779               -0.42877818               -0.12042937                0.49497158               -0.03135651                3.91213514                0.71753338
               9.19893385                7.96921581                7.00147732                0.89848960                0.01456558                0.02941239               -0.06799202               -0.01388775                0.05122895                0.22693181
              10.19996322                7.96321683                6.94982106                0.97155309                0.10293685                0.16957770               -0.61191254               -0.03458188                0.00691995               -0.36252174
               0.21895762                9.03637621                7.04783572                1.00000000               -0.02985856               -0.14324682                0.47888024               -0.04334874                0.04059054                0.46848151
               1.21865904                9.03145384                6.98555740                0.69192909                0.08249644                0.08150399               -0.28364468               -0.02135330                0.15358698               -0.17490877
               2.22060755                9.02585988                6.92541474                0.08065913                0.19568033                0.30982103               -1.05489582               -0.00033605                3.35948519               -0.65358986
               3.22257264                9.02005939                6.92764162                0.00010000                0.21237065                0.11365611               -0.06936814               -0.14680173                7.77255742               -1.22944662
               4.22485496                9.01116788                6.95550479                0.00010000                0.14501966                0.11206298               -0.34823896               -0.12048925                8.64172673               -0.47207979
               5.22547304                9.00240932                6.98102480                0.00010000               -0.12437272                0.15718773               -0.21127732                0.00516527                8.28711003               -0.14310584
               6.22236751                8.99372172                7.00678249                0.00010000               -0.51410323                0.18036018                0.03940003               -0.00754334                8.26897143                0.03873110
               7.21519097                8.98403422                7.03490174                0.01486106               -0.83241645                0.15308498                0.35093857               -0.14497231                8.50664211                0.21302828
               8.20571918                8.97419341                7.06721329                0.37161007               -0.53815053               -0.20122972                0.72976658               -0.21679693                4.43140206                0.51304698
               9.20442796                8.96918897                7.01466276                0.94602847               -0.03927369               -0.03660779                0.12718278               -0.00669422                0.09262144                0.20878459
              10.20493371                8.96472596                6.95987696                0.95891568                0.05057457                0.13380437               -0.45866942               -0.03417217               -0.01762393               -0.30480656
               0.22238494               10.03514476                7.03708545                1.00000000                0.02860351               -0.12314481                0.31090156                0.09100387                0.30789681                0.38124946
               1.22267098               10.03262748                6.97348509                0.87390273                0.14269982                0.11736379               -0.48606553                0.11238637                0.54613404               -0.16101620
               2.22523894               10.02936861                6.91459112                0.55170195                0.30101531                0.35087259               -1.24376433               -0.17006129                3.79481089               -0.44185865
               3.22869128               10.01996348                6.91639818                0.35526316                0.36964091               -0.00959128               -0.11959114               -0.27233587                8.44959118               -0.83361024
               4.23263176               10.01168461                6.95064855                0.35212722                0.26505459                0.05167235               -0.37039107               -0.03295331                9.41346455               -0.22542378
               5.23399237               10.00375082                6.98019102                0.37503869               -0.06130847                0.13415010               -0.21791474                0.04119280                8.91393095               -0.05029485
               6.23140559                9.99546978                7.00938326                0.42116521               -0.49270473                0.17480609                0.08172575                0.03694338                8.88436060                0.04940514
               7.22413828                9.98641354                7.04111059                0.50842565               -1.06121814                0.23793166                0.44802122               -0.28765703                9.22147486                0.14495112
               8.21018122                9.97182202                7.07855646                0.69268535               -0.79354294               -0.23713900                0.90224541               -0.45028967                5.04365003                0.35826774
               9.20826742                9.96848365                7.02733397                1.00000000               -0.09877191               -0.07053141                0.31486232                0.08749079                0.38305713                0.19364552
              10.20820579                9.96589292                6.97118189                0.98646409               -0.00616354                0.11669551               -0.28994465                0.06813459                0.14215471               -0.24465242
               0.13634135                0.08102248                8.13619152                1.00000000               -0.41008042               -0.45963997                1.57490037               -0.08175862               -0.38788279                0.44303564
               1.13224055                0.05781263                8.10069529                1.00000000               -0.34001271               -0.35341415                1.23178620               -0.05925332               -0.44200548               -0.00595272
               2.12954110                0.03429610                8.06397081                0.97094628               -0.18663759               -0.25251656                0.85811878               -0.04638407               -0.37875166               -0.20358439
               3.12850780                0.01136039                8.02964039                0.57728383                0.29577479               -0.18347056                0.52195968                0.33168778                0.47803313               -0.26886096
               4.13545659               -0.00308955                8.00998942                0.60718830                0.52294248               -0.19456336                0.24120684                0.02522633                1.16213460               -0.00960796
               5.13896665               -0.01209721                7.98903342                0.66035261                0.23269872               -0.02055025               -0.10571833               -0.01061500                0.91769597                0.00615806
               6.14011057               -0.02032085                7.96508170                0.67133405                0.06041390                0.11524200               -0.47021455                0.00371191                0.79612008                0.00705440
               7.14017492               -0.03105132                7.94178923                0.80405289                0.06783347                0.23329805               -0.81752422                0.06762326                0.52396047                0.02925435
               8.14146724               -0.04603532                7.91227136                1.00000000                0.23817444                0.34335479               -1.15116291                0.03044498                0.01291815                0.29565040
               9.14493841               -0.06309843                7.87894059                1.00000000                0.41241460                0.42339685               -1.47488874               -0.04992951               -0.21602934                0.02893625
              10.14971553               -0.08013593                7.84499052                1.00000000                0.47771171                0.51826836               -1.78723795               -0.07857994               -0.25234662               -0.27174760
               0.15873362                1.07642608                8.12465294                1.00000000               -0.37224075               -0.44316954                1.43353105               -0.03560915               -0.02727539                0.60725264
               1.15501121                1.05427849                8.08869617                1.00000000               -0.32151180               -0.33104591                1.08941774               -0.01627159                0.04279807               -0.00037595
               2.15230338                1.03177093                8.05401807                0.67059580               -0.22468560               -0.22490014                0.74698148               -0.00132525                0.28640547               -0.49974829
               3.15051750                1.00952568                8.02295473                0.01762344               -0.24328619               -0.17555474                0.40640379                0.40390009                1.31623491               -0.61142566
               4.14743766                0.99496482                8.00910073                0.11118077               -0.15206733                0.00195615                0.21235472                0.68024739                1.87184479               -0.19685461
               5.14747615                0.98769729                7.99096447                0.16803451                0.10935448                0.08378006               -0.10184744                0.66885119                1.45312695                0.06751925
               6.14962474                0.98083157                7.96958425                0.11357944                0.31161212               -0.05845186               -0.43779203                0.54877189                1.30784041               -0.28511540
               7.15370839                0.97128166                7.94895195                0.31567616                0.40852475                0.27235933               -0.73829752                0.42244813                1.17389159                0.48887253
               8.15779524                0.95739823                7.92473346                1.00000000                0.38905161                0.31764185               -1.02595906                0.12781068                0.57269955                0.37320958
               9.16148942                0.94113554                7.89162758                1.00000000                0.40859990                0.40285992               -1.33324973               -0.00312271                0.08340657                0.07542236
              10.16596724                0.92504675                7.85760883                1.00000000                0.44778144                0.49563181               -1.64533680               -0.03044770                0.03416913               -0.31903049
               0.17992435                2.07215909                8.11618948                1.00000000               -0.33540834               -0.41203024                1.32278953               -0.04240942                0.03480404                0.78419976
               1.17657027                2.05119172                8.07670663                1.00000000               -0.28284751               -0.28849485                0.95164318               -0.02671713                0.08652162               -0.01800208
               2.17426740                2.02979809                8.03812041                0.29983930               -0.15891793               -0.16978527                0.60052554               -0.03169044                0.62742456               -0.88573482
               3.17339191                2.00784930                8.00946856                0.00010000               -0.16887328               -0.14438772                0.26800121                0.59213744                2.27344363               -1.18142261
               4.17088993                1.99694958                8.00403108                0.00010000               -0.34574933                0.16683124                0.55887921                1.32927639                2.92398928               -0.72674638
               5.16647692                1.98957839                7.99394557                0.00010000               -0.16941484                0.07010536                0.13578063                1.21917326                1.75556997               -0.40525881
               6.16750164                1.97851011                7.96833473                0.00010000                0.27901532               -0.03842686               -0.55144113                1.21725888                2.11326132               -0.02222057
               7.17205723                1.97439586                7.96545472                0.00010000                0.33339651                0.04456249               -0.59460327                0.86955884                2.24048703                0.31998129
               8.17416957                1.96031751                7.93877574                0.40712271                0.25851033                0.28070630               -0.88015977                0.13055478                0.73477947                0.71774394
               9.17722744                1.94495877                7.90532176                1.00000000                0.35572964                0.36996948               -1.18783366                0.01321376                0.27138138                0.30492548
              10.18128416                1.92977670                7.86942151                1.00000000                0.40567260                0.45065431               -1.51673846               -0.02578728                0.14571428               -0.33229623
               0.19982018                3.06818548                8.10800850                1.00000000               -0.29823173               -0.38247531                1.21446284               -0.04585443                0.02952409                0.79921117
               1.19683786                3.04850859                8.06426729                1.00000000               -0.24040947               -0.24615561                0.80810375               -0.03038453                0.03432625               -0.04154736
               2.19501199                3.02837523                8.02046484                0.12459913               -0.08145504               -0.11103280                0.40160684               -0.08487570                0.77036430               -0.93014098
               3.19520876                3.00663793                7.99147105                0.00010000               -0.13589533                0.09660805                0.07589629                0.52338606                2.94026565               -0.86830563
               4.19229408                2.99830145                7.99129232                0.00010000               -0.24548404                0.17126703               -0.01159560                1.18579210                3.95168295               -0.84718887
               5.19029908                2.98909940                7.98523073                0.00010000               -0.15708156                0.04912820               -0.13270942                1.27854205                3.52745307               -0.66766227
               6.18915245                2.98006303                7.97862729                0.00010000               -0.05034582                0.13970795               -0.33348537                1.20378326                3.30954424                0.20959616
               7.18929216                2.97217291                7.96933900                0.00010000                0.03454883               -0.07932344               -0.52512299                0.88903661                3.03927059                0.05726139
               8.18984343                2.96301235                7.95815497                0.26980001                0.15011741                0.25834511               -0.72650395                0.35308920                1.73018931                1.23616725
               9.19229451                2.94853493                7.92263938                1.00000000                0.29861019                0.33011557               -1.01051773                0.01873550                0.25025507                0.43951628
              10.19581563                2.93405983                7.88198080                1.00000000                0.35211204                0.40747571               -1.37683724               -0.03216186               -0.01298754               -0.27967323
               0.21836103                4.06450959                8.09972802                1.00000000               -0.25881997               -0.35315794                1.10349002               -0.04502873                0.03052177                0.78381927
               1.21577283                4.04626860                8.05176632                1.00000000               -0.19602384               -0.20087822                0.65855671               -0.02665076                0.03540417               -0.04238155
               2.21444055                4.02757744                8.00373825                0.04236070               -0.09197089               -0.05130228                0.21288477                0.04538457                1.47018454               -0.84148377
               3.21393341                4.00978146                7.98453839                0.00010000               -0.11481215                0.35742218               -0.20407557                0.47149802                3.81847975               -0.12671456
               4.21214431                4.00037492                7.98436095                0.00010000               -0.18236164                0.21910243               -0.16153881                0.94193038                4.62630092               -0.42084633
               5.21028618                3.99056096                7.98355727                0.00010000               -0.18202578                0.17114161               -0.22011368                0.95515219                4.48465609               -0.27179321
               6.20850379                3.98130427                7.98244438                0.00010000               -0.16987690                0.13924167               -0.29755279                0.95148933                4.39206694               -0.00760961
               7.20688864                3.97280940                7.98142226                0.00010000               -0.18172315                0.09798048               -0.38462637                0.88285939                4.42835654                0.50247532
               8.20486933                3.96548442                7.98226938                0.27487970               -0.01669890                0.20291106               -0.45475123                0.38712398                2.26682875                1.26543246
               9.20655466                3.95156108                7.93891110                1.00000000                0.23608933                0.27241191               -0.82984127                0.00389396                0.02804068                0.37530719
              10.20959112                3.93792622                7.89506834                1.00000000                0.30364545                0.36268988               -1.22337097               -0.03104748               -0.00156390               -0.27992881
               0.23540157                5.06112232                8.09118338                1.00000000               -0.21645756               -0.32179016                0.98590769               -0.04653991                0.06187790                0.74742919
               1.23323699                5.04449103                8.03929734                0.88839377               -0.14973707               -0.15214078                0.50554351               -0.02873731                0.09346362               -0.07865440
               2.23240683                5.02734918                7.98787763                0.00723325               -0.06978759                0.00737557                0.03618336                0.17938925                2.37004169               -0.83431451
               3.23184124                5.01378637                7.98162708                0.00010000               -0.10268199                0.32542057               -0.15617628                0.51327573                4.75839067               -0.23538431
               4.23035319                5.00268349                7.98021785                0.00010000               -0.16842349                0.24673693               -0.22999058                0.70728472                5.11494402               -0.31509873
               5.22847277                4.99252223                7.98314518                0.00010000               -0.22096935                0.20876824               -0.23805774                0.75199677                5.32219247               -0.18692283
               6.22593380                4.98284786                7.98775336                0.00010000               -0.28517840                0.16684060               -0.24301949                0.74314741                5.39399691                0.09999843
               7.22276920                4.97413252                7.99389560                0.00010000               -0.35497898                0.13188102               -0.24143572                0.73146966                5.48960664                0.51941320
               8.21883422                4.96707057                8.00196410                0.28839488               -0.14193056                0.11885695               -0.22306975                0.33717140                2.77116511                0.99778221
               9.21993059                4.95398317                7.95489696                1.00000000                0.18150979                0.20991512               -0.64256147               -0.00129574                0.00821615                0.33909913
              10.22246442                4.94131363                7.90772194                1.00000000                0.25338245                0.31367799               -1.06425428               -0.03163028               -0.00186652               -0.31547957
               0.25069281                6.05807378                8.08213898                1.00000000               -0.17215865               -0.28204409                0.85925199               -0.04917953                0.06748100                0.69739238
               1.24897122                6.04322579                8.02606029                0.74822548               -0.09799071               -0.09911266                0.33174414               -0.03627555                0.14288169               -0.16156195
               2.24873299                6.02772495                7.97133008                0.00247312               -0.00533046                0.07042308               -0.18097399                0.19683793                2.94451345               -0.95912241
               3.24886461                6.01628987                7.97143471                0.00010000               -0.05894236                0.24957161               -0.24937355                0.49941821                5.74898113               -0.69450912
               4.24755415                6.00530966                7.97546729                0.00010000               -0.18514343                0.27133666               -0.26020129                0.55919540                5.99567965               -0.43517229
               5.24516174                5.99473632                7.98300167                0.00010000               -0.28988464                0.23483286               -0.22794287                0.55985482                6.19716629               -0.19177301
               6.24175645                5.98464108                7.99331381                0.00010000               -0.39332095                0.18478617               -0.17148452                0.54616331                6.34506347                0.11802150
               7.23729532                5.97544702                8.00587333                0.00010000               -0.49971734                0.11976944               -0.09712834                0.54853929                6.48131171                0.49314329
               8.23176211                5.96786156                8.02068098                0.30517329               -0.25048186                0.04065538                0.00001237                0.25006946                3.27711578                0.92420467
               9.23228569                5.95575939                7.97044888                0.95052285                0.12677388                0.14713749               -0.45099588               -0.00647954                0.02267746                0.30120423
              10.23429758                5.94419978                7.92011029                1.00000000                0.20118971                0.26279003               -0.89831031               -0.03068947                0.01256746               -0.34739156
               0.26411397                7.05548144                8.07252766                1.00000000               -0.12536533               -0.23224627                0.72143662               -0.04832798                0.04274577                0.65568418
               1.26286032                7.04250878                8.01191374                0.67090975               -0.04172310               -0.04446673                0.14364925               -0.03903664                0.13472775               -0.22149100
               2.26327951                7.02875764                7.95299345                0.01807318                0.06922922                0.13786034               -0.42479604                0.17810297                3.45012399               -1.09132607
               3.26424490                7.01877781                7.95890970                0.00010000               -0.00944331                0.26523416               -0.36578862                0.41018358                6.73795262               -0.93001949
               4.26309064                7.00811023                7.96876160                0.00010000               -0.19532282                0.28006725               -0.28923470                0.37839650                6.97520790               -0.59255978
               5.26033844                6.99721889                7.98222814                0.00010000               -0.34721328                0.25233679               -0.20479467                0.36163036                7.16148082               -0.23657949
               6.25614637                6.98654359                7.99854558                0.00010000               -0.49094639                0.19578339               -0.09376160                0.33719100                7.30674567                0.10116004
               7.25051952                6.97652791                8.01745610                0.00282438               -0.63115662                0.09717691                0.04869617                0.32520807                7.46328310                0.46458851
               8.24352324                6.96788368                8.03897946                0.32497883               -0.35283663               -0.03616794                0.22357009                0.13184289                3.78412870                0.88371773
               9.24346278                6.95692592                7.98571670                0.90042341                0.07233026                0.08853396               -0.26340866               -0.01138470                0.03371386                0.27037054
              10.24496985                6.94656943                7.93210912                1.00000000                0.15070646                0.21389504               -0.74137839               -0.03085746                0.01259714               -0.38215897
               0.27567157                8.05342886                8.06253573                1.00000000               -0.07572848               -0.17927318                0.57548881               -0.04542089                0.03013058                0.63382435
               1.27491428                8.04233645                7.99745128                0.65044216                0.01772279                0.01302923               -0.05467525               -0.03333728                0.10772919               -0.24445962
               2.27602602                8.03048216                7.93380158                0.04505176                0.14007075                0.21251145               -0.69082577                0.14398328                3.85767152               -1.10050831
               3.27771570                8.02159455                7.94401305                0.00010000                0.03274850                0.25219488               -0.39036178                0.23876925                7.72350097               -1.16615749
               4.27668099                8.01091100                7.96067796                0.00010000               -0.18773540                0.24707593               -0.27689827                0.17192268                8.06352317               -0.63996291
               5.27396099                7.99978306                7.98075572                0.00010000               -0.37448699                0.24555338               -0.17840533                0.18185970                8.17328184               -0.23885272
               6.26919125                7.98855675                8.00321664                0.00010000               -0.57507989                0.21881738               -0.01855037                0.14578602                8.27167643                0.07721383
               7.26245939                7.97739055                8.02846896                0.00913034               -0.75951511                0.09648683                0.19097451                0.05992116                8.45278976                0.40032443
               8.25400095                7.96713820                8.05696619                0.34700297               -0.45435761               -0.11386318                0.44678980               -0.01604147                4.30086606                0.82833940
               9.25337224                7.95753006                8.00071261                0.89825489                0.01962274                0.03092899               -0.08324036               -0.01040377                0.03978731                0.25947760
              10.25439341                7.94847768                7.94379335                0.97438259                0.10211666                0.17142301               -0.59592053               -0.03165271                0.00579132               -0.40252093
               0.28539036                9.05189597                8.05233626                1.00000000               -0.02500888               -0.13144939                0.42663448               -0.03936511                0.03103307                0.52317649
               1.28514027                9.04276936                7.98283343                0.67542366                0.07553576                0.07628157               -0.26046317               -0.01801880                0.13693725               -0.22594239
               2.28690107                9.03300787                7.91536931                0.06292060                0.17255848                0.28698240               -0.95734601                0.04121080                4.18310487               -0.79091879
               3.28859144                9.02382170                7.92714988                0.00010000                0.07197556                0.14195494               -0.13814027                0.04647214                8.75981075               -0.96205720
               4.28834059                9.01305175                7.95275809                0.00010000               -0.11307752                0.17711250               -0.25100732                0.03292259                9.25883706               -0.43768378
               5.28632989                9.00212996                7.97921228                0.00010000               -0.34429928                0.21755424               -0.15823672                0.07912289                9.12446978               -0.14955617
               6.28145460                8.99091993                8.00717222                0.00010000               -0.65966992                0.23279787                0.04423127                0.02488785                9.16564517                0.04884035
               7.27313649                8.97845764                8.03820535                0.01461573               -0.91958482                0.19684278                0.31737602               -0.13444492                9.43148510                0.24782505
               8.26306290                8.96560642                8.07413281                0.36779940               -0.56106310               -0.18428936                0.66076595               -0.21471804                4.88498134                0.58989290
               9.26191523                8.95754450                8.01578724                0.94465280               -0.03106666               -0.02956340                0.09944449               -0.00565565                0.08070099                0.23721793
              10.26244157                8.94999789                7.95536706                0.96045534                0.05263411                0.13374997               -0.44686556               -0.03111756               -0.02064837               -0.33851852
               0.29313749               10.05079987                8.03993465                1.00000000                0.03045203               -0.10961046                0.26404189                0.08093458                0.32484854                0.42548113
               1.29344201               10.04386208                7.96879544                0.86595532                0.13302045                0.10927224               -0.45153429                0.10127074                0.57835718               -0.20503558
               2.29579790               10.03622180                7.90270243                0.54110446                0.25796283                0.32139333               -1.13688295               -0.08173930                4.78999212               -0.53106061
               3.29860127               10.02443365                7.91620503                0.35563708                0.16166476                0.06119461               -0.10529876               -0.08744498                9.52879746               -0.56070741
               4.29903119               10.01445325                7.94768812                0.35248157               -0.04630037                0.14015055               -0.27102769                0.05408557               10.08182006               -0.19932803
               5.29767526               10.00413414                7.97835030                0.37536588               -0.28349354                0.20041888               -0.15905174                0.07250976                9.83436999               -0.04209483
               6.29336132                9.99321271                8.01018201                0.42152758               -0.62956236                0.22927719                0.08502562                0.05033564                9.87386425                0.06190015
               7.28508401                9.98132741                8.04534322                0.50952942               -1.13707937                0.28697670                0.40819636               -0.29326271               10.25155782                0.17248830
               8.27061974                9.96345241                8.08713059                0.69271081               -0.81081806               -0.21540067                0.82024393               -0.46374746                5.57700711                0.40150143
               9.26886765                9.95693880                8.03026717                1.00000000               -0.08777343               -0.06057026                0.27421350                0.08025547                0.40453531                0.21684542
              10.26886427                9.95115268                7.96831302                0.98711796               -0.00033839                0.11547823               -0.28735334                0.06365762                0.15586434               -0.27030730
               0.16945150                0.09791004                9.15177138                1.00000000               -0.40281052               -0.44950955                1.54292029               -0.07862280               -0.43023581                0.48362559
               1.16542340                0.07049135                9.11293031                1.00000000               -0.33365940               -0.34808016                1.21478187               -0.05710983               -0.50109852               -0.00024251
               2.16277831                0.04277905                9.07253257                0.98464066               -0.18242112               -0.25084365                0.85275502               -0.04455060               -0.43462233               -0.19970272
               3.16177497                0.01575351                9.03491022                0.58955569                0.30194702               -0.18447920                0.52897455                0.35923100                0.46219282               -0.30503644
               4.16881725               -0.00210321                9.01238850                0.62939800                0.51368408               -0.17167117                0.23855280                0.01237420                1.13059143                0.00168031
               5.17204866               -0.01396745                8.98799538                0.68682127                0.21592137               -0.01190980               -0.10175880               -0.00581401                0.85276578                0.01042052
               6.17313568               -0.02495479                8.96043462                0.69023903                0.05934932                0.11201061               -0.45914118                0.00425796                0.72687696               -0.00036915
               7.17323564               -0.03832054                8.93364779                0.81437431                0.06454398                0.22690574               -0.80919217                0.06603884                0.46447532                0.02906414
               8.17442656               -0.05610641                8.90080534                1.00000000                0.22907237                0.34146010               -1.14034602                0.03677621               -0.03410375                0.30747888
               9.17781709               -0.07621403                8.86425709                1.00000000                0.40556141                0.41930656               -1.46060310               -0.05019653               -0.25286736                0.02706949
              10.18253779               -0.09634420                8.82720851                1.00000000                0.47206997                0.51153695               -1.76908211               -0.07923056               -0.28384696               -0.30354996
               0.19608396                1.09341494                9.13882407                1.00000000               -0.36661657               -0.43334813                1.40295101               -0.03346745               -0.03668674                0.66219310
               1.19241779                1.06701055                9.09951810                1.00000000               -0.31911137               -0.32602409                1.07481620               -0.01353157                0.03204242                0.00803290
               2.18970173                1.04027062                9.06148461                0.69664344               -0.23046879               -0.22439916                0.74414741                0.00557062                0.27563188               -0.51038066
               3.18780841                1.01390872                9.02706277                0.03813684               -0.29501245               -0.17727789                0.41257658                0.45682067                1.37481430               -0.65429374
               4.18380148                0.99618008                9.01120512                0.14257606               -0.21960527                0.05761986                0.20825349                0.59690516                1.94226470                0.06115592
               5.18341631                0.98591345                8.98995773                0.20410901                0.07766612                0.09960828               -0.09939186                0.56798424                1.45907048                0.16160623
               6.18535480                0.97616531                8.96525853                0.13981670                0.30277658               -0.05571968               -0.42757125                0.47203749                1.31788168               -0.33173260
               7.18947184                0.96394852                8.94160563                0.33076104                0.41931337                0.26471852               -0.73001927                0.44133985                1.19809147                0.51646895
               8.19374107                0.94730819                8.91452099                1.00000000                0.39810881                0.31572446               -1.01528622                0.14404892                0.58693336                0.39424426
               9.19743402                0.92797904                8.87836145                1.00000000                0.40672925                0.39966065               -1.31942519               -0.00227771                0.08461341                0.07506656
              10.20187565                0.90877117                8.84124744                1.00000000                0.44416378                0.48724506               -1.62755701               -0.03093882                0.03309311               -0.35719986
               0.22159093                2.08924307                9.12925257                1.00000000               -0.32938391               -0.40369734                1.29202859               -0.03792310                0.03238732                0.85598985
               1.21829709                2.06397087                9.08616490                1.00000000               -0.27996855               -0.28492138                0.93989431               -0.02059307                0.09282343               -0.00947778
               2.21599156                2.03829107                9.04417947                0.31741333               -0.16475835               -0.17200833                0.60830813               -0.01692664                0.64947717               -0.93939402
               3.21500192                2.01220795                9.01222563                0.00010000               -0.36204640               -0.15171847                0.28080032                0.70735801                2.66496954               -1.25601895
               4.20875063                1.99904919                9.01076686                0.00010000               -0.57894069                0.19395186                0.66222092                1.45042929                3.04535331               -0.78371473
               5.20342311                1.98802471                8.99478254                0.00010000               -0.21046362                0.08363530                0.04114830                1.26302989                1.52881069               -0.46048149
               6.20454136                1.97393081                8.96350511                0.00010000                0.37482273               -0.06220370               -0.44808209                1.28346431                2.13468262                0.03386848
               7.21091956                1.96697384                8.95942476                0.00010000                0.43678329                0.01994490               -0.60830167                0.93142466                2.37898878                0.33964756
               8.21327702                1.95020808                8.93001610                0.40853982                0.26944937                0.28680760               -0.87046138                0.16975524                0.78297268                0.74869108
               9.21630855                1.93177919                8.89351124                1.00000000                0.35288615                0.37131472               -1.17428331                0.02335991                0.29253606                0.32152736
              10.22033475                1.91340070                8.85434691                1.00000000                0.40261952                0.44011449               -1.49935983               -0.02288056                0.15661154               -0.37102664
               0.24586990                3.08534099                9.11998654                1.00000000               -0.29119633               -0.37656684                1.18313647               -0.04083678                0.02753172                0.87271067
               1.24295793                3.06131212                9.07230519                1.00000000               -0.23718917               -0.24440939                0.79927311               -0.02450964                0.03080453               -0.03832095
               2.24112611                3.03683045                9.02456239                0.13605370               -0.08802395               -0.11400603                0.41561990               -0.07352240                0.80524840               -1.00783553
               3.24119745                3.01087435                8.99236981                0.00010000               -0.20664022                0.07818062                0.09993658                0.61580902                3.12702360               -1.02458350
               4.23699331                3.00005912                8.99131876                0.00010000               -0.37010853                0.14499425                0.01821179                1.45416272                4.25831236               -1.19507779
               5.23379528                2.98758615                8.98417933                0.00010000               -0.24591719                0.04394991               -0.09879165                1.48697362                3.73375037               -0.83219008
               6.23207496                2.97492124                8.97524374                0.00010000               -0.09861065                0.12461827               -0.33453635                1.39219135                3.47591512                0.27387125
               7.23182307                2.96434742                8.96407578                0.00010000                0.01279294               -0.09273536               -0.52363317                1.02558462                3.22413195                0.08639092
               8.23233082                2.95304434                8.95086553                0.26426523                0.14427583                0.27161986               -0.72314270                0.42694272                1.85478004                1.32543641
               9.23470859                2.93540533                8.91259550                1.00000000                0.29220921                0.33354445               -0.99863813                0.03078997                0.29392467                0.47152490
              10.23817501                2.91757346                8.86830343                1.00000000                0.34664207                0.39915173               -1.36013359               -0.03073857               -0.01215200               -0.30570460
               0.26883193                4.08171174                9.11058995                1.00000000               -0.25144897               -0.34885013                1.07074239               -0.04058043                0.02796196                0.85507396
               1.26631744                4.05908268                9.05832073                1.00000000               -0.19365238               -0.19985908                0.65212603               -0.02166084                0.03091989               -0.04347809
               2.26495888                4.03601095                9.00597665                0.05109115               -0.11140034               -0.05380145                0.23259487                0.04564585                1.46245600               -0.90920710
               3.26408943                4.01377157                8.98237852                0.00010000               -0.19184012                0.37115227               -0.22272478                0.52047305                4.07612249               -0.17896708
               4.26112208                4.00194907                8.98285366                0.00010000               -0.28944869                0.20431373               -0.14190495                1.06478078                5.06278230               -0.48918710
               5.25830046                3.98890371                8.98143810                0.00010000               -0.27490811                0.16572305               -0.20326614                1.04903263                4.84293821               -0.33421784
               6.25562392                3.97642318                8.97948458                0.00010000               -0.24961530                0.16262941               -0.29271350                1.04712709                4.72118855               -0.00469577
               7.25330815                3.96511913                8.97753000                0.00010000               -0.24329770                0.11593555               -0.38921243                1.00787466                4.75027012                0.55958593
               8.25075797                3.95564047                8.97765975                0.26836225               -0.04564631                0.21008442               -0.46364821                0.45743234                2.43850487                1.39483158
               9.25239523                3.93845007                8.93066095                1.00000000                0.23128762                0.27280315               -0.82040835                0.01338111                0.04011024                0.41071708
              10.25538372                3.92138374                8.88292183                1.00000000                0.29884890                0.35899283               -1.20727618               -0.02916230               -0.00108741               -0.29718851
               0.29031639                5.07836399                9.10085481                1.00000000               -0.20908878               -0.31716525                0.95040712               -0.04254688                0.06512518                0.81358534
               1.28822550                5.05731494                9.04433262                0.87452952               -0.14831226               -0.15101798                0.50134619               -0.02496638                0.10077144               -0.09141883
               2.28735015                5.03575442                8.98839045                0.01354987               -0.12783576                0.00491011                0.06389136                0.20721473                2.50910802               -0.91796177
               3.28566879                5.01829740                8.98011197                0.00010000               -0.20966828                0.36143007               -0.15513171                0.56021763                5.09219052               -0.18023794
               4.28315678                5.00414539                8.97798925                0.00010000               -0.26834783                0.24236090               -0.21636498                0.79034921                5.54532313               -0.32968713
               5.28030183                4.99090062                8.98082349                0.00010000               -0.31773463                0.21545067               -0.22511005                0.82436120                5.77562157               -0.19627373
               6.27680209                4.97817383                8.98532834                0.00010000               -0.37692819                0.18765634               -0.23903032                0.81893340                5.83780332                0.11698499
               7.27276327                4.96666613                8.99143750                0.00010000               -0.43267827                0.15244135               -0.24664597                0.82735792                5.92972534                0.57803691
               8.26814852                4.95724603                8.99967504                0.28196108               -0.17651622                0.11808590               -0.23329571                0.39633967                2.99008511                1.10290087
               9.26923294                4.94086140                8.94850004                1.00000000                0.17879560                0.20791879               -0.63596886                0.00740027                0.00979618                0.37879833
              10.27172444                4.92475332                8.89715894                1.00000000                0.24914912                0.31297414               -1.04832931               -0.02955340               -0.00259319               -0.32596993
               0.31007909                6.07536843                9.09052487                1.00000000               -0.16514049               -0.27582845                0.82049837               -0.04513446                0.06769317                0.75635668
               1.30842768                6.05606232                9.02936590                0.73623884               -0.09791825               -0.09782899                0.32948542               -0.03248100                0.14856860               -0.19077308
               2.30812072                6.03610915                8.96969886                0.00647071               -0.07624347                0.06847230               -0.14753373                0.23698636                3.17101457               -1.07690111
               3.30690282                6.02100017                8.96911201                0.00010000               -0.18974389                0.25836682               -0.21950416                0.58005716                6.21355864               -0.72606595
               4.30432585                6.00679629                8.97298792                0.00010000               -0.30717822                0.27619304               -0.23793241                0.65234605                6.50544220               -0.43240200
               5.30075925                5.99321272                8.98078999                0.00010000               -0.40443878                0.24988551               -0.21336188                0.64399856                6.73161993               -0.18171161
               6.29623707                5.98017630                8.99160505                0.00010000               -0.49880695                0.20896832               -0.16736026                0.61992745                6.88581949                0.14654468
               7.29078311                5.96816795                9.00485116                0.00010000               -0.58737887                0.13928231               -0.10404602                0.62608418                7.02434385                0.55271068
               8.28448949                5.95800219                9.02058516                0.29881465               -0.28735841                0.03725590               -0.01640433                0.29621135                3.54557554                1.02334557
               9.28503594                5.94260845                8.96596221                0.94222908                0.12596556                0.14415000               -0.44903855                0.00143139                0.02518376                0.33993279
              10.28700881                5.92764322                8.91125322                1.00000000                0.19728613                0.26274240               -0.88014078               -0.02801980                0.01810245               -0.35996380
               0.32802592                7.07284742                9.07951834                1.00000000               -0.11907511               -0.22454203                0.68003197               -0.04392507                0.04069064                0.70763862
               1.32683517                7.05535836                9.01336434                0.65987377               -0.04369431               -0.04369045                0.14667514               -0.03403966                0.13523795               -0.26139109
               2.32715203                7.03712387                8.94899047                0.01847603               -0.01261874                0.13385042               -0.37863234                0.22142568                3.75840694               -1.23285281
               3.32658279                7.02346473                8.95548631                0.00010000               -0.15804412                0.25634280               -0.32513233                0.50857652                7.34997986               -0.94054338
               4.32399115                7.00966925                8.96604407                0.00010000               -0.33904996                0.29256513               -0.25924453                0.50135031                7.59002393               -0.57132729
               5.31980179                6.99589833                8.98028466                0.00010000               -0.48728707                0.28165769               -0.18518266                0.46472797                7.78119868               -0.21606660
               6.31424541                6.98235319                8.99762704                0.00010000               -0.61713625                0.23019588               -0.08795301                0.41090092                7.93875969                0.13295814
               7.30745907                6.96945178                9.01787542                0.00010000               -0.73065759                0.12205591                0.03849401                0.38352489                8.10619968                0.52341789
               8.29963225                6.95799115                9.04106132                0.31876877               -0.39192622               -0.03710681                0.19607633                0.16243530                4.10100646                0.98332775
               9.29962054                6.94374440                8.98308488                0.90198296                0.07311222                0.08631845               -0.26480899               -0.00582390                0.03248213                0.30144872
              10.30109450                6.93000817                8.92481690                1.00000000                0.14739570                0.21326263               -0.72371844               -0.02818446                0.01624794               -0.40920420
               0.34417871                8.07087759                9.06805857                1.00000000               -0.07082582               -0.17032984                0.53309964               -0.04100678                0.02653937                0.68187490
               1.34347045                8.05518852                8.99696241                0.63885015                0.01320815                0.01162351               -0.04306833               -0.02809367                0.09941394               -0.29206593
               2.34444287                8.03878616                8.92723941                0.03970077                0.05292558                0.20083932               -0.62537352                0.18698404                4.28905269               -1.25320160
               3.34452896                8.02612702                8.94019361                0.00010000               -0.12618040                0.25807656               -0.38082899                0.38293618                8.50157046               -1.03191903
               4.34191926                8.01264759                8.95807859                0.00010000               -0.35795442                0.28674019               -0.25446125                0.33485014                8.74238211               -0.58078720
               5.33736987                7.99884588                8.97913946                0.00010000               -0.55088113                0.29626475               -0.15160628                0.29395708                8.85982526               -0.21355858
               6.33090164                7.98478022                9.00306975                0.00010000               -0.72771069                0.26899815               -0.01028894                0.21025657                8.99276218                0.10487844
               7.32281566                7.97060907                9.03028347                0.00738249               -0.87280282                0.13323418                0.17572418                0.09404224                9.19801623                0.45102529
               8.31344558                7.95726005                9.06121366                0.34160104               -0.49566056               -0.10821336                0.40644746               -0.00347969                4.66465008                0.92215733
               9.31290245                7.94433482                8.99981251                0.89807102                0.02359969                0.03171869               -0.09504332               -0.00821959                0.03018886                0.28693094
              10.31391758                7.93190847                8.93790265                0.97820027                0.10151296                0.17138775               -0.58277144               -0.02930408                0.00452134               -0.43515652
               0.35858393                9.06944082                9.05636841                1.00000000               -0.02192072               -0.12099946                0.38441600               -0.03591779                0.02343658                0.56388521
               1.35836472                9.05559083                8.98034813                0.66241635                0.06846353                0.07071209               -0.23718629               -0.01501439                0.12295087               -0.26980825
               2.35995320                9.04114065                8.90626782                0.05082878                0.10076770                0.26474946               -0.86821013                0.11108758                4.83843438               -0.90323615
               3.36038008                9.02862626                8.92487881                0.00010000               -0.09919518                0.22560010               -0.29317337                0.20079982                9.66607108               -0.76410420
               4.35796930                9.01540406                8.95048464                0.00010000               -0.34158861                0.25952009               -0.23284686                0.17004891                9.88667653               -0.37914193
               5.35354831                9.00182362                8.97786006                0.00010000               -0.56409781                0.28935046               -0.12444590                0.15725520                9.86459209               -0.13246476
               6.34668734                8.98773316                9.00766712                0.00010000               -0.83441135                0.29539838                0.05428263                0.06405777                9.97419027                0.06569070
               7.33686008                8.97211646                9.04124926                0.01496485               -1.04252139                0.24892440                0.29617789               -0.12505364               10.28086070                0.27771021
               8.32583691                8.95582688                9.08042861                0.36497276               -0.60261737               -0.17017810                0.60416396               -0.21929273                5.30462478                0.65022309
               9.32480773                8.94437877                9.01665165                0.94281111               -0.02379023               -0.02370552                0.07514513               -0.00588540                0.07071286                0.26176677
              10.32536111                8.93343592                8.95093965                0.96204607                0.05533783                0.13431850               -0.44169313               -0.02859526               -0.02312039               -0.36437275
               0.37116033               10.06845760                9.04236629                1.00000000                0.03099989               -0.09832233                0.22663313                0.07215574                0.33708308                0.45853936
               1.37147033               10.05660276                8.96445441                0.85987879                0.12344281                0.10119242               -0.41804625                0.09173808                0.60282037               -0.24151190
               2.37362919               10.04408115                8.89185346                0.53385652                0.14056097                0.29404954               -1.03891001                0.06941218                5.60187150               -0.60105242
               3.37428155               10.03063903                8.91429221                0.35631052               -0.07531534                0.20127625               -0.28227459                0.07798974               10.51615472               -0.38961228
               4.37212288               10.01783800                8.94522800                0.35283220               -0.30478378                0.24339400               -0.25376588                0.11505136               10.73381639               -0.15886835
               5.36818588               10.00463289                8.97700998                0.37557490               -0.51164648                0.28092656               -0.12267921                0.10626662               10.64588204               -0.02743607
               6.36188995                9.99068819                9.01108377                0.42178438               -0.79825073                0.29550341                0.09489629                0.06799480               10.76687374                0.07659812
               7.35222086                9.97558756                9.04927451                0.51060536               -1.25462672                0.34711001                0.38363576               -0.30550665               11.19697765                0.19556823
               8.33679742                9.95385649                9.09496134                0.69284857               -0.85225830               -0.19703861                0.75322276               -0.49029220                6.06451342                0.43267134
               9.33517569                9.94386071                9.03281824                1.00000000               -0.07830257               -0.05180604                0.23855379                0.07371389                0.42260858                0.23612842
              10.33523137                9.93459484                8.96543482                0.98745429                0.00556719                0.11589222               -0.29077872                0.06043913                0.16648403               -0.29038414
               0.20541878                0.11658960               10.16704993                1.00000000               -0.39613903               -0.44008459                1.51443038               -0.07643574               -0.47050130                0.52117208
               1.20145739                0.08463220               10.12499093                1.00000000               -0.32750198               -0.34276381                1.19782754               -0.05616818               -0.55922160                0.00610724
               2.19886874                0.05239797               10.08102591                0.99620148               -0.17808318               -0.24815537                0.84507408               -0.04362087               -0.49097251               -0.19339716
               3.19789572                0.02095456               10.04021988                0.59946895                0.30572624               -0.18301620                0.53050050                0.38539713                0.43734935               -0.33868726
               4.20498326               -0.00068918               10.01476047                0.64705559                0.50400578               -0.15012363                0.23673539                0.00207083                1.09245488                0.01471037
               5.20797584               -0.01581348                9.98699824                0.70824507                0.20062175               -0.00442529               -0.09727030               -0.00151261                0.78888189                0.01568925
               6.20899570               -0.02997605                9.95589887                0.70575401                0.05589393                0.11024770               -0.44751027                0.00526600                0.65553105               -0.00694542
               7.20909372               -0.04638572                9.92560539                0.82263137                0.05900826                0.22197869               -0.79759468                0.06435463                0.40227931                0.02925986
               8.21017586               -0.06731705                9.88946444                1.00000000                0.21920864                0.33894003               -1.12643513                0.04122202               -0.08039666                0.31895728
               9.21347789               -0.09076574                9.84972853                1.00000000                0.39799464                0.41484701               -1.44403230               -0.05065117               -0.28827796                0.02490730
              10.21813576               -0.11428478                9.80960888                1.00000000                0.46578653                0.50491330               -1.75011310               -0.07976789               -0.31400570               -0.33464674
               0.23661183                1.11218876               10.15271196                1.00000000               -0.36203031               -0.42365910                1.37641752               -0.03198716               -0.04577136                0.71297538
               1.23299152                1.08120456               10.11019250                1.00000000               -0.31702398               -0.32085646                1.06049521               -0.01149511                0.01991108                0.01678647
               2.23027135                1.04991641               10.06890102                0.71985450               -0.23491270               -0.22327709                0.73773146                0.01236575                0.26066450               -0.51554934
               3.22829327                1.01912440               10.03120626                0.05622881               -0.34416760               -0.17663428                0.41444148                0.50506817                1.42003767               -0.69331306
               4.22338799                0.99780958               10.01326580                0.16969658               -0.28445603                0.09254110                0.20467127                0.46373483                2.00449178                0.31014072
               5.22260415                0.98414226                9.98897663                0.23521290                0.04732397                0.09803234               -0.09660833                0.48279414                1.46645827                0.21315737
               6.22433447                0.97112643                9.96103283                0.16264652                0.29018075               -0.04108397               -0.41755072                0.41245877                1.32662564               -0.34806113
               7.22840776                0.95583407                9.93435156                0.34462084                0.42218104                0.25521905               -0.71981859                0.44891138                1.22046811                0.53429108
               8.23277809                0.93607235                9.90442774                1.00000000                0.40237409                0.31319242               -1.00278591                0.15576719                0.60170423                0.41488858
               9.23645524                0.91338273                9.86523908                1.00000000                0.40395124                0.39605021               -1.30463946               -0.00192751                0.08668526                0.07457893
              10.24085712                0.89076435                9.82505769                1.00000000                0.44018744                0.47924768               -1.61033898               -0.03137378                0.03287586               -0.39493131
               0.26674743                2.10811642               10.14203005                1.00000000               -0.32476029               -0.39432284                1.26533917               -0.03405114                0.03071868                0.92189357
               1.26349983                2.07821507               10.09550452                1.00000000               -0.27756098               -0.28091093                0.92806082               -0.01487098                0.10020310               -0.00083122
               2.26119621                2.04793243               10.05028658                0.33484388               -0.16979551               -0.17475364                0.61114619               -0.00060991                0.66670302               -0.98509104
               3.26010392                2.01742188               10.01508457                0.00010000               -0.59780571               -0.15655150                0.28974872                0.79644068                3.02808364               -1.32399316
               4.24924010                2.00116164               10.01727549                0.00010000               -0.78945195                0.22517500                0.58054250                1.54940516                3.21667648               -0.87419688
               5.24431488                1.98614716                9.99476854                0.00010000               -0.18435158                0.08288872               -0.02205377                1.32427936                1.39335157               -0.47359150
               6.24555307                1.96920227                9.95937309                0.00010000                0.44055708               -0.07827164               -0.40049588                1.35056641                2.22371460                0.05375289
               7.25312602                1.95871866                9.95328869                0.00010000                0.50947406               -0.00192884               -0.61558941                0.97448918                2.48772237                0.36045946
               8.25574255                1.93894680                9.92136651                0.41299765                0.28106598                0.29025378               -0.85946319                0.20389097                0.84090897                0.78031412
               9.25874734                1.91715526                9.88183609                1.00000000                0.35012465                0.37164943               -1.16097962                0.03166131                0.31438050                0.33757279
              10.26274504                1.89530017                9.83943431                1.00000000                0.39976992                0.43032404               -1.48371592               -0.02052901                0.16798410               -0.40919071
               0.29573351                3.10430230               10.13167123                1.00000000               -0.28554116               -0.36868122                1.15561931               -0.03603202                0.02665750                0.93882546
               1.29287810                3.07558634               10.08025275                1.00000000               -0.23405855               -0.24217281                0.79014974               -0.01881266                0.02891939               -0.03541494
               2.29105234                3.04642134               10.02877724                0.14842087               -0.09426159               -0.11835949                0.42535473               -0.05786488                0.83548925               -1.07889922
               3.29099287                3.01599337                9.99346978                0.00010000               -0.27007637                0.05190394                0.11674016                0.71833348                3.30602854               -1.19530895
               4.28565081                3.00231308                9.99165655                0.00010000               -0.49718798                0.13795238                0.03728299                1.74534748                4.54252491               -1.55261064
               5.28104911                2.98580004                9.98325490                0.00010000               -0.34382559                0.05426399               -0.09672842                1.67235298                3.92808531               -0.94969918
               6.27877430                2.96956099                9.97193656                0.00010000               -0.14480447                0.09617424               -0.32698475                1.56390274                3.63872261                0.31017168
               7.27815302                2.95579549                9.95886633                0.00010000               -0.01774931               -0.10396305               -0.51658412                1.14546396                3.40709281                0.12625042
               8.27841931                2.94187743                9.94369212                0.26041728                0.12910404                0.28123702               -0.70919142                0.48930766                1.97699653                1.40567948
               9.28073510                2.92081572                9.90266662                1.00000000                0.28687058                0.33578127               -0.98769659                0.04204282                0.33633503                0.50197585
              10.28415673                2.89937083                9.85477813                1.00000000                0.34216268                0.39133849               -1.34602251               -0.02936013               -0.01081016               -0.33046035
               0.32345871                4.10074280               10.12114287                1.00000000               -0.24541770               -0.34215978                1.04171281               -0.03637178                0.02651519                0.91685660
               1.32100453                4.07337161               10.06480884                1.00000000               -0.19134136               -0.19844266                0.64537001               -0.01694419                0.02778025               -0.04541466
               2.31963188                4.04556524               10.00839015                0.06111953               -0.12128441               -0.05768041                0.24802079                0.04228220                1.42826913               -0.96918967
               3.31857885                4.01845996                9.98008390                0.00010000               -0.26457520                0.37273762               -0.22844316                0.57244223                4.31049601               -0.24026758
               4.31434038                4.00392069                9.98152285                0.00010000               -0.40324088                0.18212047               -0.12787850                1.18349029                5.49517371               -0.57566943
               5.31051403                3.98723244                9.97949195                0.00010000               -0.37523579                0.17224116               -0.18928657                1.14010337                5.17570374               -0.40074912
               6.30683566                3.97112575                9.97659011                0.00010000               -0.33975807                0.17530492               -0.28516314                1.13542608                5.02711216                0.00346515
               7.30371887                3.95663940                9.97363801                0.00010000               -0.31635948                0.12882982               -0.38636618                1.11548912                5.05656809                0.61935744
               8.30050847                3.94457154                9.97299642                0.26278258               -0.08120376                0.21628765               -0.46703402                0.51927785                2.60880862                1.51319288
               9.30209479                3.92387089                9.92250293                1.00000000                0.22695688                0.27210780               -0.81205217                0.02314588                0.05710079                0.44460548
              10.30504761                3.90312694                9.87092281                1.00000000                0.29528204                0.35460023               -1.19448756               -0.02749382               -0.00017986               -0.31117022
               0.34974845                5.09745911               10.11019153                1.00000000               -0.20316695               -0.31027057                0.91907502               -0.03886622                0.06940915                0.86823610
               1.34771678                5.07161749               10.04932426                0.86139502               -0.14694027               -0.14965019                0.49682617               -0.02136484                0.10968939               -0.10546735
               2.34680964                5.04526773                9.98915546                0.02123739               -0.18152584                0.00108388                0.08653622                0.23029613                2.61893723               -0.99300363
               3.34408626                5.02344812                9.97852445                0.00010000               -0.31307544                0.39671246               -0.17364721                0.59778178                5.39878048               -0.10377047
               4.34054813                5.00595549                9.97589055                0.00010000               -0.37200746                0.23430542               -0.20602095                0.87206842                5.96459355               -0.34191400
               5.33664611                4.98924486                9.97864298                0.00010000               -0.42361351                0.22042415               -0.21188494                0.88872923                6.20443566               -0.20447114
               6.33207586                4.97306709                9.98297275                0.00010000               -0.48145470                0.20737618               -0.23107863                0.88516188                6.25519809                0.13846644
               7.32701702                4.95837209                9.98896268                0.00010000               -0.52512381                0.17119498               -0.24625295                0.91096536                6.34879147                0.63912359
               8.32157338                4.94620318                9.99729818                0.27611069               -0.21872006                0.11853236               -0.24160962                0.44699400                3.20464731                1.20332056
               9.32264261                4.92625787                9.94217758                1.00000000                0.17606810                0.20511514               -0.62873619                0.01430823                0.01541873                0.41474901
              10.32509475                4.90646284                9.88675536                1.00000000                0.24521321                0.31078004               -1.03255927               -0.02800438               -0.00272305               -0.33349418
               0.37436462                6.09453739               10.09854895                1.00000000               -0.15960133               -0.26792958                0.78688696               -0.04151116                0.06789812                0.80264930
               1.37276861                6.07037861               10.03264999                0.72513311               -0.09787257               -0.09665230                0.32733314               -0.02871520                0.15429595               -0.22002400
               2.37240717                6.04558691                9.96837940                0.01170450               -0.14609434                0.06461497               -0.11883347                0.27658134                3.37776135               -1.18318613
               3.36984672                6.02639421                9.96704462                0.00010000               -0.32110800                0.27186103               -0.20024029                0.65622610                6.64229673               -0.72961355
               4.36598501                6.00860680                9.97070864                0.00010000               -0.43348541                0.28187571               -0.22237754                0.73956828                6.98210157               -0.41516808
               5.36117701                5.99164093                9.97873443                0.00010000               -0.52866694                0.26516134               -0.19902412                0.71999073                7.23397645               -0.16264569
               6.35541167                5.97527328                9.98996660                0.00010000               -0.61874638                0.23354784               -0.15953148                0.68386583                7.39527387                0.18100320
               7.34880209                5.96006330               10.00379241                0.00010000               -0.69245513                0.15959345               -0.10584068                0.69305607                7.54043539                0.61334487
               8.34156257                5.94694219               10.02035290                0.29302561               -0.33403934                0.03592797               -0.02968626                0.33352076                3.80394011                1.11475411
               9.34212130                5.92797319                9.96146811                0.92968659                0.12575164                0.14233590               -0.44939884                0.00572936                0.02867132                0.37600201
              10.34407760                5.90934254                9.90250747                1.00000000                0.19563027                0.26365442               -0.87053214               -0.02626342                0.02363690               -0.36954812
               0.39723578                7.09210051               10.08612830                1.00000000               -0.11428341               -0.21605521                0.64505178               -0.04010481                0.03881571                0.74683256
               1.39609294                7.06968444               10.01484724                0.65001706               -0.04550538               -0.04336346                0.14982566               -0.02936848                0.13579772               -0.29836094
               2.39632567                7.04656003                9.94542080                0.02038945               -0.09510231                0.12769286               -0.33843347                0.26848068                4.04164421               -1.35557831
               3.39419090                7.02888534                9.95240705                0.00010000               -0.31164468                0.25847341               -0.29676304                0.60470875                7.91509606               -0.94978550
               4.39009278                7.01159301                9.96357671                0.00010000               -0.49057268                0.31239424               -0.23902209                0.61302577                8.16036461               -0.54097298
               5.38437944                6.99454809                9.97852449                0.00010000               -0.63809881                0.31477769               -0.16943775                0.55671838                8.35965599               -0.18315245
               6.37733080                6.97773805                9.99678652                0.00010000               -0.75851074                0.26704812               -0.08017724                0.47533442                8.53092466                0.17238176
               7.36920923                6.96156396               10.01822598                0.00010000               -0.84984448                0.14869611                0.03340160                0.43287053                8.71214917                0.58199188
               8.36033391                6.94692174               10.04290098                0.31326682               -0.44261913               -0.03640671                0.17449087                0.18714875                4.40356254                1.07178110
               9.36035685                6.92910459                9.98042052                0.89486875                0.07484349                0.08643637               -0.27177280               -0.00100439                0.03364449                0.33182433
              10.36183078                6.91173592                9.91763475                1.00000000                0.14739338                0.21546277               -0.71964585               -0.02556926                0.01957861               -0.42861513
               0.41839467                8.09021628               10.07319773                1.00000000               -0.06729503               -0.16172797                0.49827956               -0.03730106                0.02358121                0.71759099
               1.41772172                8.06951134                9.99658991                0.62910740                0.00906059                0.00983807               -0.03194085               -0.02342889                0.09224781               -0.33372420
               2.41857588                8.04814077                9.92129411                0.03691618               -0.04068985                0.18845313               -0.56812264                0.24328739                4.66702165               -1.38061888
               3.41690792                8.03156367                9.93639647                0.00010000               -0.29965500                0.27778380               -0.37745013                0.51095266                9.21278083               -0.96647484
               4.41258278                8.01485468                9.95558874                0.00010000               -0.53707915                0.33632486               -0.24733337                0.46864455                9.38736899               -0.52619648
               5.40616634                7.99793648                9.97772360                0.00010000               -0.73401468                0.35310238               -0.13646351                0.39096845                9.50320528               -0.17601893
               6.39790249                7.98061424               10.00301086                0.00010000               -0.89452667                0.32408403               -0.00278737                0.26595775                9.66261026                0.14018007
               7.38827581                7.96303722               10.03198345                0.00633513               -1.00687892                0.17284213                0.16618599                0.11913960                9.89402277                0.49990460
               8.37776491                7.94621405               10.06509514                0.33703026               -0.54943903               -0.10292700                0.37348735                0.00418968                5.00857864                1.00328625
               9.37728703                7.92970192                9.99881175                0.89797596                0.02693218                0.03347540               -0.10605543               -0.00503260                0.02503483                0.31034930
              10.37830355                7.91365180                9.93213792                1.00000000                0.10165278                0.17211720               -0.57589192               -0.02639308                0.00702055               -0.46117381
               0.43789964                9.08886596               10.06002458                1.00000000               -0.01997659               -0.11206977                0.35072690               -0.03306243                0.01743059                0.59433899
               1.43769988                9.06988120                9.97808971                0.65187847                0.06197208                0.06539802               -0.21584528               -0.01236669                0.11153836               -0.30677752
               2.43913908                9.05032910                9.89800511                0.04256969               -0.00019183                0.24443478               -0.79070852                0.19907304                5.35869087               -0.99417895
               3.43769604                9.03444102                9.92128641                0.00010000               -0.30231112                0.31254690               -0.38938703                0.33161554               10.50372484               -0.66278169
               4.43309286                9.01831950                9.94810115                0.00010000               -0.56283924                0.34672435               -0.24753779                0.27880374               10.54569342               -0.32882804
               5.42643926                9.00161013                9.97672336                0.00010000               -0.77718260                0.36745510               -0.11083294                0.22355062               10.56075717               -0.10575340
               6.41754921                8.98421973               10.00825787                0.00010000               -1.02235225                0.36485614                0.06141473                0.09712224               10.71977175                0.08744402
               7.40599221                8.96502080               10.04412891                0.01555400               -1.18980999                0.30755202                0.28197093               -0.12431717               11.06778797                0.30497414
               8.39375301                8.94486320               10.08621609                0.36258392               -0.65868800               -0.15868357                0.55883862               -0.23226690                5.69673629                0.70007801
               9.39281845                8.92977410               10.01729014                0.94067499               -0.01749224               -0.01868734                0.05402373               -0.00628080                0.06287891                0.28164114
              10.39340317                8.91517827                9.94653319                0.96383799                0.05847150                0.13514246               -0.44171603               -0.02672123               -0.02516288               -0.38656936
               0.45570293               10.08797489               10.04446731                1.00000000                0.03083207               -0.08910678                0.19721816                0.06476960                0.34598343                0.48343450
               1.45601125               10.07081930                9.96043451                0.85508902                0.11473010                0.09380964               -0.38808388                0.08386600                0.62177210               -0.27139454
               2.45799753               10.05302947                9.88192423                0.52877968               -0.02307100                0.27003717               -0.95398324                0.23560992                6.23926852               -0.65587906
               3.45554983               10.03781461                9.91055954                0.35712565               -0.35038924                0.33735914               -0.42138169                0.22336376               11.43785748               -0.31389504
               4.45098974               10.02178917                9.94261280                0.35316905               -0.54063490                0.34696656               -0.27483988                0.16323661               11.42716506               -0.12767661
               5.44473713               10.00528558                9.97589672                0.37568364               -0.72777373                0.36754463               -0.10899414                0.13589699               11.40837007               -0.00971335
               6.43643427                9.98791136               10.01207994                0.42191088               -0.97955668                0.36916344                0.10177720                0.08364006               11.59162984                0.09200764
               7.42514599                9.96918827               10.05301594                0.51156826               -1.40339972                0.41674642                0.36721388               -0.32817069               12.07258916                0.21535193
               8.40836627                9.94304038               10.10219504                0.69284885               -0.91498268               -0.18228181                0.70057741               -0.53167824                6.51540238                0.45603708
               9.40684634                9.92932817               10.03503824                1.00000000               -0.07027392               -0.04459278                0.20811619                0.06850238                0.43817617                0.25201782
              10.40696080                9.91635465                9.96249745                1.00000000                0.01144542                0.11763779               -0.29910317                0.05841033                0.17479690               -0.30616426
               0.24415947                0.13700941               11.18205999                1.00000000               -0.38964896               -0.43150823                1.48909664               -0.07510414               -0.50774896                0.55581534
               1.24026298                0.10021037               11.13688686                1.00000000               -0.32147802               -0.33776754                1.18170788               -0.05602872               -0.61538175                0.01265639
               2.23772991                0.06316089               11.08943405                1.00000000               -0.17377899               -0.24619222                0.84022137               -0.04303353               -0.54755062               -0.18659617
               3.23678740                0.02700701               11.04552023                0.60713190                0.30790429               -0.18292379                0.53332649                0.40667094                0.40791321               -0.37017382
               4.24388800                0.00118034               11.01712321                0.66090541                0.49502457               -0.13124634                0.23633021               -0.00757814                1.05131821                0.02831431
               5.24668789               -0.01761045               10.98604998                0.72563082                0.18755803                0.00167475               -0.09196187                0.00195867                0.72559430                0.02174656
               6.24763916               -0.03536161               10.95148442                0.71869762                0.05138823                0.10914834               -0.43497732                0.00646077                0.58321996               -0.01286705
               7.24771566               -0.05522769               10.91769590                0.82972216                0.05281636                0.21787260               -0.78288045                0.06245073                0.33822567                0.03002653
               8.24869548               -0.07965386               10.87827663                1.00000000                0.20957184                0.33577519               -1.10996161                0.04375043               -0.12670009                0.33053777
               9.25190709               -0.10673698               10.83537645                1.00000000                0.39007461                0.41000378               -1.42547740               -0.05097711               -0.32313315                0.02276536
              10.25649698               -0.13393475               10.79220625                1.00000000                0.45898817                0.49818679               -1.72951283               -0.07987967               -0.34359041               -0.36530178
               0.28020747                1.13269432               11.16635242                1.00000000               -0.35805126               -0.41438639                1.35309841               -0.03131795               -0.05379632                0.75965406
               1.27662695                1.09683269               11.12072801                1.00000000               -0.31531065               -0.31581899                1.04696644               -0.01068553                0.00692732                0.02522900
               2.27390125                1.06069897               11.07623924                0.73994971               -0.23912833               -0.22239287                0.73133041                0.01803703                0.24350838               -0.51727810
               3.27184439                1.02517778               11.03535160                0.07201231               -0.38901534               -0.17712225                0.41689167                0.54780911                1.45761901               -0.72931844
               4.26612095                0.99986787               11.01529855                0.19308180               -0.34329674                0.09970824                0.20228703                0.33703584                2.06054714                0.49086597
               5.26497845                0.98240630               10.98802556                0.26222385                0.01957189                0.09425321               -0.09357862                0.41833282                1.47403417                0.24422175
               6.26651238                0.96572987               10.95690752                0.18279502                0.27539188               -0.02681301               -0.40764170                0.37005389                1.33404658               -0.35561084
               7.27048629                0.94695104               10.92720926                0.35772628                0.41876254                0.24479690               -0.70792656                0.44694754                1.24104885                0.54566567
               8.27488764                0.92370389               10.89446527                1.00000000                0.40257405                0.31019196               -0.98942682                0.16321693                0.61645759                0.43570168
               9.27853777                0.89736306               10.85226866                1.00000000                0.40041583                0.39200425               -1.28917055               -0.00177564                0.08915891                0.07428757
              10.28289595                0.87104712               10.80904066                1.00000000                0.43581808                0.47156000               -1.59278346               -0.03154359                0.03306474               -0.43220922
               0.31525637                2.12872168               11.15455935                1.00000000               -0.32117419               -0.38448187                1.24198482               -0.03114207                0.02978052                0.98176994
               1.31204463                2.09389399               11.10472612                1.00000000               -0.27554009               -0.27665958                0.91648187               -0.01026453                0.10852900                0.00719225
               2.30974557                2.05871303               11.05640240                0.35170451               -0.17349761               -0.17750356                0.61037320                0.01440968                0.68160691               -1.02398635
               3.30857468                2.02346457               11.01802061                0.00010000               -0.81726894               -0.16044674                0.29541887                0.85278973                3.30895744               -1.38729300
               4.29340019                2.00317450               11.02237771                0.00010000               -0.96910648                0.24458395                0.44834987                1.63738971                3.42897906               -0.94822362
               5.28919255                1.98427462               10.99434146                0.00010000               -0.14523476                0.07312291               -0.05283915                1.40130788                1.33485939               -0.47147839
               6.29049550                1.96410213               10.95549520                0.00010000                0.47440211               -0.09111142               -0.38217886                1.40596145                2.32153914                0.06104357
               7.29868059                1.94966825               10.94711297                0.00010000                0.55261544               -0.02139666               -0.61708501                1.00854679                2.58962398                0.38454428
               8.30154780                1.92654998               10.91282683                0.41873747                0.29238854                0.29120620               -0.84906240                0.23088452                0.90558785                0.81611758
               9.30452836                1.90110310               10.87029164                1.00000000                0.34750921                0.37074766               -1.14823926                0.03789836                0.33666648                0.35369028
              10.30849799                1.87549645               10.82467259                1.00000000                0.39696280                0.42143178               -1.46887512               -0.01867451                0.17964688               -0.44665797
               0.34924000                3.12500469               11.14309893                1.00000000               -0.28096904               -0.35965536                1.13147887               -0.03182244                0.02683325                0.99751180
               1.34643031                3.09129950               11.08810819                1.00000000               -0.23105669               -0.23955531                0.78088684               -0.01373260                0.02860209               -0.03313917
               2.34461887                3.05714889               11.03306949                0.16119556               -0.09958000               -0.12320457                0.43146929               -0.04135106                0.86157258               -1.14365598
               3.34443871                3.02196884               10.99470461                0.00010000               -0.32800867                0.02234909                0.12756684                0.81013169                3.47025020               -1.37040541
               4.33805869                3.00475955               10.99206442                0.00010000               -0.61808657                0.15135932                0.03579093                2.00586142                4.79796686               -1.84969076
               5.33207698                2.98386876               10.98224476                0.00010000               -0.44103578                0.06130125               -0.10700763                1.83514088                4.12067431               -1.02873587
               6.32923798                2.96390765               10.96870405                0.00010000               -0.19338018                0.06770802               -0.32067533                1.70894752                3.80608850                0.33363123
               7.32820938                2.94652311               10.95374410                0.00010000               -0.05837534               -0.11291594               -0.50759962                1.24864952                3.58710730                0.17211508
               8.32807047                2.92952802               10.93668170                0.25779747                0.10699479                0.28741412               -0.69470222                0.53881616                2.09771065                1.48329931
               9.33034927                2.90477801               10.89284157                1.00000000                0.28326518                0.33640582               -0.97788205                0.05151119                0.37489558                0.53182873
              10.33373578                2.87947575               10.84138298                1.00000000                0.33865036                0.38433311               -1.33384785               -0.02810778               -0.00907439               -0.35429660
               0.38203029                4.12152857               11.13142421                1.00000000               -0.24045202               -0.33410281                1.01625103               -0.03261328                0.02610289                0.96979510
               1.37962577                4.08910288               11.07122813                1.00000000               -0.18905401               -0.19675301                0.63837796               -0.01272900                0.02590757               -0.04822041
               2.37824921                4.05624894               11.01093706                0.07178342               -0.12295580               -0.06219016                0.25945893                0.03592517                1.37935107               -1.02223111
               3.37716665                4.02391155               10.97780966                0.00010000               -0.33158530                0.36462105               -0.21976071                0.62116698                4.52037794               -0.31589830
               4.37161750                4.00620169               10.98029609                0.00010000               -0.52096916                0.16808851               -0.12204343                1.29302565                5.91485584               -0.66759058
               5.36674727                3.98550064               10.97765236                0.00010000               -0.47987028                0.18499755               -0.18152412                1.22429847                5.49177014               -0.45815941
               6.36202010                3.96545629               10.97378131                0.00010000               -0.43570307                0.18295096               -0.27711677                1.21288332                5.31978022                0.01596709
               7.35803321                3.94740993               10.96980267                0.00010000               -0.39754377                0.13855490               -0.37991114                1.20231326                5.35004517                0.67954214
               8.35406922                3.93229826               10.96831907                0.25812473               -0.12111789                0.22139723               -0.46734144                0.56886925                2.77571312                1.62253397
               9.35561085                3.90783122               10.91441990                1.00000000                0.22355646                0.27065938               -0.80547811                0.03098601                0.07664889                0.47854996
              10.35854035                3.88318311               10.85903207                1.00000000                0.29295006                0.35115139               -1.18540230               -0.02587864                0.00048813               -0.32081568
               0.41343911                5.11832263               11.11923631                1.00000000               -0.19837472               -0.30219640                0.89185727               -0.03558502                0.07450575                0.91295455
               1.41145536                5.08736444               11.05426914                0.84915257               -0.14552033               -0.14820110                0.49196144               -0.01800782                0.11983207               -0.12039944
               2.41052870                5.05590509               10.99012118                0.02968244               -0.22730305               -0.00344297                0.10415572                0.24644668                2.69265918               -1.06018155
               3.40690930                5.02926126               10.97663903                0.00010000               -0.40992931                0.43068724               -0.21479489                0.62345458                5.68274511               -0.01922858
               4.40233012                5.00812132               10.97386883                0.00010000               -0.48004788                0.23025453               -0.20158012                0.94840043                6.38697404               -0.35278833
               5.39730834                4.98756871               10.97658579                0.00010000               -0.53718818                0.22888306               -0.20169771                0.94394442                6.61628862               -0.20990246
               6.39158635                4.96756667               10.98070677                0.00010000               -0.59473377                0.22631555               -0.22231694                0.93949830                6.65298619                0.16372895
               7.38541367                4.94929420               10.98651244                0.00010000               -0.62798930                0.18808098               -0.24294693                0.97808061                6.74949098                0.70170718
               8.37902657                4.93395596               10.99484284                0.27088641               -0.26647617                0.11981049               -0.24828464                0.48601872                3.41482019                1.30036021
               9.38008415                4.91019120               10.93592531                0.99324705                0.17439285                0.20271647               -0.62572093                0.01933815                0.02641958                0.44977283
              10.38251442                4.88649878               10.87650775                1.00000000                0.24302790                0.30948780               -1.02266853               -0.02611857                0.00103212               -0.33765953
               0.44323496                6.11548464               11.10626261                1.00000000               -0.15518123               -0.25936662                0.75818272               -0.03831620                0.06810830                0.83874059
               1.44168315                6.08613886               11.03591256                0.71490849               -0.09768208               -0.09566070                0.32504408               -0.02506551                0.16009855               -0.24872979
               2.44128132                6.05618008               10.96732219                0.01767926               -0.21318191                0.05962489               -0.09514989                0.31414189                3.56347874               -1.27901186
               3.43741951                6.03252530               10.96510721                0.00010000               -0.45016284                0.29279585               -0.19484955                0.72231034                7.03873228               -0.70342823
               4.43227807                6.01080678               10.96854037                0.00010000               -0.56193497                0.29241846               -0.21614771                0.81519438                7.43643349               -0.38906639
               5.42618081                5.99007830               10.97680951                0.00010000               -0.65967488                0.28387025               -0.18811953                0.78262883                7.71457564               -0.13852119
               6.41908457                5.96998260               10.98841442                0.00010000               -0.74876452                0.25949520               -0.15132628                0.73346525                7.88127122                0.21937823
               7.41120552                5.95117155               11.00273435                0.00010000               -0.80959833                0.18031897               -0.10508868                0.74428943                8.03363050                0.67501507
               8.40289260                5.93469447               11.01999144                0.28778654               -0.38753634                0.03642794               -0.04188411                0.35981972                4.05482707                1.20280628
               9.40345480                5.91188555               10.95697423                0.91626203                0.12551082                0.14230230               -0.45130953                0.00769559                0.03534623                0.40784484
              10.40540282                5.88937287               10.89384258                1.00000000                0.19480209                0.26533171               -0.86792599               -0.02410885                0.03045517               -0.38123064
               0.47136435                7.11313530               11.09241937                1.00000000               -0.11057323               -0.20757535                0.61588026               -0.03685710                0.03712524                0.77634888
               1.47025862                7.08545123               11.01636085                0.64114692               -0.04696207               -0.04336467                0.15257582               -0.02509227                0.13642701               -0.33222406
               2.47042511                7.05709759               10.94222180                0.02329719               -0.17649029                0.12046983               -0.30458195                0.31806862                4.30004312               -1.46220551
               3.46672881                7.03511718               10.94955105                0.00010000               -0.46720542                0.26964361               -0.27940378                0.69712682                8.43887057               -0.95867876
               4.46108100                7.01396969               10.96126362                0.00010000               -0.64718571                0.33962198               -0.22744789                0.70951878                8.69877897               -0.50871076
               5.45378510                6.99324611               10.97689590                0.00010000               -0.79592948                0.35241614               -0.15873834                0.63089591                8.90988945               -0.14585553
               6.44516241                6.97275657               10.99602349                0.00010000               -0.90987546                0.30649365               -0.07322289                0.52319474                9.09456846                0.21542832
               7.43558759                6.95290058               11.01854346                0.00010000               -0.98267229                0.17663424                0.03081899                0.46671277                9.28985963                0.64020282
               8.42550896                6.93468452               11.04455114                0.30837346               -0.50139609               -0.03418998                0.15697649                0.20164565                4.69398507                1.15353625
               9.42555967                6.91303724               10.97764943                0.88049210                0.07743266                0.08933160               -0.28414120                0.00132297                0.03480599                0.36040313
              10.42705762                6.89180541               10.91042398                1.00000000                0.14979516                0.22068432               -0.72702749               -0.02304219                0.02161311               -0.44578248
               0.49786596                8.11133314               11.07802416                1.00000000               -0.06469452               -0.15386388                0.47001828               -0.03426003                0.02112275                0.74434940
               1.49721902                8.08527157               10.99632359                0.62073971                0.00553917                0.00797260               -0.02215076               -0.01936595                0.08611137               -0.36997701
               2.49797675                8.05858948               10.91587696                0.03588841               -0.13645339                0.17646812               -0.51988654                0.30759039                5.00092695               -1.48722410
               3.49448995                8.03791817               10.93264460                0.00010000               -0.48186183                0.30451905               -0.37126816                0.63197306                9.86648936               -0.94295299
               4.48833951                8.01759922               10.95313193                0.00010000               -0.72390469                0.39168729               -0.24439032                0.57868347               10.00710133               -0.48517822
               5.48001185                7.99712662               10.97641019                0.00010000               -0.92227572                0.41446593               -0.12861831                0.46674480               10.12039441               -0.13746088
               6.46989399                7.97611248               11.00301400                0.00010000               -1.07000132                0.38281935                0.00213834                0.30462167               10.29901563                0.17802700
               7.45861183                7.95470424               11.03360719                0.00571466               -1.15525701                0.21414354                0.15947079                0.12841146               10.55383809                0.54703937
               8.44678885                7.93401067               11.06868341                0.33306551               -0.61257315               -0.09779913                0.34758787                0.00346928                5.33793649                1.07503131
               9.44636037                7.91367218               10.99769140                0.88920304                0.03083915                0.03739251               -0.12059450               -0.00177920                0.02339268                0.33289737
              10.44740564                7.89378655               10.92638481                1.00000000                0.10452716                0.17697974               -0.58293167               -0.02285617                0.01169455               -0.48164235
               0.52280228                9.11005802               11.06338295                1.00000000               -0.01873259               -0.10461560                0.32415862               -0.03075220                0.01265052                0.61746993
               1.52261496                9.08561068               10.97603123                0.64307737                0.05640161                0.06068430               -0.19749586               -0.01006187                0.10239593               -0.33792824
               2.52393032                9.06062695               10.89045365                0.03689856               -0.11282135                0.22679197               -0.72604437                0.29548349                5.79069897               -1.06808076
               3.52035853                9.04120756               10.91709107                0.00010000               -0.52420518                0.39483521               -0.42852795                0.45183372               11.27611719               -0.61704212
               4.51344621                9.02180344               10.94553388                0.00010000               -0.78758981                0.43309789               -0.26139950                0.36586819               11.21595691               -0.29431243
               5.50460673                9.00153543               10.97564341                0.00010000               -0.98844902                0.44826428               -0.10754105                0.27418998               11.23803535               -0.07939269
               6.49367723                8.98041296               11.00889541                0.00010000               -1.21745581                0.43858616                0.06433485                0.11786792               11.42763339                0.11038938
               7.48025762                8.95718345               11.04688868                0.01620087               -1.35334141                0.37081542                0.27120554               -0.13693534               11.81032752                0.33021536
               8.46661040                8.93272854               11.09160538                0.36038227               -0.72547074               -0.14956763                0.52393153               -0.25520279                6.06925214                0.74289694
               9.46574820                8.91378509               11.01773212                0.93839961               -0.01193247               -0.01336574                0.03506377               -0.00535403                0.05866455                0.29761112
              10.46637175                8.89534501               10.94210533                0.96581457                0.06235507                0.13782503               -0.44920053               -0.02384552               -0.02439832               -0.40649919
               0.54614560               10.10924082               11.04631066                1.00000000                0.03032511               -0.08171964                0.17443430                0.05877440                0.35261439                0.50253436
               1.54644885               10.08648525               10.95669273                0.85119471                0.10719689                0.08745737               -0.36262445                0.07761365                0.63699704               -0.29603070
               2.54828954               10.06312532               10.87277380                0.52513532               -0.20493555                0.24983643               -0.88312175                0.40240283                6.75918703               -0.69924577
               3.54235014               10.04581487               10.90586457                0.35798693               -0.64802670                0.46073119               -0.48664727                0.35595365               12.29632189               -0.28197727
               4.53532900               10.02626118               10.93973120                0.35348824               -0.77320013                0.44577383               -0.29544157                0.20213079               12.14888158               -0.10822458
               5.52688613               10.00609191               10.97483010                0.37571231               -0.93628351                0.45564785               -0.10677177                0.15909120               12.15332637                0.00609001
               6.51660333                9.98488420               11.01311931                0.42190901               -1.16642975                0.44712422                0.10429833                0.09404163               12.37608199                0.10659565
               7.50355754                9.96212054               11.05661879                0.51240010               -1.57600866                0.49370911                0.35470290               -0.36325175               12.89874334                0.23231233
               8.48508316                9.93101932               11.10897289                0.69265662               -0.99603620               -0.17092173                0.66116361               -0.58850845                6.94056032                0.47548911
               9.48363682                9.91340487               11.03698057                1.00000000               -0.06371291               -0.03802268                0.18206113                0.06504778                0.45179062                0.26417704
              10.48380890                9.89654305               10.95945276                1.00000000                0.01720839                0.11980449               -0.31078165                0.05753305                0.18077806               -0.32117025
               0.28561005                0.15912104               12.19683186                1.00000000               -0.38343659               -0.42385579                1.46661148               -0.07433168               -0.54290883                0.58789660
               1.28177569                0.11720303               12.14862509                1.00000000               -0.31628505               -0.33331495                1.16693147               -0.05651093               -0.66665344                0.01960161
               2.27928435                0.07505568               12.09783034                1.00000000               -0.17054277               -0.24531686                0.83967076               -0.04237762               -0.59993075               -0.18456778
               3.27836483                0.03388835               12.05088641                0.61280228                0.30977655               -0.18506898                0.54027058                0.42568859                0.37208725               -0.40451709
               4.28547988                0.00352643               12.01948708                0.67167594                0.48808419               -0.11540253                0.23727983               -0.01639390                1.00521613                0.04232697
               5.28812651               -0.01932972               11.98515900                0.73976270                0.17671457                0.00649346               -0.08600446                0.00463353                0.66320531                0.02829271
               6.28901417               -0.04107959               11.94719933                0.72958058                0.04697498                0.10830212               -0.42196313                0.00764374                0.51110527               -0.01829888
               7.28906601               -0.06481191               11.90994778                0.83607691                0.04735695                0.21422183               -0.76602766                0.06029821                0.27295264                0.03136089
               8.28996131               -0.09308357               11.86726521                1.00000000                0.20097983                0.33197529               -1.09159229                0.04450668               -0.17398420                0.34222693
               9.29308561               -0.12409485               11.82121898                1.00000000                0.38215156                0.40481346               -1.40538211               -0.05106061               -0.35824545                0.02087807
              10.29760434               -0.15525963               11.77501862                1.00000000                0.45187326                0.49134528               -1.70727003               -0.07947126               -0.37311481               -0.39561163
               0.32678474                1.15488248               12.17977393                1.00000000               -0.35414803               -0.40578582                1.33245581               -0.03128651               -0.06105652                0.80281131
               1.32324326                1.11386988               12.13113182                1.00000000               -0.31334099               -0.31121507                1.03428609               -0.01141488               -0.00542496                0.03359349
               2.32051792                1.07260251               12.08352763                0.75696939               -0.24284587               -0.22166143                0.72710941                0.02086411                0.22778381               -0.52002515
               3.31838634                1.03203766               12.03954409                0.08570041               -0.42964698               -0.17826721                0.42170026                0.58564127                1.48970181               -0.76661117
               4.31192498                1.00237241               12.01731154                0.21330770               -0.39552396                0.09524318                0.20055316                0.23582483                2.10932738                0.61202051
               5.31047586                0.98073521               11.98710506                0.28588177               -0.00466365                0.09140571               -0.09071381                0.36995440                1.48144322                0.26567231
               6.31183170                0.96000343               11.95287999                0.20081435                0.25975628               -0.01468996               -0.39823330                0.33966290                1.34060397               -0.36065622
               7.31567099                0.93733031               11.92019303                0.37027023                0.41080728                0.23433081               -0.69513504                0.43768004                1.25973902                0.55333514
               8.32004785                0.91023618               11.88463920                1.00000000                0.39960255                0.30681452               -0.97571646                0.16686467                0.63041616                0.45678481
               9.32366304                0.87995328               11.83945567                1.00000000                0.39632816                0.38755037               -1.27330075               -0.00165336                0.09165768                0.07453020
              10.32797441                0.84965382               11.79320202                1.00000000                0.43113767                0.46421582               -1.57468720               -0.03135981                0.03336130               -0.46887776
               0.36700951                2.15100532               12.16686975                1.00000000               -0.31821495               -0.37474010                1.22135375               -0.02931283                0.02947438                1.03639669
               1.36382736                2.11097873               12.11383416                1.00000000               -0.27378250               -0.27241724                0.90540083               -0.00732755                0.11701344                0.01462706
               2.36153386                2.07062245               12.06249404                0.36773364               -0.17598004               -0.17944750                0.60693928                0.02568593                0.69439499               -1.05850043
               3.36030776                2.03032300               12.02099294                0.00010000               -1.00175175               -0.16207240                0.29769673                0.89127232                3.51925891               -1.44770103
               4.34149882                2.00543129               12.02624249                0.00010000               -1.12065908                0.25142384                0.34571262                1.71602066                3.63810084               -0.99821226
               5.33789458                1.98249839               11.99371175                0.00010000               -0.11432440                0.05896010               -0.06828592                1.47712120                1.32762826               -0.47041376
               6.33921234                1.95862661               11.95172951                0.00010000                0.48461428               -0.10279654               -0.37337644                1.44706693                2.41470475                0.06827198
               7.34758686                1.93987471               11.94094699                0.00010000                0.57316482               -0.03911069               -0.61473090                1.03363185                2.69075450                0.41267647
               8.35067563                1.91305272               11.90438526                0.42499842                0.30240228                0.29074952               -0.83989968                0.25048296                0.97414537                0.85574390
               9.35363491                1.88365616               11.85887130                1.00000000                0.34502222                0.36853744               -1.13617682                0.04203248                0.35949092                0.37071287
              10.35757608                1.85402468               11.81005681                1.00000000                0.39411682                0.41357995               -1.45446269               -0.01724771                0.19156809               -0.48318967
               0.40625165                3.14738768               12.15430081                1.00000000               -0.27720762               -0.35019999                1.11024736               -0.02844281                0.02777961                1.04968288
               1.40347958                3.10842154               12.09587049                1.00000000               -0.22821452               -0.23662426                0.77160489               -0.00958219                0.02957445               -0.03146197
               2.40168736                3.06901356               12.03740663                0.17404489               -0.10383195               -0.12767607                0.43464840               -0.02609028                0.88387874               -1.20231862
               3.40140294                3.02879621               11.99602112                0.00010000               -0.38086810               -0.00577130                0.13366020                0.88534715                3.61516817               -1.53903227
               4.39407000                3.00740088               11.99237237                0.00010000               -0.72899856                0.16665881                0.02535701                2.22070860                5.03038847               -2.07804433
               5.38682297                2.98191442               11.98111474                0.00010000               -0.53366363                0.06149155               -0.11773121                1.97581259                4.31364994               -1.08484373
               6.38339673                2.95794750               11.96552306                0.00010000               -0.24527278                0.04078815               -0.31591178                1.82511527                3.97684113                0.35597587
               7.38191751                2.93654810               11.94871434                0.00010000               -0.10603343               -0.12063987               -0.49884474                1.33494122                3.76435729                0.22419138
               8.38127606                2.91605117               11.92979807                0.25602836                0.08071065                0.29041753               -0.68416257                0.57529044                2.21766327                1.56221631
               9.38353172                2.88732403               11.88310898                1.00000000                0.28081731                0.33509939               -0.96919869                0.05770509                0.41105561                0.56264126
              10.38689241                2.85792542               11.82810117                1.00000000                0.33606817                0.37805867               -1.32325477               -0.02701352               -0.00717425               -0.37728795
               0.44437292                4.14400132               12.14146789                1.00000000               -0.23630906               -0.32539407                0.99396589               -0.02944558                0.02658459                1.01513045
               1.44200983                4.10624625               12.07757640                1.00000000               -0.18677714               -0.19482341                0.63118029               -0.00917125                0.02514455               -0.05170965
               2.44063738                4.06806893               12.01357932                0.08264311               -0.11912287               -0.06672901                0.26733030                0.02834551                1.32590625               -1.06931126
               3.43962738                4.03020758               11.97568868                0.00010000               -0.39212957                0.34848958               -0.20054782                0.66430583                4.70528297               -0.41436508
               4.43279479                4.00876447               11.97908198                0.00010000               -0.63815830                0.16272832               -0.12364838                1.38957456                6.31474661               -0.75333881
               5.42686421                3.98372822               11.97586147                0.00010000               -0.58569145                0.19876251               -0.17819906                1.29944388                5.79891358               -0.50202706
               6.42108096                3.95944237               11.97104778                0.00010000               -0.53410987                0.18805323               -0.27031938                1.27729475                5.60488456                0.03355610
               7.41618201                3.93746191               11.96603979                0.00010000               -0.48377285                0.14632301               -0.37288224                1.26859732                5.63429615                0.74091773
               8.41140550                3.91886107               11.96364959                0.25423848               -0.16336235                0.22434209               -0.46637581                0.60385438                2.93961053                1.72778852
               9.41291477                3.89035814               11.90639337                1.00000000                0.22137651                0.26874848               -0.80085618                0.03495783                0.09745125                0.51202475
              10.41583303                3.86158586               11.84721477                1.00000000                0.29182687                0.34868593               -1.17948504               -0.02432384                0.00063181               -0.32925739
               0.48117289                5.14087979               12.12802867                1.00000000               -0.19443402               -0.29360925                0.86832420               -0.03277382                0.08019362                0.94947865
               1.47922855                5.10452507               12.05916349                0.83783485               -0.14399721               -0.14669705                0.48668723               -0.01498227                0.13084236               -0.13585072
               2.47829294                5.06767898               11.99123857                0.03848734               -0.26175178               -0.00814337                0.11710493                0.25428255                2.72315246               -1.12046720
               3.47399351                5.03576600               11.97422855                0.00010000               -0.49760478                0.46030176               -0.27509018                0.63761416                5.94614963                0.05956671
               4.46834085                5.01065545               11.97185895                0.00010000               -0.59297846                0.23331020               -0.20326963                1.01701264                6.82452254               -0.36187120
               5.46213394                4.98588967               11.97460903                0.00010000               -0.65659542                0.24160836               -0.19568465                0.98916926                7.01810649               -0.21095435
               6.45520894                4.96170857               11.97852641                0.00010000               -0.71315909                0.24508719               -0.21460291                0.98080931                7.03815785                0.19285610
               7.44787076                4.93947456               11.98410374                0.00010000               -0.73760121                0.20353374               -0.23878044                1.02725583                7.13654942                0.76576240
               8.44045691                4.92053802               11.99233249                0.26629449               -0.31823314                0.12144738               -0.25309293                0.51190845                3.62034166                1.39556999
               9.44150610                4.89269900               11.92966316                0.97899586                0.17467959                0.20239136               -0.63026452                0.02117176                0.04006366                0.48544688
              10.44395051                4.86489914               11.86630199                1.00000000                0.24444088                0.31079222               -1.02442570               -0.02413787                0.00746936               -0.34232536
               0.51642689                6.13812913               12.11371260                1.00000000               -0.15158881               -0.25069247                0.73382150               -0.03556096                0.06831160                0.86683059
               1.51491101                6.10331231               12.03915088                0.70553528               -0.09723962               -0.09480719                0.32235729               -0.02162821                0.16597420               -0.27653775
               2.51448210                6.06790606               11.96647640                0.02409564               -0.27539088                0.05410885               -0.07650435                0.34723483                3.72552670               -1.36556492
               3.50940319                6.03941361               11.96314763                0.00010000               -0.57353611                0.32041842               -0.20560257                0.77287937                7.40609328               -0.64376421
               4.50301138                6.01343067               11.96638568                0.00010000               -0.69043545                0.30858928               -0.21908593                0.87647196                7.87919272               -0.35704445
               5.49559448                5.98856039               11.97497204                0.00010000               -0.79495608                0.30703146               -0.18159800                0.82984324                8.18308786               -0.11125050
               6.48711226                5.96434412               11.98694008                0.00010000               -0.88484004                0.28692328               -0.14449472                0.76689347                8.35156789                0.26029935
               7.47789768                5.94153259               12.00169064                0.00010000               -0.93465151                0.20103095               -0.10370680                0.77769611                8.50974361                0.73769943
               8.46841923                5.92129002               12.01951521                0.28311254               -0.44602991                0.03812388               -0.05233617                0.37620559                4.30024388                1.28912347
               9.46897708                5.89440597               11.95244192                0.90224636                0.12653902                0.14482415               -0.45873025                0.00928532                0.04420965                0.43890665
              10.47095001                5.86780170               11.88514895                1.00000000                0.19729277                0.26894535               -0.87687668               -0.02225542                0.03640030               -0.39564300
               0.55009532                7.13586594               12.09844591                1.00000000               -0.10762653               -0.19947191                0.59172532               -0.03413349                0.03561669                0.79867983
               1.54901906                7.10262893               12.01789876                0.63312589               -0.04794961               -0.04354412                0.15451875               -0.02123226                0.13717967               -0.36314471
               2.54913633                7.06876115               11.93932917                0.02686966               -0.25462881                0.11291900               -0.27709614                0.36683778                4.53489285               -1.55542581
               3.54392648                7.04217437               11.94681897                0.00010000               -0.62064118                0.28754913               -0.27220714                0.78228172                8.92713025               -0.96202419
               4.53672351                7.01682723               11.95902775                0.00010000               -0.80545593                0.37250916               -0.22309781                0.79018851                9.21491488               -0.47424310
               5.52781736                6.99203030               11.97534972                0.00010000               -0.95744468                0.39396824               -0.15256441                0.68587361                9.44228626               -0.10744379
               6.51757461                6.96744703               11.99532206                0.00010000               -1.06692917                0.34793728               -0.06806886                0.55192129                9.63961455                0.25968814
               7.50647878                6.94349518               12.01884236                0.00010000               -1.12334874                0.20501022                0.02903473                0.48194753                9.84773285                0.69809038
               8.49510764                6.92130049               12.04604051                0.30403704               -0.56493289               -0.03147948                0.14157577                0.20602549                4.97565324                1.23236921
               9.49518012                6.89559549               11.97473770                0.86605001                0.08031499                0.09356002               -0.29797921                0.00269728                0.03573222                0.38685145
              10.49671394                6.87027804               11.90309420                1.00000000                0.15338169                0.22679511               -0.73980767               -0.02171318                0.02248351               -0.46346625
               0.58221826                8.13413970               12.08259809                1.00000000               -0.06271073               -0.14685429                0.44724507               -0.03178881                0.01907542                0.76474209
               1.58159115                8.10244142               11.99614689                0.61340886                0.00275773                0.00622892               -0.01415689               -0.01586118                0.08089905               -0.40168556
               2.58227341                8.07016444               11.91089638                0.03606100               -0.23042046                0.16547430               -0.48057547                0.37400311                5.30060688               -1.57733024
               3.57698274                8.04516460               11.92897110                0.00010000               -0.66570944                0.33529191               -0.36392430                0.74640426               10.47308310               -0.93708645
               4.56895922                8.02088086               11.95070093                0.00010000               -0.91452938                0.45033743               -0.24196926                0.67056583               10.60529347               -0.45353152
               5.55869215                7.99643976               11.97515123                0.00010000               -1.11367103                0.47860364               -0.12431974                0.52215392               10.72031515               -0.10130948
               6.54668580                7.97130286               12.00305363                0.00010000               -1.25044946                0.44375872                0.00490602                0.32375118               10.91469082                0.21553022
               7.53368317                7.94563279               12.03517286                0.00535297               -1.31231884                0.25591642                0.15405184                0.11837875               11.19014298                0.59261591
               8.52043943                7.92066043               12.07204690                0.32958754               -0.68148450               -0.09344193                0.32714068               -0.00843245                5.65756512                1.14145270
               9.52005348                7.89627717               11.99639986                0.87437353                0.03555998                0.04208353               -0.13853632               -0.00055755                0.02203277                0.35615192
              10.52115063                7.87233760               11.92047929                1.00000000                0.10971511                0.18511469               -0.60111014               -0.02121427                0.01374178               -0.49952517
               0.61285609                9.13292886               12.06650775                1.00000000               -0.01789993               -0.09847705                0.30337065               -0.02889477                0.00880759                0.63548169
               1.61267709                9.10275351               11.97413979                0.63551864                0.05185646                0.05671299               -0.18246304               -0.00806629                0.09515219               -0.36446272
               2.61389322                9.07207064               11.88348422                0.03298701               -0.22694723                0.21199070               -0.67377567                0.39313569                6.16631950               -1.12896731
               3.60813815                9.04888021               11.91271585                0.00010000               -0.75167785                0.47317316               -0.43719149                0.56497316               11.99158766               -0.59608570
               4.59885966                9.02583398               11.94287316                0.00010000               -1.01498559                0.51745947               -0.26673467                0.43823900               11.87958526               -0.27087393
               5.58783844                9.00160237               11.97457254                0.00010000               -1.20015296                0.52971156               -0.10662551                0.31058054               11.90330205               -0.05637898
               6.57485660                8.97632221               12.00954456                0.00010000               -1.41748240                0.51463041                0.06478329                0.12462748               12.11363235                0.13230092
               7.55948879                8.94861350               12.04955302                0.01683348               -1.52809984                0.43707470                0.26238131               -0.16532138               12.52504411                0.35384198
               8.54429461                8.91943166               12.09669472                0.35833729               -0.79984950               -0.14226382                0.49770493               -0.29000353                6.43069216                0.78195744
               9.54349180                8.89643716               12.01799142                0.93057184               -0.00629080               -0.00811750                0.01604608               -0.00512542                0.05724414                0.31227674
              10.54416879                8.87398034               11.93754918                0.96779602                0.06769937                0.14493878               -0.46688219               -0.02161417               -0.02369351               -0.42291212
               0.64199107               10.13217015               12.04795599                1.00000000                0.02969749               -0.07587041                0.15700631                0.05405065                0.35777475                0.51763581
               1.64228804               10.10357568               11.95318202                0.84793043                0.10091771                0.08221779               -0.34176378                0.07280006                0.64984077               -0.31670522
               2.64400942               10.07440425               11.86426180                0.52245280               -0.38845908                0.23336123               -0.82568065                0.56423907                7.20603863               -0.73428925
               3.63451886               10.05462806               11.90082659                0.35883916               -0.95037895                0.57478505               -0.50575707                0.47936123               13.09678911               -0.26730511
               4.62500184               10.03123005               11.93670397                0.35378845               -1.00516600                0.53960644               -0.30405847                0.23451450               12.87413622               -0.09626901
               5.61441554               10.00703399               11.97376128                0.37568034               -1.14173134                0.54316193               -0.10650988                0.17598189               12.88856827                0.01872432
               6.60216722                9.98159547               12.01416591                0.42179188               -1.35741277                0.52732663                0.10431712                0.09807613               13.13723207                0.11942190
               7.58726729                9.95437428               12.06010999                0.51312357               -1.76757571                0.57607799                0.34426922               -0.41116596               13.69383193                0.24687646
               8.56681570                9.91781515               12.11541832                0.69234599               -1.09325016               -0.16165016                0.63153827               -0.66086346                7.35157103                0.49466199
               9.56540228                9.89611482               12.03867947                1.00000000               -0.05918624               -0.03223337                0.15928186                0.06210986                0.46800405                0.27282680
              10.56563198                9.87523638               11.95628181                1.00000000                0.02296949                0.12560408               -0.32833496                0.05847437                0.19155921               -0.33204047
               0.32971484                0.18288320               13.21139222                1.00000000               -0.37834048               -0.41705337                1.44682240               -0.07385533               -0.57563227                0.61788731
               1.32593143                0.13558893               13.16022549                1.00000000               -0.31224347               -0.32934335                1.15397424               -0.05708025               -0.71250617                0.02613789
               2.32346997                0.08807495               13.10622747                1.00000000               -0.16795123               -0.24401864                0.83812984               -0.04191201               -0.64643686               -0.18612665
               3.32257241                0.04160131               13.05632564                0.61676612                0.31248803               -0.18622899                0.54493143                0.44335946                0.33281477               -0.43914318
               4.32971973                0.00637794               13.02186880                0.67997621                0.48336695               -0.10250716                0.23953515               -0.02422078                0.95454448                0.05646367
               5.33223975               -0.02093670               12.98432989                0.75121947                0.16763788                0.01036980               -0.07980570                0.00656914                0.60157299                0.03514255
               6.33307249               -0.04708892               12.94304516                0.73870594                0.04345381                0.10754839               -0.40919935                0.00868678                0.44012456               -0.02335965
               7.33310883               -0.07509097               12.90237535                0.84181059                0.04360534                0.21095025               -0.74851497                0.05788423                0.20713218                0.03325564
               8.33394459               -0.10755730               12.85644479                1.00000000                0.19399743                0.32768418               -1.07230298                0.04378153               -0.22273204                0.35395618
               9.33698877               -0.14279279               12.80726881                1.00000000                0.37454015                0.39941310               -1.38437928               -0.05089072               -0.39410847                0.01935071
              10.34143540               -0.17821378               12.75806085                1.00000000                0.44466240                0.48451557               -1.68386487               -0.07859118               -0.40286028               -0.42560759
               0.37627055                1.17871266               13.19300154                1.00000000               -0.35057959               -0.39802298                1.31429510               -0.03160624               -0.06768589                0.84306032
               1.37276476                1.13229550               13.14141373                1.00000000               -0.31129461               -0.30705326                1.02261750               -0.01243633               -0.01654102                0.04157744
               2.37004466                1.08563476               13.09078142                0.77110570               -0.24551230               -0.22054614                0.72313850                0.02241174                0.21375269               -0.52427111
               3.36785451                1.03973902               13.04378561                0.09752518               -0.46490642               -0.17838947                0.42502809                0.61785485                1.51664454               -0.80321324
               4.36074653                1.00535287               13.01930961                0.23088078               -0.44078205                0.08857440                0.19914869                0.15758197                2.15196563                0.69521384
               5.35903887                0.97916699               12.98621128                0.30675843               -0.02550197                0.08966793               -0.08826562                0.33260218                1.48872924                0.28280292
               6.36023649                0.95398657               12.94894285                0.21707467                0.24414954               -0.00432890               -0.38975836                0.31666991                1.34696690               -0.36471570
               7.36392186                0.92701853               12.91330656                0.38229046                0.39984137                0.22457211               -0.68246012                0.42320387                1.27677427                0.55920910
               8.36823332                0.89571954               12.87495094                1.00000000                0.39431233                0.30316457               -0.96207205                0.16723067                0.64318324                0.47810867
               9.37180811                0.86120134               12.82680264                1.00000000                0.39185773                0.38284234               -1.25734334               -0.00151534                0.09395368                0.07552518
              10.37607047                0.82663138               12.77754691                1.00000000                0.42623677                0.45736399               -1.55622160               -0.03084898                0.03361089               -0.50482153
               0.42191705                2.17492274               13.17898642                1.00000000               -0.31564373               -0.36562294                1.20316225               -0.02820320                0.02960201                1.08670310
               1.41876061                2.12944787               13.12283413                1.00000000               -0.27211826               -0.26837394                0.89489909               -0.00537424                0.12500486                0.02163229
               2.41647468                2.08366403               13.06854118                0.38282571               -0.17746026               -0.18087630                0.60200239                0.03434047                0.70516119               -1.08990605
               3.41521140                2.03803352               13.02397454                0.00010000               -1.15156407               -0.16232826                0.29801042                0.92036091                3.68264905               -1.50495649
               4.39344340                2.00814943               13.02929196                0.00010000               -1.24766544                0.25031554                0.28003897                1.78247206                3.82859603               -1.03727377
               5.39025809                1.98085666               12.99297574                0.00010000               -0.09445226                0.04275872               -0.07652871                1.54177509                1.34984134               -0.47182647
               6.39155435                1.95282450               12.94802767                0.00010000                0.47909175               -0.11388347               -0.36817325                1.47412616                2.50181055                0.07856307
               7.39983993                1.92940047               12.93481836                0.00010000                0.57760221               -0.05521977               -0.61045801                1.04905672                2.79195241                0.44485117
               8.40310640                1.89850599               12.89602884                0.43153872                0.31033516                0.28942364               -0.83191381                0.26296854                1.04456417                0.89826200
               9.40604663                1.86486405               12.84756811                1.00000000                0.34259735                0.36537172               -1.12482425                0.04433420                0.38297741                0.38927737
              10.40995834                1.83093350               12.79558334                1.00000000                0.39117124                0.40703281               -1.44047363               -0.01618447                0.20374941               -0.51869611
               0.46665623                3.17140020               13.16530387                1.00000000               -0.27402482               -0.34097109                1.09159764               -0.02582282                0.02921606                1.09650609
               1.46391598                3.12692802               13.10354028                1.00000000               -0.22552088               -0.23360869                0.76250733               -0.00631748                0.03149757               -0.03021588
               2.46214581                3.08201724               13.04176246                0.18678320               -0.10698269               -0.13166287                0.43559001               -0.01275952                0.90271362               -1.25541953
               3.46177633                3.03649246               12.99737782                0.00010000               -0.42864858               -0.03083516                0.13645167                0.94500986                3.74374495               -1.69452669
               4.45357284                3.01035918               12.99257156                0.00010000               -0.82885172                0.17494534                0.01651007                2.39129822                5.24603188               -2.25658911
               5.44519929                2.98002217               12.97989014                0.00010000               -0.61988191                0.05545799               -0.12539733                2.09256839                4.50557492               -1.12725762
               6.44117520                2.95170890               12.96238581                0.00010000               -0.29888924                0.01497760               -0.31174314                1.91385376                4.14938903                0.38187063
               7.43922151                2.92591413               12.94376721                0.00010000               -0.15730496               -0.12807897               -0.49131448                1.40382523                3.93857205                0.28283229
               8.43802910                2.90150801               12.92299845                0.25484090                0.05228861                0.29068126               -0.67726541                0.59980501                2.33661148                1.64374039
               9.44026728                2.86850877               12.87345759                1.00000000                0.27893951                0.33267377               -0.96169341                0.06060430                0.44648410                0.59555108
              10.44360789                2.83477203               12.81491789                1.00000000                0.33406126                0.37318257               -1.31401590               -0.02608202               -0.00535143               -0.39956948
               0.51034496                4.16810332               13.15130353                1.00000000               -0.23277338               -0.31663584                0.97446337               -0.02690621                0.02777957                1.05423829
               1.50801723                4.12477569               13.08385174                1.00000000               -0.18449540               -0.19275331                0.62383277               -0.00631076                0.02530117               -0.05570151
               2.50665505                4.08103077               13.01628367                0.09343183               -0.11237833               -0.07092848                0.27212105                0.02110035                1.27490791               -1.11149044
               3.50576966                4.03741682               12.97379870                0.00010000               -0.44576997                0.32505958               -0.17621610                0.70265761                4.86792551               -0.54335540
               4.49773965                4.01164833               12.97782312                0.00010000               -0.75049578                0.16105075               -0.12878051                1.47081222                6.69175919               -0.83074693
               5.49075974                3.98196581               12.97408838                0.00010000               -0.69000933                0.21084383               -0.17696383                1.36397197                6.10174267               -0.53369844
               6.48393947                3.95312406               12.96837493                0.00010000               -0.63212129                0.19112956               -0.26485241                1.32763348                5.88535215                0.05687470
               7.47811732                3.92683889               12.96234503                0.00010000               -0.57158040                0.15222352               -0.36674126                1.31563165                5.91199233                0.80513772
               8.47250786                3.90431962               12.95899155                0.25094775               -0.20613087                0.22468628               -0.46557543                0.62617590                3.10147956                1.83320592
               9.47399470                3.87151753               12.89840278                1.00000000                0.22011647                0.26714064               -0.79835546                0.03630895                0.11933552                0.54443076
              10.47691019                3.83839715               12.83544237                1.00000000                0.29154868                0.34730288               -1.17635017               -0.02312419                0.00063159               -0.34011482
               0.55277335                5.16506749               13.13660279                1.00000000               -0.19110391               -0.28496470                0.84791223               -0.03046865                0.08624186                0.97950032
               1.55086231                5.12307295               13.06400289                0.82735725               -0.14233300               -0.14514278                0.48093189               -0.01236039                0.14241215               -0.15156633
               2.54992669                5.08059867               12.99246328                0.04739321               -0.28251985               -0.01262914                0.12585648                0.25303734                2.70650603               -1.17500515
               3.54521192                5.04299365               12.97113722                0.00010000               -0.57433007                0.48213841               -0.34450914                0.64219841                6.18913564                0.12045749
               4.53844009                5.01358019               12.96980344                0.00010000               -0.71044528                0.24243789               -0.20969928                1.07716266                7.28463492               -0.36972876
               5.53100301                4.98423905               12.97267210                0.00010000               -0.77926456                0.25733912               -0.19311428                1.02398651                7.41475400               -0.20719080
               6.52285480                4.95553149               12.97641471                0.00010000               -0.83322134                0.26344428               -0.20869860                1.00887111                7.41566540                0.22605656
               7.51433858                4.92895860               12.98173683                0.00010000               -0.84904097                0.21740164               -0.23511694                1.05890957                7.51415534                0.83192458
               8.50587398                4.90600174               12.98978099                0.26227517               -0.37113295                0.12246526               -0.25777369                0.52656644                3.82119335                1.49124914
               9.50691592                4.87385159               12.92332002                0.96370698                0.17560934                0.20358091               -0.63804487                0.02134530                0.05335775                0.52041792
              10.50938617                4.84171809               12.85601924                1.00000000                0.24702424                0.31353204               -1.03188287               -0.02302107                0.01362589               -0.35087032
               0.59372466                6.16240402               13.12093904                1.00000000               -0.14858178               -0.24220393                0.71315679               -0.03323711                0.06845868                0.88886855
               1.59223884                6.12187284               13.04235971                0.69693125               -0.09647769               -0.09403183                0.31903927               -0.01845979                0.17185141               -0.30327367
               2.59179510                6.08077819               12.96579210                0.03076541               -0.33033683                0.04852137               -0.06277014                0.37314047                3.86006904               -1.44417018
               3.58563210                6.04705959               12.96099516                0.00010000               -0.68787965                0.35297877               -0.23387653                0.80399117                7.74735553               -0.54921337
               4.57803751                6.01649709               12.96415865                0.00010000               -0.81719612                0.32946929               -0.22954015                0.92307331                8.32052773               -0.32067588
               5.56928818                5.98711260               12.97317755                0.00010000               -0.93200893                0.33395023               -0.17917794                0.86146740                8.64666991               -0.08144398
               6.55939733                5.95839294               12.98552452                0.00010000               -1.02314603                0.31526466               -0.13973959                0.78407945                8.81209444                0.30341929
               7.54882526                5.93118692               13.00066021                0.00010000               -1.06255636                0.22107829               -0.10287596                0.79305948                8.97414795                0.80170702
               8.53814620                5.90676892               13.01894471                0.27898624               -0.50600013                0.03992400               -0.06201249                0.38274693                4.54106824                1.37463956
               9.53870526                5.87558915               12.94779963                0.88778447                0.12852777                0.14823740               -0.47008892                0.01017853                0.05249707                0.47179629
              10.54071676                5.84466779               12.87630505                1.00000000                0.20115028                0.27438307               -0.89115393               -0.02172967                0.03855879               -0.40895286
               0.63317098                7.16022341               13.10425388                1.00000000               -0.10520271               -0.19189424                0.57177763               -0.03184886                0.03427972                0.81581529
               1.63211895                7.12119232               13.01945123                0.62583917               -0.04841143               -0.04380045                0.15541042               -0.01772225                0.13810002               -0.39143177
               2.63220275                7.08156910               12.93667987                0.03090686               -0.32730588                0.10548142               -0.25571789                0.41152406                4.74693396               -1.63765549
               3.62557283                7.05005322               12.94410691                0.00010000               -0.76771013                0.31099875               -0.27615442                0.85577215                9.38505759               -0.95287072
               4.61684855                7.02016958               12.95680167                0.00010000               -0.96181632                0.40930398               -0.22540176                0.85462829                9.71701519               -0.43485748
               5.60633651                6.99091805               12.97384461                0.00010000               -1.11932415                0.43825095               -0.15024778                0.72222435                9.96423462               -0.06812749
               6.59446206                6.96183678               12.99466212                0.00010000               -1.22563564                0.39038173               -0.06499858                0.56154842               10.17309616                0.30462851
               7.58182379                6.93338017               13.01912415                0.00010000               -1.26676866                0.23294869                0.02685223                0.47797964               10.39188741                0.75631554
               8.56912669                6.90680022               13.04738265                0.30020944               -0.63015856               -0.02916996                0.12734879                0.20015621                5.25210566                1.31032891
               9.56922062                6.87681633               12.97168984                0.85161546                0.08337969                0.09761748               -0.31205016                0.00344557                0.03830115                0.41316210
              10.57079428                6.84720575               12.89562783                1.00000000                0.15736615                0.23366359               -0.75502245               -0.02081571                0.02404059               -0.48004723
               0.67114986                8.15856614               13.08696906                1.00000000               -0.06111570               -0.14068293                0.42893883               -0.02976203                0.01737476                0.78067430
               1.67053871                8.12099683               12.99604046                0.60689424                0.00074054                0.00469910               -0.00811076               -0.01278725                0.07654071               -0.42973512
               2.67116467                8.08288782               12.90626545                0.03707526               -0.31958235                0.15565461               -0.44949847                0.43803148                5.57322046               -1.65466892
               3.66414706                8.05327956               12.92536612                0.00010000               -0.84497126                0.36885671               -0.35959194                0.85119325               11.04178952               -0.93386790
               4.65426525                8.02468317               12.94829254                0.00010000               -1.10407981                0.51066727               -0.24077757                0.74653652               11.18573930               -0.42459201
               5.64206546                7.99587762               12.97392379                0.00010000               -1.30495347                0.54398754               -0.12214355                0.55911362               11.30788151               -0.06674424
               6.62816618                7.96620058               13.00311212                0.00010000               -1.43220248                0.50549570                0.00600357                0.32378080               11.51738962                0.25233101
               7.61342141                7.93584589               13.03668822                0.00515906               -1.47265090                0.29714960                0.14885212                0.08847484               11.81169418                0.63776201
               8.59871316                7.90618552               13.07522622                0.32650046               -0.75263894               -0.09019734                0.30938312               -0.03226212                5.97144452                1.20736375
               9.59836863                7.87754150               12.99492068                0.85952032                0.04042243                0.04673421               -0.15711902               -0.00132298                0.02079603                0.37966413
              10.59952161                7.84934106               12.91436261                1.00000000                0.11529755                0.19392439               -0.62234169               -0.02063972                0.01381133               -0.51798031
               0.70771436                9.15740975               13.06945036                1.00000000               -0.01728273               -0.09345453                0.28714297               -0.02738648                0.00568529                0.64995536
               1.70754153                9.12128630               12.97238197                0.62887976                0.04831445                0.05349270               -0.17065694               -0.00632053                0.08949286               -0.38746610
               2.70868064                9.08468219               12.87697814                0.03029814               -0.33700928                0.19982798               -0.63257717                0.48725629                6.50462232               -1.18017140
               3.70080134                9.05743036               12.90834724                0.00010000               -0.97497098                0.54838631               -0.43386535                0.66987154               12.66120989               -0.58291605
               4.68918122                9.03038292               12.94019919                0.00010000               -1.23999842                0.59955086               -0.26640907                0.49896130               12.52880500               -0.25249933
               5.67600137                9.00179780               12.97351090                0.00010000               -1.41059115                0.61056502               -0.10559406                0.33469339               12.55751713               -0.03591843
               6.66096940                8.97194670               13.01019108                0.00010000               -1.61965134                0.59146883                0.06407180                0.11792202               12.78591054                0.15296624
               7.64360835                8.93932316               13.05213630                0.01744200               -1.70917779                0.50491148                0.25435929               -0.20950345               13.22376609                0.37695955
               8.62678585                8.90499627               13.10155948                0.35641492               -0.87848628               -0.13600781                0.47662578               -0.33700994                6.78763557                0.82119721
               9.62603862                8.87775102               13.01805304                0.91567212               -0.00017440               -0.00280934               -0.00461973               -0.00736347                0.05777602                0.32905604
              10.62678236                8.85108424               12.93276768                0.96979229                0.07437365                0.15479593               -0.49192870               -0.02098899               -0.02414144               -0.43915179
               0.74284904               10.15669705               13.04945078                1.00000000                0.02908212               -0.07127042                0.14376857                0.05043188                0.36203771                0.53002644
               1.74313986               10.12206668               12.94985745                0.84512699                0.09583508                0.07803836               -0.32515549                0.06919959                0.66127649               -0.33447411
               2.74476574               10.08688437               12.85626019                0.52043244               -0.56480532                0.22021876               -0.78016955                0.71753993                7.60688697               -0.76343789
               3.73184375               10.06424729               12.89574943                0.35965255               -1.24443533                0.68169305               -0.50391342                0.59373175               13.84956468               -0.25823034
               4.71987703               10.03667419               12.93365003                0.35406947               -1.23240964                0.62912639               -0.30380131                0.26166223               13.58853078               -0.08785522
               5.70719556               10.00808892               12.97269990                0.37560406               -1.34388864                0.62911157               -0.10526060                0.18720688               13.61332285                0.02897917
               6.69299926                9.97802995               13.01520566                0.42157627               -1.55068959                0.60832581                0.10313384                0.09574627               13.88306801                0.13053753
               7.67618177                9.94594412               13.06350418                0.51377563               -1.97270773                0.66209636                0.33448305               -0.47088729               14.46995652                0.25995179
               8.65354511                9.90346537               13.12160365                0.69200332               -1.20241846               -0.15309070                0.60626555               -0.74701469                7.75862700                0.51511312
               9.65213340                9.87748531               13.04016621                0.99380055               -0.05548580               -0.02657075                0.13737893                0.05805863                0.49083274                0.28444871
              10.65243539                9.85243698               12.95288606                1.00000000                0.03019906                0.13527437               -0.35646969                0.06047035                0.20675609               -0.34363069
               0.37643086                0.20826013               14.22576831                1.00000000               -0.37405498               -0.41106565                1.42947082               -0.07350342               -0.60544929                0.64584885
               1.37269031                0.15534931               14.17170457                1.00000000               -0.30877018               -0.32565246                1.14214777               -0.05752124               -0.75372033                0.03188321
               2.37025546                0.10222523               14.11459294                1.00000000               -0.16552617               -0.24218587                0.83422084               -0.04162439               -0.68836027               -0.18847902
               3.36937979                0.05018556               14.06178504                0.61927522                0.31555351               -0.18610619                0.54556990                0.45856909                0.29377762               -0.47072193
               4.37656653                0.00977410               14.02427778                0.68628967                0.48009176               -0.09205665                0.24219480               -0.03155269                0.90212430                0.07055443
               5.37898162               -0.02238966               13.98356289                0.76046249                0.16023387                0.01350810               -0.07387601                0.00774453                0.54047640                0.04230671
               6.37977121               -0.05334217               13.93901534                0.74629820                0.04137007                0.10687794               -0.39745971                0.00947817                0.37073789               -0.02813598
               7.37980903               -0.08600922               13.89497748                0.84693862                0.04210034                0.20807057               -0.73165376                0.05520659                0.14139588                0.03573120
               8.38061321               -0.12301675               13.84581915                1.00000000                0.18891777                0.32310580               -1.05307526                0.04190784               -0.27289220                0.36569265
               9.38358738               -0.16277551               13.79353140                1.00000000                0.36749196                0.39399928               -1.36317619               -0.05048212               -0.43090801                0.01814947
              10.38796305               -0.20274391               13.74134133                1.00000000                0.43756710                0.47788093               -1.65995540               -0.07733675               -0.43298646               -0.45540572
               0.42860665                1.20414948               14.20605983                1.00000000               -0.34740937               -0.39115425                1.29837833               -0.03190513               -0.07353750                0.88060827
               1.42513255                1.15209279               14.15158417                1.00000000               -0.30927773               -0.30322470                1.01179582               -0.01318616               -0.02637124                0.04889631
               2.42242109                1.09980337               14.09799040                0.78261800               -0.24707533               -0.21909668                0.71823702                0.02364619                0.20117615               -0.52926760
               3.42019105                1.04832450               14.04804466                0.10769173               -0.49412393               -0.17769484                0.42587613                0.64401676                1.54011091               -0.83791337
               4.41253861                1.00885353               14.02129452                0.24620875               -0.47869212                0.08248858                0.19788898                0.09619671                2.19021228                0.75652968
               5.41061720                0.97774542               13.98533975                0.32529127               -0.04314227                0.08863370               -0.08627195                0.30235741                1.49589107                0.29837522
               6.41167577                0.94772661               13.94508482                0.23183483                0.22905885                0.00485427               -0.38249745                0.29803964                1.35359691               -0.36816098
               7.41519838                0.91607148               13.90654383                0.39379235                0.38698332                0.21601529               -0.67065139                0.40517063                1.29257017                0.56442732
               8.41941543                0.88021431               13.86539776                1.00000000                0.38738796                0.29936039               -0.94888169                0.16484757                0.65471029                0.49959330
               9.42294614                0.84116449               13.81430880                1.00000000                0.38713277                0.37811292               -1.24163388               -0.00134173                0.09592853                0.07725283
              10.42715809                0.80203490               13.76207759                1.00000000                0.42119495                0.45118486               -1.53770995               -0.03008149                0.03374108               -0.54018133
               0.47990613                2.20043705               14.19093299                1.00000000               -0.31334358               -0.35743923                1.18716529               -0.02739738                0.03006793                1.13332932
               1.47677270                2.14928482               14.13173214                1.00000000               -0.27047295               -0.26465878                0.88501809               -0.00376804                0.13243333                0.02817276
               2.47449667                2.09784329               14.07453409                0.39701260               -0.17813662               -0.18203441                0.59620163                0.04149271                0.71450218               -1.11871946
               3.47320996                2.04663166               14.02695315                0.00010000               -1.27135656               -0.16214909                0.29693961                0.94291302                3.81710168               -1.55964872
               4.44906954                2.01142387               14.03184327                0.00010000               -1.35271347                0.24422027                0.24015306                1.83455276                4.00084335               -1.07211807
               5.44615569                1.97938301               13.99218118                0.00010000               -0.08318045                0.02556023               -0.08113929                1.59170288                1.38785370               -0.47381786
               6.44740593                1.94675491               13.94436605                0.00010000                0.46345215               -0.12444755               -0.36493323                1.48798723                2.58421833                0.09268167
               7.45542474                1.91831108               13.92873783                0.00010000                0.57056144               -0.06967066               -0.60566053                1.05467401                2.89292117                0.48064085
               8.45881716                1.88297046               13.88774698                0.43825406                0.31576086                0.28744809               -0.82491190                0.26890681                1.11560661                0.94293872
               9.46173995                1.84478675               13.83637482                1.00000000                0.34017181                0.36179483               -1.11422937                0.04525776                0.40711059                0.40947865
              10.46562060                1.80627979               13.78124734                1.00000000                0.38806438                0.40200498               -1.42703896               -0.01536155                0.21615241               -0.55339940
               0.53036315                3.19700069               14.17613276                1.00000000               -0.27122075               -0.33249403                1.07529548               -0.02380965                0.03108218                1.13897127
               1.52765095                3.14679961               14.11112064                1.00000000               -0.22295253               -0.23076039                0.75384942               -0.00374957                0.03423850               -0.02930731
               2.52590410                3.09616268               14.04611843                0.19933910               -0.10911061               -0.13524983                0.43517346               -0.00130967                0.91871368               -1.30369913
               3.52546873                3.04508152               13.99875015                0.00010000               -0.47128913               -0.05252983                0.13724596                0.99058600                3.86082877               -1.83513885
               4.51647832                3.01373793               13.99270257                0.00010000               -0.91742588                0.17468952                0.01151544                2.52229281                5.44997833               -2.40435710
               5.50712022                2.97825662               13.97860680                0.00010000               -0.69854402                0.04446419               -0.12980818                2.18456443                4.69486289               -1.16046870
               6.50250744                2.94523765               13.95928820                0.00010000               -0.35219497               -0.01019718               -0.30799909                1.97734371                4.32212229                0.41307054
               7.50007632                2.91467807               13.93888805                0.00010000               -0.20947684               -0.13580200               -0.48528917                1.45530525                4.10924034                0.34769580
               8.49831790                2.88596327               13.91625276                0.25404482                0.02328244                0.28860982               -0.67298674                0.61412452                2.45426874                1.72838072
               9.50054197                2.84840038               13.86387511                1.00000000                0.27734437                0.32987911               -0.95539736                0.06112154                0.48203788                0.63048883
              10.50386479                2.81007500               13.80182086                1.00000000                0.33228248                0.37012122               -1.30585356               -0.02524448               -0.00353762               -0.42192536
               0.57983209                4.19378717               14.16095716                1.00000000               -0.22963780               -0.30832033                0.95745730               -0.02503670                0.02953620                1.08828958
               1.57753572                4.14466961               14.09005306                1.00000000               -0.18217584               -0.19069189                0.61636921               -0.00417561                0.02624260               -0.06017227
               2.57618858                4.09513830               14.01902175                0.10399901               -0.10446428               -0.07461200                0.27453060                0.01480407                1.23029061               -1.15002044
               3.57544643                4.04558107               13.97216436                0.00010000               -0.49241429                0.29485908               -0.15089262                0.73733452                5.01316657               -0.70534045
               4.56634029                4.01491766               13.97650637                0.00010000               -0.85495844                0.15937062               -0.13388021                1.53557887                7.04584194               -0.90254281
               5.55834726                3.98027230               13.97232219                0.00010000               -0.79044659                0.22000309               -0.17629775                1.41654210                6.40178234               -0.55600312
               6.55053136                3.94655097               13.96575073                0.00010000               -0.72710162                0.19212214               -0.26049163                1.36364122                6.16215556                0.08588554
               7.54380523                3.91559504               13.95870497                0.00010000               -0.65770094                0.15598959               -0.36207169                1.34514795                6.18424361                0.87320531
               8.53737734                3.88874265               13.95433808                0.24810068               -0.24772867                0.22232862               -0.46576141                0.63844873                3.26125889                1.94027952
               9.53885066                3.85138433               13.89042626                1.00000000                0.21945693                0.26550661               -0.79732329                0.03662950                0.14178220                0.57664124
              10.54176648                3.81368221               13.82368776                1.00000000                0.29158233                0.34720299               -1.17478957               -0.02222255                0.00041465               -0.35292802
               0.62809753                5.19083429               14.14498692                1.00000000               -0.18812247               -0.27658743                0.83018147               -0.02871862                0.09234411                1.00445913
               1.62621630                5.14298578               14.06878213                0.81756659               -0.14043994               -0.14355586                0.47439661               -0.01022931                0.15418145               -0.16736504
               2.62528873                5.09467044               13.99375570                0.05623808               -0.28901198               -0.01661201                0.13052444                0.24261889                2.64501250               -1.22508258
               3.62043606                5.05097870               13.96733837                0.00010000               -0.63950304                0.49392958               -0.40949221                0.63961119                6.41135079                0.15393923
               4.61249867                5.01692535               13.96766496                0.00010000               -0.83091587                0.25506338               -0.21867345                1.12886173                7.76817675               -0.37850261
               5.60381775                4.98265668               13.97074674                0.00010000               -0.90205768                0.27433512               -0.19270921                1.04847465                7.80877982               -0.19930361
               6.59445752                4.94908010               13.97435244                0.00010000               -0.95150777                0.28070647               -0.20462734                1.02406498                7.78798387                0.26335467
               7.58478759                4.91779786               13.97940140                0.00010000               -0.95799636                0.22921800               -0.23281521                1.07424797                7.88388611                0.90092573
               8.57529759                4.89040984               13.98717702                0.25873819               -0.42262967                0.12192467               -0.26322612                0.53182434                4.01783784                1.58811779
               9.57633500                4.85371051               13.91690226                0.94762054                0.17634995                0.20438707               -0.64517151                0.02126232                0.06689713                0.55490247
              10.57882459                4.81701906               13.84566433                1.00000000                0.24895888                0.31659234               -1.03844660               -0.02195270                0.02056448               -0.36149868
               0.67495474                6.18825542               14.12797574                1.00000000               -0.14597651               -0.23410266                0.69565315               -0.03125768                0.06845039                0.90647038
               1.67349498                6.14179850               14.04553166                0.68897956               -0.09533532               -0.09331172                0.31496981               -0.01553019                0.17759358               -0.32882331
               2.67304803                6.09480606               13.96522100                0.03755718               -0.37556130                0.04321283               -0.05375975                0.38958801                3.96235525               -1.51580684
               3.66598375                6.05545966               13.95847010                0.00010000               -0.79042470                0.38836477               -0.27936240                0.81413216                8.06536539               -0.42435478
               4.65723954                6.02001892               13.96179488                0.00010000               -0.94108726                0.35354236               -0.24509032                0.95633894                8.76993957               -0.28167234
               5.64716200                5.98575900               13.97138848                0.00010000               -1.06840288                0.36324075               -0.18000856                0.87850165                9.10965224               -0.04940981
               6.63587148                5.95216510               13.98414528                0.00010000               -1.16007785                0.34359523               -0.13720805                0.78599449                9.26633294                0.34888841
               7.62396045                5.92017940               13.99963312                0.00010000               -1.18851529                0.23978056               -0.10340760                0.79122250                9.42933530                0.86766773
               8.61210118                5.89118115               14.01827497                0.27535143               -0.56468802                0.04078631               -0.07217502                0.37895705                4.77776746                1.46137774
               9.61266669                5.85547207               13.94304014                0.87297269                0.13045825                0.15135826               -0.48160837                0.00994409                0.06077501                0.50592667
              10.61471034                5.82001406               13.86732587                1.00000000                0.20436550                0.28002414               -0.90411021               -0.02109193                0.03998325               -0.42241012
               0.72038622                7.18615223               14.10988146                1.00000000               -0.10311596               -0.18493591                0.55530790               -0.02985781                0.03311022                0.82921530
               1.71935506                7.14111954               14.02100697                0.61918205               -0.04834473               -0.04412570                0.15520946               -0.01434657                0.13921895               -0.41746026
               2.71941933                7.09553470               13.93421481                0.03527422               -0.39246110                0.09833709               -0.23972857                0.44952895                4.93566016               -1.71096814
               3.71150584                7.05874599               13.94129588                0.00010000               -0.90466091                0.33936247               -0.29252335                0.91345929                9.81676224               -0.92492178
               4.70132611                7.02399619               13.95451971                0.00010000               -1.11321165                0.44862848               -0.23410065                0.90261499               10.21268545               -0.38848696
               5.68924161                6.98992150               13.97234477                0.00010000               -1.27845549                0.48397957               -0.15129549                0.74120044               10.48092479               -0.02713272
               6.67575700                6.95595200               13.99402209                0.00010000               -1.38228068                0.43277131               -0.06415476                0.55348287               10.69909963                0.35076991
               7.66159599                6.92259347               14.01937940                0.00010000               -1.40864703                0.25982360                0.02339820                0.45580339               10.92607745                0.81595881
               8.64758406                6.89122557               14.04858749                0.29682505               -0.69475120               -0.02751355                0.11345514                0.18394477                5.52456833                1.38985298
               9.64770097                6.85673768               13.96849669                0.83719576                0.08673635                0.10175901               -0.32705926                0.00301467                0.04154343                0.44077332
              10.64931879                6.82261954               13.88799375                1.00000000                0.16178159                0.24120427               -0.77214339               -0.02018177                0.02540827               -0.49670590
               0.76442296                8.18455670               14.09117687                1.00000000               -0.05973854               -0.13529928                0.41416379               -0.02805380                0.01598986                0.79341774
               1.76382558                8.14091598               13.99598468                0.60105861               -0.00054014                0.00338232               -0.00395976               -0.00998952                0.07301998               -0.45493903
               2.76441216                8.09677280               13.90190641                0.03870050               -0.40170699                0.14688889               -0.42561516                0.49659965                5.82302654               -1.72225274
               3.75579144                8.06224691               13.92177926                0.00010000               -1.01479140                0.40462906               -0.36155656                0.94270724               11.57987942               -0.92411135
               4.74411633                8.02899149               13.94588538                0.00010000               -1.28806175                0.57151569               -0.24256279                0.80688404               11.75309153               -0.39302279
               5.73003020                7.99543859               13.97270836                0.00010000               -1.49235838                0.60931952               -0.12215697                0.57921578               11.88649437               -0.03178530
               6.71426917                7.96082052               14.00317370                0.00010000               -1.61136265                0.56679971                0.00534478                0.30648469               12.11130320                0.28939546
               7.69780295                7.92537588               14.03814990                0.00508724               -1.63166497                0.33716346                0.14275740                0.04050310               12.42303548                0.68410153
               8.68163587                7.89063087               14.07823456                0.32369601               -0.82349721               -0.08736999                0.29203580               -0.06610503                6.28171865                1.27588975
               9.68133301                7.85750725               13.99325748                0.84470919                0.04535602                0.05175336               -0.17596440               -0.00272920                0.02057729                0.40472778
              10.68254299                7.82483814               13.90803245                1.00000000                0.12099798                0.20271568               -0.64429144               -0.02001623                0.01406299               -0.53768982
               0.80710658                9.18344625               14.07225061                1.00000000               -0.01674106               -0.08934314                0.27436915               -0.02612987                0.00313094                0.66193139
               1.80693917                9.14118719               13.97072665                0.62296289                0.04569048                0.05096234               -0.16178226               -0.00475900                0.08518744               -0.40783375
               2.80802039                9.09847248               13.87083268                0.02849038               -0.43989419                0.18992975               -0.60076280                0.57472044                6.81667542               -1.22428745
               3.79814129                9.06683857               13.90403854                0.00010000               -1.18741425                0.62060807               -0.42852071                0.76414519               13.29490937               -0.56858206
               4.78427211                9.03542651               13.93754498                0.00010000               -1.45721982                0.67898848               -0.26472834                0.54874844               13.16259741               -0.23463967
               5.76899689                9.00210789               13.97246066                0.00010000               -1.61613512                0.68984816               -0.10500098                0.34788298               13.20119620               -0.01625293
               6.75194941                8.96728800               14.01082600                0.00010000               -1.82005943                0.66782701                0.06215921                0.09919965               13.44820533                0.17322247
               7.73259570                8.92933674               14.05464021                0.01804493               -1.89094136                0.57308496                0.24576304               -0.26721806               13.91237924                0.40105749
               8.71413058                8.88947817               14.10622723                0.35445560               -0.95782932               -0.13009002                0.45624862               -0.39368240                7.14276095                0.86328132
               9.71343912                8.85777275               14.01789903                0.89994148                0.00630540                0.00351098               -0.02709731               -0.01003931                0.05999226                0.34895904
              10.71425669                8.82667385               13.92771061                0.97172149                0.08175688                0.16444361               -0.51972889               -0.02066893               -0.02545319               -0.45811169
               0.84841848               10.18276984               14.05083137                1.00000000                0.02856875               -0.06764087                0.13364569                0.04772894                0.36579522                0.54056678
               1.84870417               10.14193523               13.94667891                0.84267785                0.09183506                0.07480396               -0.31227888                0.06657751                0.67196960               -0.35014550
               2.85025518               10.10057139               13.84865841                0.51888375               -0.72919297                0.20989187               -0.74475591                0.85967113                7.97746997               -0.78851013
               3.83412031               10.07465907               13.89074832                0.36041521               -1.52165986                0.78204947               -0.49522978                0.69789564               14.56495263               -0.24910721
               4.81982199               10.04257126               13.93062794                0.35433384               -1.44969682                0.71447565               -0.30021723                0.28381199               14.28720275               -0.08039210
               5.80512637               10.00923555               13.97165607                0.37549631               -1.53988405                0.71276623               -0.10389240                0.19323815               14.32632012                0.03800091
               6.78902431                9.97417706               14.01622858                0.42127830               -1.74289772                0.68890673                0.10055584                0.08759112               14.61665257                0.14053260
               7.77026842                9.93683758               14.06679966                0.51439310               -2.18490457                0.75008322                0.32362394               -0.54012792               15.23267192                0.27258873
               8.74532621                9.88802907               14.12754363                0.69157758               -1.31659431               -0.14490921                0.58079765               -0.84344147                8.16594001                0.53792162
               9.74393653                9.85757747               14.04142705                0.98583898               -0.04994093               -0.01952723                0.11192547                0.05463860                0.51828630                0.30080486
              10.74432740                9.82812701               13.94915242                1.00000000                0.03908618                0.14531612               -0.39042847                0.06202486                0.21964588               -0.35987516
               0.42573332                0.23521712               15.23998163                1.00000000               -0.37009238               -0.40569799                1.41378607               -0.07319330               -0.63251429                0.67173878
               1.42203240                0.17646739               15.18306844                1.00000000               -0.30555147               -0.32215340                1.13082040               -0.05789787               -0.79076914                0.03695955
               2.41962230                0.11751044               15.12291188                1.00000000               -0.16346407               -0.24021792                0.82938057               -0.04144683               -0.72642531               -0.19124084
               3.41876312                0.05966765               15.06723704                0.62051845                0.31810376               -0.18550026                0.54452247                0.47120461                0.25643157               -0.49916287
               4.42598437                0.01375555               15.02671270                0.69103508                0.47742986               -0.08375800                0.24470334               -0.03846481                0.84969865                0.08473294
               5.42831172               -0.02364428               14.98285237                0.76792519                0.15441432                0.01604902               -0.06885458                0.00815880                0.47987178                0.04976412
               6.42907266               -0.05979061               14.93509596                0.75258205                0.04106068                0.10632488               -0.38733520                0.00993069                0.30313635               -0.03271596
               7.42913293               -0.09750905               14.88774227                0.85147444                0.04300875                0.20557707               -0.71618849                0.05223662                0.07632319                0.03878837
               8.42993283               -0.13940067               14.83538328                1.00000000                0.18577546                0.31842409               -1.03457267                0.03919356               -0.32413190                0.37738055
               9.43284844               -0.18398461               14.78000528                1.00000000                0.36114889                0.38875857               -1.34232994               -0.04984665               -0.46866429                0.01710935
              10.43715581               -0.22879442               14.72486174                1.00000000                0.43073703                0.47161597               -1.63609076               -0.07578942               -0.46361332               -0.48527558
               0.48375112                1.23116014               15.21896911                1.00000000               -0.34443570               -0.38503631                1.28411727               -0.03208877               -0.07867940                0.91556970
               1.48030676                1.17324586               15.16164964                1.00000000               -0.30717104               -0.29962674                1.00152016               -0.01380515               -0.03494695                0.05555040
               2.47760770                1.11510826               15.10514617                0.79175162               -0.24770768               -0.21744139                0.71274359                0.02440984                0.19027447               -0.53508997
               3.47535261                1.05781265               15.05230313                0.11635468               -0.51760065               -0.17662981                0.42551548                0.66454208                1.56176303               -0.87136302
               4.46725569                1.01291797               15.02326739                0.25962802               -0.50931137                0.07717298                0.19695358                0.04757157                2.22520388                0.80570512
               5.46516638                0.97651621               14.98448585                0.34186181               -0.05756698                0.08787641               -0.08475153                0.27676740                1.50283325                0.31378292
               6.46610435                0.94127264               14.94129290                0.24533804                0.21469715                0.01326876               -0.37652742                0.28199621                1.36066407               -0.37123586
               7.46946033                0.90454672               14.89989353                0.40480638                0.37291010                0.20890543               -0.66003932                0.38477073                1.30745026                0.56948297
               8.47356255                0.86378357               14.85597331                1.00000000                0.37932615                0.29552150               -0.93645663                0.16024795                0.66505271                0.52106715
               9.47704685                0.81990297               14.80196996                1.00000000                0.38225860                0.37359675               -1.22649113               -0.00108900                0.09750528                0.07944327
              10.48120772                0.77592174               14.74679271                1.00000000                0.41608724                0.44583318               -1.51950361               -0.02909562                0.03370295               -0.57537887
               0.54092012                2.22751640               15.20272973                1.00000000               -0.31119352               -0.35023384                1.17295400               -0.02660378                0.03083194                1.17674220
               1.53780818                2.17047486               15.14053449                1.00000000               -0.26882044               -0.26124529                0.87567142               -0.00232322                0.13921348                0.03424088
               2.53554371                2.11316161               15.08046522                0.41046286               -0.17819645               -0.18263322                0.58968418                0.04715297                0.72258447               -1.14533538
               3.53424425                2.05613505               15.02991333                0.00010000               -1.36557343               -0.16170865                0.29425666                0.95967706                3.93433988               -1.61276695
               4.50823224                2.01529901               15.03409502                0.00010000               -1.43759295                0.23454847                0.21626958                1.87191355                4.15943666               -1.10441602
               5.50549239                1.97811325               14.99135296                0.00010000               -0.07750852                0.00777877               -0.08391263                1.62601523                1.43382560               -0.47461125
               6.50668207                1.94047477               14.94072900                0.00010000                0.44125097               -0.13435085               -0.36311656                1.48939285                2.66337094                0.11053926
               7.51431741                1.90666906               14.92270514                0.00010000                0.55497359               -0.08229042               -0.60128777                1.05082081                2.99315378                0.51934922
               8.51778154                1.86650976               14.87953060                0.44508934                0.31855404                0.28504780               -0.81884206                0.26915673                1.18653812                0.98902851
               9.52068849                1.82348732               14.82528352                1.00000000                0.33774106                0.35820696               -1.10454769                0.04527879                0.43174689                0.43097129
              10.52453636                1.78012224               14.76704256                1.00000000                0.38478683                0.39856776               -1.41437103               -0.01461172                0.22873571               -0.58772382
               0.59730212                3.22415547               15.18680978                1.00000000               -0.26870363               -0.32507237                1.06098147               -0.02226287                0.03347581                1.17787188
               1.59461509                3.16802095               15.11861727                1.00000000               -0.22057767               -0.22820513                0.74593519               -0.00152820                0.03797289               -0.02877105
               2.59289057                3.11145560               15.05046593                0.21174323               -0.11031653               -0.13842628                0.43396521                0.00816833                0.93242055               -1.34757528
               3.59240875                3.05457847               15.00012274                0.00010000               -0.50874023               -0.07066270                0.13670031                1.02287286                3.97034929               -1.96120824
               4.58271576                3.01760894               14.99280187                0.00010000               -0.99489123                0.16680390                0.00959263                2.61798666                5.64610234               -2.53327771
               5.57251093                2.97667178               14.97729397                0.00010000               -0.76896858                0.02962801               -0.13169101                2.25176603                4.88055300               -1.18653455
               6.56733639                2.93858562               14.95622583                0.00010000               -0.40345913               -0.03486239               -0.30471949                2.01734306                4.49334462                0.45016847
               7.56444175                2.90290091               14.93406142                0.00010000               -0.26044850               -0.14397071               -0.48087640                1.48981640                4.27568814                0.41815351
               8.56212742                2.86948453               14.90953871                0.25351039               -0.00509014                0.28455950               -0.67088183                0.61982004                2.57033398                1.81594690
               9.56433994                2.82706711               14.85434965                1.00000000                0.27591104                0.32679381               -0.95019143                0.06003672                0.51811154                0.66736137
              10.56764564                2.78389310               14.78880082                1.00000000                0.33056985                0.36864382               -1.29839071               -0.02444635               -0.00161039               -0.44436412
               0.65274388                4.22101495               15.17045267                1.00000000               -0.22663962               -0.30086908                0.94288790               -0.02403461                0.03195239                1.11808791
               1.65047749                4.16591076               15.09617912                1.00000000               -0.17971637               -0.18869540                0.60873071               -0.00298954                0.02827577               -0.06533225
               2.64914956                4.11039309               15.02177428                0.11428303               -0.09645607               -0.07789182                0.27635040                0.00955862                1.19362180               -1.18503132
               3.64854837                4.05472180               14.97078085                0.00010000               -0.53254481                0.25941113               -0.12655509                0.76814563                5.14582534               -0.89637531
               4.63849866                4.01863509               14.97514552                0.00010000               -0.94986690                0.15563452               -0.13689429                1.58317474                7.37875559               -0.97167540
               5.62955103                3.97870581               14.97056243                0.00010000               -0.88494301                0.22574480               -0.17527563                1.45613150                6.69850501               -0.57122627
               6.62079980                3.93977752               14.96316509                0.00010000               -0.81680968                0.19092009               -0.25712203                1.38536313                6.43481532                0.12026970
               7.61321484                3.90378964               14.95510359                0.00010000               -0.73940289                0.15740250               -0.35917805                1.35867088                6.45090182                0.94538129
               8.60601174                3.87220095               14.94967633                0.24557813               -0.28670865                0.21713415               -0.46727276                0.64180017                3.41892920                2.04996350
               9.60748066                3.83002320               14.88245631                1.00000000                0.21918620                0.26343219               -0.79655414                0.03603886                0.16473257                0.60904818
              10.61039547                3.78749512               14.81194658                1.00000000                0.29148045                0.34784568               -1.17298845               -0.02142340               -0.00000400               -0.36702647
               0.70702982                5.21813809               15.15320642                1.00000000               -0.18526575               -0.26880316                0.81530361               -0.02720703                0.09813842                1.02525946
               1.70517716                5.16424705               15.07349082                0.80826786               -0.13795576               -0.14196137                0.46639924               -0.00861826                0.16548780               -0.18318497
               2.70427070                5.10989776               14.99507377                0.06492176               -0.28237459               -0.01950721                0.13010313                0.22369290                2.54693203               -1.27041192
               3.69952967                5.05976669               14.96294738                0.00010000               -0.69377255                0.49465885               -0.45745511                0.63205161                6.61385995                0.15160717
               4.69039525                5.02072163               14.96542997                0.00010000               -0.95192693                0.26869049               -0.22770466                1.17196198                8.26927636               -0.39048567
               5.68049113                4.98118668               14.96881791                0.00010000               -1.02177164                0.29102847               -0.19318647                1.06310930                8.20051619               -0.18820822
               6.66995982                4.94240403               14.97232216                0.00010000               -1.06496979                0.29617715               -0.20227722                1.02709175                8.15543853                0.30459345
               7.65919173                4.90604896               14.97708052                0.00010000               -1.06149719                0.23863140               -0.23234780                1.07453172                8.24638375                0.97316470
               8.64872987                4.87382721               14.98451646                0.25558897               -0.47125887                0.11925253               -0.26903801                0.52847918                4.21034658                1.68688769
               9.64976655                4.83233575               14.91041659                0.93097515                0.17717285                0.20450271               -0.65151420                0.02059916                0.08036378                0.58939278
              10.65227333                4.79085001               14.83525031                1.00000000                0.25067754                0.31975237               -1.04339646               -0.02110009                0.02856388               -0.37395180
               0.75998182                6.21563889               15.13485211                1.00000000               -0.14363734               -0.22657488                0.68080837               -0.02911819                0.06824545                0.92063767
               1.75854545                6.16307153               15.04865910                0.68154144               -0.09390275               -0.09284767                0.31048607               -0.01215606                0.18304045               -0.35314870
               2.75810377                6.11000294               14.96471691                0.04437146               -0.40899595                0.03832804               -0.04799309                0.39498894                4.02820781               -1.58138260
               3.75036553                6.06461497               14.95540791                0.00010000               -0.87929255                0.42394658               -0.33909014                0.80397310                8.36269909               -0.28069379
               4.74051792                6.02400890               14.95925684                0.00010000               -1.06173556                0.37938546               -0.26286038                0.97847628                9.23515108               -0.24222571
               5.72913082                5.98452638               14.96957738                0.00010000               -1.20192817                0.39344204               -0.18307636                0.88268310                9.57370576               -0.01554964
               6.71647935                5.94570106               14.98278036                0.00010000               -1.29242676                0.37098700               -0.13683633                0.77427498                9.71555590                0.39693388
               7.70328228                5.90856227               14.99859206                0.00010000               -1.30924092                0.25667995               -0.10582545                0.77365773                9.87633538                0.93635214
               8.69029453                5.87458600               15.01750121                0.27213430               -0.62062170                0.04052337               -0.08295409                0.36609367                5.01013691                1.55042490
               9.69086985                5.83411325               14.93816746                0.85789290                0.13252116                0.15393541               -0.49288548                0.00914194                0.06870001                0.54160413
              10.69294496                5.79389017               14.85822284                1.00000000                0.20751081                0.28575209               -0.91593481               -0.02055798                0.04120884               -0.43666594
               0.81158217                7.21360659               15.11536004                1.00000000               -0.10121851               -0.17867720                0.54162900               -0.02803870                0.03219832                0.83968845
               1.81056998                7.16239009               15.02255542                0.61306643               -0.04775659               -0.04465822                0.15400720               -0.01090771                0.14078335               -0.44170562
               2.81062703                7.11066432               14.93188530                0.03986738               -0.44834040                0.09109735               -0.22810987                0.47911933                5.09925219               -1.77718122
               3.80160317                7.06824563               14.93825644                0.00010000               -1.02868306                0.37198520               -0.32153100                0.95225834               10.22486846               -0.87357654
               4.79005337                7.02830934               14.95211966                0.00010000               -1.25752746                0.48942743               -0.24846510                0.93449807               10.70889725               -0.33472408
               5.77645262                6.98905552               14.97081870                0.00010000               -1.43219770                0.52998202               -0.15522961                0.74453211               10.99578557                0.01612815
               6.76140942                6.94982377               14.99337902                0.00010000               -1.53363391                0.47417565               -0.06563901                0.52991941               11.21954784                0.39884337
               7.74577995                6.91118256               15.01959211                0.00010000               -1.54543261                0.28524258                0.01809085                0.41764443               11.45186714                0.87813350
               8.73050077                6.87463768               15.04965175                0.29381342               -0.75673581               -0.02612167                0.09866115                0.15886653                5.79316373                1.47263308
               9.73064523                6.83541446               14.96514866                0.82276495                0.09037858                0.10602350               -0.34314008                0.00199061                0.04501524                0.47038539
              10.73230834                6.79656505               14.88018496                1.00000000                0.16631094                0.24901201               -0.78978282               -0.01954340                0.02661444               -0.51358441
               0.86185404                8.21206534               15.09525234                1.00000000               -0.05844762               -0.13063544                0.40201472               -0.02656161                0.01490112                0.80367468
               1.86126956                8.16217837               14.99596126                0.59580061               -0.00117087                0.00226484               -0.00151683               -0.00736148                0.07034252               -0.47803386
               2.86183062                8.11182489               14.89775315                0.04077627               -0.47519415                0.13900604               -0.40767879                0.54757686                6.05195405               -1.78260292
               3.85176568                8.07205468               14.91813499                0.00010000               -1.17163187                0.44220167               -0.37154830                1.01783043               12.09242660               -0.90165751
               4.83839798                8.03379745               14.94344129                0.00010000               -1.46293227                0.63191168               -0.24850747                0.85145092               12.31219991               -0.35537637
               5.82250703                7.99512602               14.97148066                0.00010000               -1.67236419                0.67347558               -0.12477823                0.58393921               12.45877644                0.00520244
               6.80495070                7.95518458               15.00321902                0.00010000               -1.78428877                0.62662470                0.00254380                0.27428262               12.69837446                0.32788691
               7.78682126                7.91426712               15.03954337                0.00512021               -1.78553681                0.37559989                0.13481825               -0.02231267               13.02584278                0.73292786
               8.76923996                7.87406357               15.08106694                0.32108114               -0.89194836               -0.08424226                0.27344454               -0.10759632                6.58878951                1.34836904
               9.76898229                7.83623372               14.99140139                0.82982458                0.05064756                0.05730830               -0.19614794               -0.00416508                0.02120881                0.43222845
              10.77025291                7.79887041               14.90147678                1.00000000                0.12706236                0.21184938               -0.66732775               -0.01924203                0.01448548               -0.55789450
               0.91082489                9.21099388               15.07493774                1.00000000               -0.01616846               -0.08592398                0.26402091               -0.02505832                0.00103697                0.67202307
               1.91066321                9.16243539               14.96914632                0.61765904                0.04386844                0.04904399               -0.15546314               -0.00333950                0.08206657               -0.42626342
               2.91170226                9.11344444               14.86496288                0.02733945               -0.53379898                0.18189110               -0.57657052                0.65346895                7.10873000               -1.26325566
               3.89998723                9.07708966               14.89977683                0.00010000               -1.38456025                0.68954543               -0.42588119                0.84553627               13.90010413               -0.54792033
               4.88401105                9.04094757               14.93490462                0.00010000               -1.66214736                0.75514919               -0.26473613                0.58753642               13.78279940               -0.21436392
               5.86674428                9.00252503               14.97141088                0.00010000               -1.81285450                0.76660500               -0.10609851                0.35114868               13.83528562                0.00413623
               6.84775396                8.96235626               15.01143426                0.00010000               -2.01447901                0.74254324                0.05834360                0.07037773               14.10196455                0.19404501
               7.82645470                8.91869456               15.05705157                0.01867775               -2.06858599                0.64049373                0.23530142               -0.33522604               14.59231051                0.42724016
               8.80638224                8.87295283               15.11068445                0.35230637               -1.03498038               -0.12362798                0.43377469               -0.45686890                7.49565553                0.90905395
               9.80575509                8.83656063               15.01751110                0.88319819                0.01339412                0.01058235               -0.05167967               -0.01213775                0.06391135                0.37087132
              10.80665013                8.80080204               14.92237310                0.97344559                0.08950356                0.17427252               -0.54832947               -0.01962691               -0.02629793               -0.47749668
               0.95846985               10.21034686               15.05212370                1.00000000                0.02823588               -0.06470159                0.12561666                0.04573421                0.36930180                0.54978963
               1.95875221               10.16315925               14.94361187                0.84050972                0.08879397                0.07238553               -0.30259686                0.06469279                0.68234680               -0.36430493
               2.96024573               10.11546271               14.84136507                0.51768553               -0.87894678                0.20182699               -0.71753241                0.98866419                8.32687627               -0.81078887
               3.94117327               10.08584559               14.88584484                0.36112359               -1.77661953                0.87559275               -0.48643961                0.79049066               15.25094457               -0.23678205
               4.92471334               10.04890043               14.92764569                0.35458366               -1.65259772                0.79528575               -0.29728892                0.30085499               14.96981816               -0.07227548
               5.90812132               10.01045812               14.97062206                0.37536665               -1.72623062                0.79330844               -0.10406286                0.19445460               15.02728519                0.04670132
               6.89018873                9.97003544               15.01721677                0.42091313               -1.93005782                0.76791808                0.09574181                0.07442040               15.33876430                0.15004724
               7.86952016                9.92707700               15.06997666                0.51501695               -2.39761056                0.83824396                0.31029777               -0.61567510               15.98332224                0.28547183
               8.84223652                9.87159101               15.13321961                0.69095347               -1.43149151               -0.13618241                0.55265735               -0.94615439                8.57208943                0.56417672
               9.84089033                9.83644537               15.04240472                0.97676541               -0.04294788               -0.01152606                0.08196403                0.05176652                0.54846925                0.31850382
              10.84137756                9.80235586               14.94507749                0.98754627                0.04872255                0.15538198               -0.42543819                0.06379210                0.23285923               -0.37678790
               0.47760695                0.26371996               16.25404403                1.00000000               -0.36622754               -0.40071857                1.39896316               -0.07288203               -0.65717619                0.69577376
               1.47394468                0.19892611               16.19432098                1.00000000               -0.30242999               -0.31883584                1.11981227               -0.05821779               -0.82413946                0.04135983
               2.47155835                0.13393185               16.13118055                1.00000000               -0.16185372               -0.23836106                0.82439033               -0.04132475               -0.76072578               -0.19450458
               3.47070760                0.07007013               16.07267549                0.62066356                0.31934112               -0.18491812                0.54349888                0.48112443                0.22159566               -0.52430721
               4.47794518                0.01835938               16.02917185                0.69467819                0.47440979               -0.07740655                0.24675193               -0.04509341                0.79749922                0.09909656
               5.48019580               -0.02466134               15.98218580                0.77407121                0.14994265                0.01818240               -0.06539701                0.00776803                0.41949991                0.05730730
               6.48094403               -0.06639037               15.93126864                0.75778669                0.04261841                0.10592217               -0.37899800                0.01000127                0.23757063               -0.03724352
               7.48104817               -0.10953598               15.88065371                0.85544654                0.04617674                0.20342460               -0.70222897                0.04894042                0.01245452                0.04241214
               8.48186756               -0.15664919               15.82512770                1.00000000                0.18437348                0.31375205               -1.01700583                0.03591384               -0.37607332                0.38891012
               9.48473564               -0.20636268               15.76668480                1.00000000                0.35551519                0.38377960               -1.32205578               -0.04898874               -0.50732630                0.01597723
              10.48897787               -0.25631137               15.70861951                1.00000000                0.42422309                0.46578681               -1.61251404               -0.07399053               -0.49482858               -0.51559620
               0.54167199                1.25971277               16.23174218                1.00000000               -0.34154300               -0.37943716                1.27091252               -0.03218804               -0.08330309                0.94819924
               1.53825656                1.19573775               16.17161458                1.00000000               -0.30494453               -0.29620490                0.99167428               -0.01438670               -0.04252858                0.06140308
               2.53557310                1.13154824               16.11224527                0.79868604               -0.24757363               -0.21575114                0.70713811                0.02471849                0.18103057               -0.54195722
               3.53330508                1.06822095               16.05655497                0.12359328               -0.53565604               -0.17567061                0.42545474                0.67982147                1.58246369               -0.90380139
               4.52485997                1.01758531               16.02523359                0.27149451               -0.53283638                0.07208436                0.19681549                0.00865082                2.25775148                0.84835945
               5.52264836                0.97552049               15.98364471                0.35691145               -0.06893061                0.08719970               -0.08373919                0.25429800                1.50917562                0.32933177
               6.52348136                0.93466885               15.93755428                0.25786848                0.20093121                0.02115719               -0.37172927                0.26774582                1.36795069               -0.37438649
               7.52666698                0.89249827               15.89334304                0.41539078                0.35793472                0.20330761               -0.65067269                0.36287645                1.32146620                0.57437608
               8.53064006                0.84648833               15.84666863                1.00000000                0.37049297                0.29174058               -0.92499330                0.15394134                0.67417941                0.54228546
               9.53407684                0.79747511               15.78977898                1.00000000                0.37732959                0.36945883               -1.21213658               -0.00072680                0.09858024                0.08162447
              10.53818665                0.74834650               15.73168752                1.00000000                0.41098092                0.44142872               -1.50185610               -0.02789325                0.03344281               -0.61104322
               0.60491324                2.25613122               16.21439207                1.00000000               -0.30917631               -0.34387947                1.16014229               -0.02563549                0.03155838                1.21718956
               1.60182148                2.19300201               16.14924557                1.00000000               -0.26718596               -0.25790924                0.86681321               -0.00083429                0.14493135                0.03977544
               2.59956952                2.12961683               16.08632777                0.42350577               -0.17772608               -0.18230638                0.58250650                0.05143313                0.72905365               -1.17036138
               3.59826696                2.06655672               16.03283829                0.00010000               -1.43754360               -0.16155560                0.28983882                0.97094660                4.04116673               -1.66451239
               4.57081865                2.01980106               16.03616866                0.00010000               -1.50343672                0.22182835                0.20218010                1.89475488                4.30862077               -1.13432123
               5.56819822                1.97708266               15.99050293                0.00010000               -0.07487439               -0.01020139               -0.08634722                1.64453330                1.48306364               -0.47325928
               6.56932116                1.93403277               15.93710371                0.00010000                0.41439949               -0.14319568               -0.36242435                1.47865188                2.73989597                0.13155244
               7.57648621                1.89453018               15.91671208                0.00010000                0.53241923               -0.09277888               -0.59803965                1.03815341                3.09201397                0.56009394
               8.57996955                1.84918562               15.87137014                0.45199665                0.31883593                0.28240755               -0.81384274                0.26463095                1.25691511                1.03571145
               9.58286293                1.80102649               15.81428387                1.00000000                0.33538407                0.35498515               -1.09610811                0.04484182                0.45662983                0.45319358
              10.58667723                1.75251720               15.75295991                1.00000000                0.38142978                0.39685977               -1.40288083               -0.01374906                0.24140825               -0.62215949
               0.66741769                3.25283518               16.19735239                1.00000000               -0.26634296               -0.31894639                1.04838939               -0.02031197                0.03648471                1.21378969
               1.66475426                3.19057956               16.12603934                1.00000000               -0.21853204               -0.22562945                0.73870733                0.00125358                0.04234108               -0.02935744
               2.66304705                3.12790211               16.05479773                0.22417632               -0.11072425               -0.13934968                0.43219133                0.01500185                0.94398050               -1.38760950
               3.66253978                3.06498984               16.00148416                0.00010000               -0.54089596               -0.08638983                0.13597978                1.04222548                4.07571872               -2.07423371
               4.65222913                3.02202188               15.99289443                0.00010000               -1.06162293                0.15274936                0.01000515                2.68208988                5.83789357               -2.64976754
               5.64130732                2.97531646               15.97597298                0.00010000               -0.83111243                0.01205858               -0.13139780                2.29413103                5.06111470               -1.20584301
               6.63560688                2.93180493               15.95319381                0.00010000               -0.45150603               -0.05863710               -0.30224739                2.03457845                4.66100171                0.49305510
               7.63227720                2.89064269               15.92927052                0.00010000               -0.30852614               -0.15233035               -0.47826044                1.50786830                4.43682781                0.49339399
               8.62943636                2.85213648               15.90283513                0.25314522               -0.03175524                0.27892752               -0.67100618                0.61828887                2.68433455                1.90580308
               9.63164209                2.80457482               15.84487128                1.00000000                0.27469420                0.32359302               -0.94641374                0.05796664                0.55496975                0.70632244
              10.63493024                2.75628369               15.77585304                1.00000000                0.32881515                0.36874925               -1.29162358               -0.02368037                0.00066565               -0.46611417
               0.72901825                4.24975229               16.17981491                1.00000000               -0.22386192               -0.29475709                0.93008936               -0.02259657                0.03407906                1.14481589
               1.72677963                4.18848942               16.10222767                0.99234386               -0.17794782               -0.18687332                0.60277003               -0.00090012                0.03205098               -0.07326391
               2.72545929                4.12682983               16.02454875                0.12433726               -0.08939635               -0.07912670                0.28084996                0.00316326                1.16604523               -1.22219065
               3.72499170                4.06482892               15.96963326                0.00010000               -0.56627320                0.21969737               -0.10423974                0.79217533                5.27275735               -1.10998609
               4.71413382                4.02285605               15.97376848                0.00010000               -1.03469545                0.14912145               -0.13578703                1.61397197                7.69213964               -1.03800559
               5.70429779                3.97732383               15.96881668                0.00010000               -0.97236617                0.22805551               -0.17328686                1.48162661                6.98943705               -0.58056133
               6.69468650                3.93286003               15.96060829                0.00010000               -0.89928786                0.18758813               -0.25496508                1.39282664                6.70169057                0.15939928
               7.68631203                3.89148357               15.95152141                0.00010000               -0.81416490                0.15649983               -0.35857925                1.35739574                6.71108360                1.02159742
               8.67840320                3.85476417               15.94499263                0.24328502               -0.32184903                0.20931129               -0.47081721                0.63734389                3.57475067                2.16281146
               9.67987505                3.80749835               15.87449518                1.00000000                0.21913309                0.26062047               -0.79512560                0.03471782                0.18883723                0.64268551
              10.68278587                3.75989219               15.80022800                1.00000000                0.29108131                0.34900323               -1.16943096               -0.02070691               -0.00079898               -0.38091963
               0.78949150                5.24694004               16.16129299                1.00000000               -0.18327812               -0.26188656                0.80270419               -0.02542398                0.10163472                1.04238492
               1.78765872                5.18684210               16.07811011                0.79923951               -0.13603411               -0.14092461                0.45872373               -0.00545542                0.17510332               -0.19989630
               2.78677081                5.12631958               15.99635776                0.07337275               -0.26508267               -0.02314821                0.12716005                0.19728920                2.42731091               -1.31645730
               3.78235706                5.06938378               15.95818926                0.00010000               -0.73785770                0.48538988               -0.48151382                0.61954133                6.79783715                0.10942365
               4.77201366                5.02500431               15.96311087                0.00010000               -1.07105940                0.28143351               -0.23390429                1.20665272                8.77552099               -0.40619072
               5.76093587                4.97987757               15.96688301                0.00010000               -1.13549924                0.30616930               -0.19378250                1.06835996                8.58824119               -0.17472231
               6.74930368                4.93555670               15.97030690                0.00010000               -1.17074533                0.30934450               -0.20170687                1.01882669                8.51701006                0.34945527
               7.73752097                4.89377269               15.97475445                0.00010000               -1.15676111                0.24556437               -0.23423134                1.06101407                8.60166437                1.04899961
               8.72616845                4.85632271               15.98179626                0.25273872               -0.51562688                0.11450907               -0.27579793                0.51699234                4.39957155                1.78821741
               9.72720843                4.80978722               15.90387198                0.91398238                0.17799893                0.20368680               -0.65619172                0.01925280                0.09427689                0.62394045
              10.72972843                4.76326376               15.82479640                1.00000000                0.25200022                0.32269479               -1.04540088               -0.02045233                0.03702092               -0.38803891
               0.84870566                6.24451456               16.14159191                1.00000000               -0.14146723               -0.21971363                0.66805723               -0.02696632                0.06862277                0.93134777
               1.84729098                6.18567093               16.05174138                0.67448992               -0.09211350               -0.09294129                0.30580404               -0.00804716                0.18924531               -0.37627914
               2.84686339                6.12636687               15.96426114                0.05110830               -0.42965953                0.03176292               -0.04402351                0.38991600                4.05446156               -1.64208801
               3.83869779                6.07453672               15.95168830                0.00010000               -0.95451477                0.45818000               -0.40582973                0.77648252                8.63949182               -0.13387886
               4.82777309                6.02848472               15.95653767                0.00010000               -1.17925963                0.40564811               -0.28000197                0.99193157                9.72080970               -0.20459219
               5.81511260                5.98344722               15.96772696                0.00010000               -1.33025870                0.42316069               -0.18751253                0.87621366               10.03826818                0.01951886
               6.80116792                5.93904692               15.98140856                0.00010000               -1.41731485                0.39667590               -0.13858311                0.75092548               10.15966345                0.44775264
               7.78676630                5.89639486               15.99751661                0.00010000               -1.42197012                0.27160710               -0.11046219                0.74235359               10.31537470                1.00838421
               8.77272851                5.85705435               16.01661588                0.26925397               -0.67236239                0.03948992               -0.09493637                0.34497837                5.23818457                1.64239008
               9.77331906                5.81157209               15.93318243                0.84262872                0.13476179                0.15621177               -0.50439825                0.00756862                0.07615046                0.57807993
              10.77542375                5.76634609               15.84900718                1.00000000                0.21046944                0.29150784               -0.92702499               -0.02009827                0.04216087               -0.45264145
               0.90663943                7.24254577               16.12071404                1.00000000               -0.09939674               -0.17310346                0.52988110               -0.02637572                0.03156660                0.84758545
               1.90564546                7.18498327               16.02408711                0.60740596               -0.04680428               -0.04532644                0.15200576               -0.00751489                0.14299104               -0.46490057
               2.90570334                7.12695483               15.92965261                0.04459110               -0.49383023                0.08381484               -0.21980949                0.49891215                5.23522516               -1.83884352
               3.89576886                7.07854738               15.93486526                0.00010000               -1.13807751                0.40783285               -0.36161210                0.97082362               10.61074982               -0.79655394
               4.88294179                7.03311727               15.94955041                0.00010000               -1.39354526                0.53071374               -0.26689366                0.95174867               11.21148612               -0.27476242
               5.86789795                6.98834078               15.96924018                0.00010000               -1.57836248                0.57516246               -0.16145188                0.73441720               11.51074329                0.06174401
               6.85137454                6.94349021               15.99270931                0.00010000               -1.67686742                0.51380524               -0.06946624                0.49350333               11.73494679                0.44941124
               7.83436060                6.89920483               16.01974122                0.00010000               -1.67418779                0.30900627                0.01050020                0.36639378               11.96948128                0.94364646
               8.81789079                6.85711251               16.05056071                0.29110230               -0.81462673               -0.02443989                0.08206016                0.12658778                6.05752477                1.55939102
               9.81806807                6.81291146               15.96163389                0.80829321                0.09438427                0.11086477               -0.36079504                0.00048467                0.04834043                0.50221379
              10.81977847                6.76909392               15.87219809                1.00000000                0.17104047                0.25730103               -0.80816788               -0.01884642                0.02771020               -0.53079030
               0.96330314                8.24105249               16.09921716                1.00000000               -0.05715174               -0.12652097                0.39156389               -0.02527210                0.01409755                0.81180009
               1.96273162                8.18476440               15.99595434                0.59105903               -0.00128108                0.00140181               -0.00053446               -0.00497093                0.06849461               -0.49959331
               2.96327752                8.12804316               15.89375284                0.04317887               -0.53898958                0.13203029               -0.39437406                0.58950607                6.26021823               -1.83767280
               3.95195183                8.08269338               15.91434830                0.00010000               -1.31314273                0.48114681               -0.38971904                1.07443012               12.58250352               -0.86209946
               4.93701466                8.03909900               15.94091523                0.00010000               -1.62619146                0.69087794               -0.25873074                0.88046716               12.86742765               -0.30987143
               5.91942800                7.99495047               15.97021280                0.00010000               -1.84203628                0.73542144               -0.13012662                0.57495212               13.02659543                0.04508928
               6.90017394                7.94932302               16.00322457                0.00010000               -1.94780561                0.68404639               -0.00269787                0.22989902               13.27922642                0.36860323
               7.88047189                7.90257498               16.04084627                0.00525804               -1.93101478                0.41217162                0.12442647               -0.09631750               13.62017737                0.78500678
               8.86155364                7.85656555               16.08370345                0.31860178               -0.95622747               -0.08029650                0.25250242               -0.15461149                6.89217865                1.42524793
               9.86134734                7.81378938               15.98933452                0.81481737                0.05641349                0.06376928               -0.21825861               -0.00564113                0.02238361                0.46253391
              10.86268191                7.77149211               15.89468590                1.00000000                0.13345723                0.22146475               -0.69139583               -0.01831575                0.01500931               -0.57777285
               1.01871017                9.24001535               16.07753103                1.00000000               -0.01547987               -0.08293827                0.25512917               -0.02415321               -0.00068408                0.68061300
               2.01855537                9.18501131               15.96761739                0.61288686                0.04271614                0.04768114               -0.15131293               -0.00208988                0.07997139               -0.44327211
               3.01956449                9.12959544               15.85930127                0.02668688               -0.61768702                0.17540379               -0.55831966                0.72206214                7.38409336               -1.29846143
               4.00620163                9.08817032               15.89552092                0.00010000               -1.56352211                0.75470166               -0.42767304                0.91230711               14.48169478               -0.51749220
               4.98829405                9.04693483               15.93225026                0.00010000               -1.85143288                0.82723169               -0.26786387                0.61526802               14.39182794               -0.18994436
               5.96917297                9.00304921               15.97033869                0.00010000               -1.99730197                0.83983758               -0.10973255                0.34546519               14.46076988                0.02619095
               6.94834801                8.95717114               16.01199287                0.00010000               -2.19906241                0.81449814                0.05201274                0.03350528               14.74746478                0.21610102
               7.92519172                8.90744826               16.05934623                0.01938388               -2.23819254                0.70609245                0.22218968               -0.41022122               15.26307559                0.45601374
               8.90358416                8.85550657               16.11490273                0.34995357               -1.10815131               -0.11616250                0.40831086               -0.52375583                7.84520899                0.95851625
               9.90302869                8.81418685               16.01686543                0.86570405                0.02112796                0.01854663               -0.07865065               -0.01413338                0.06887381                0.39495658
              10.90400672                8.77352321               15.91674402                0.97498901                0.09780206                0.18451909               -0.57812017               -0.01850744               -0.02678311               -0.49701448
               1.07282816               10.23939372               16.05334370                1.00000000                0.02815736               -0.06216278                0.11870818                0.04422941                0.37271798                0.55803206
               2.07310973               10.18571802               15.94062698                0.83860180                0.08657937                0.07067140               -0.29563751                0.06331262                0.69268022               -0.37735505
               3.07455975               10.13155124               15.83430776                0.51675557               -1.01255755                0.19557998               -0.69673834                1.10299532                8.66032639               -0.83111537
               4.05285858               10.09778741               15.88101953                0.36178023               -2.00593097                0.96170889               -0.48025719                0.87031524               15.91293874               -0.21914099
               5.03444113               10.05564363               15.92468216                0.35482199               -1.83787959                0.87088019               -0.29702945                0.31269870               15.63745058               -0.06253947
               6.01610099               10.01174722               15.96957481                0.37522098               -1.89980681                0.86980032               -0.10688543                0.19126997               15.71647154                0.05565761
               6.99644499                9.96561299               16.01814342                0.42049232               -2.10844802                0.84418431                0.08805463                0.05717932               16.04931477                0.15950744
               7.97393203                9.91669683               16.07300561                0.51568376               -2.60525248                0.92485679                0.29389125               -0.69450297               16.72124585                0.29899603
               8.94433994                9.85424230               16.13859677                0.69013369               -1.54419974               -0.12642700                0.52111567               -1.05124699                8.97525540                0.59354132
               9.94304804                9.81416032               16.04306633                0.96697929               -0.03504551               -0.00265282                0.04894592                0.04894333                0.58042302                0.33772061
              10.94363903                9.77518249               15.94064366                0.98739533                0.05909966                0.16592779               -0.46212665                0.06544886                0.24647932               -0.39421167
               0.53203590                0.29373630               17.26796090                1.00000000               -0.36228041               -0.39602152                1.38452358               -0.07245367               -0.68015717                0.71853805
               1.52841310                0.22270740               17.20546469                1.00000000               -0.29913148               -0.31580614                1.10903702               -0.05826966               -0.85460845                0.04499931
               2.52605327                0.15149090               17.13939969                1.00000000               -0.16046801               -0.23690045                0.81914535               -0.04077672               -0.79169561               -0.19853246
               3.52520373                0.08142256               17.07810702                0.62009081                0.31853904               -0.18487331                0.54252778                0.48713801                0.18881452               -0.54533528
               4.53242405                0.02361399               17.03164774                0.69787519                0.47005954               -0.07256507                0.24696151               -0.05223455                0.74404264                0.11323953
               5.53460493               -0.02541597               16.98154443                0.77933453                0.14660546                0.02016849               -0.06384280                0.00639071                0.35924277                0.06441630
               6.53535616               -0.07310676               16.92751600                0.76210418                0.04590160                0.10565929               -0.37206498                0.00971254                0.17456122               -0.04178134
               7.53552296               -0.12203947               16.87369769                0.85887904                0.05120583                0.20153478               -0.68942817                0.04535578               -0.04978206                0.04660549
               8.53638028               -0.17470433               16.81504317                1.00000000                0.18435720                0.30911633               -1.00020507                0.03229436               -0.42839105                0.40017479
               9.53921010               -0.22985343               16.75356417                1.00000000                0.35047682                0.37898254               -1.30220752               -0.04795498               -0.54677845                0.01456302
              10.54338981               -0.28524236               16.69261146                1.00000000                0.41797108                0.46028268               -1.58913840               -0.07192317               -0.52662631               -0.54657117
               0.60234026                1.28977609               17.24438736                1.00000000               -0.33871642               -0.37431612                1.25847140               -0.03225471               -0.08754425                0.97895763
               1.59895310                1.21954934               17.18148313                1.00000000               -0.30261701               -0.29308967                0.98241512               -0.01480876               -0.04935405                0.06634687
               2.59628792                1.14912189               17.11928893                0.80264390               -0.24697661               -0.21444858                0.70215749                0.02516379                0.17366564               -0.55060130
               3.59401357                1.07957382               17.06081222                0.12946080               -0.54834777               -0.17534734                0.42872674                0.68947043                1.60220683               -0.93608812
               4.58532097                1.02288834               17.02720370                0.28241989               -0.54921792                0.06688773                0.19752068               -0.02360728                2.28743845                0.88677391
               5.58302921                0.97478571               16.98281106                0.37101137               -0.07779664                0.08678847               -0.08325089                0.23375895                1.51346867                0.34380869
               6.58376504                0.92794983               16.93385832                0.26972938                0.18730443                0.02865237               -0.36793613                0.25524208                1.37464997               -0.37803760
               7.58677530                0.87997588               16.88688008                0.42560538                0.34225819                0.19914631               -0.64254246                0.34026551                1.33437974                0.57889487
               8.59061020                0.82838684               16.83747344                1.00000000                0.36121344                0.28809098               -0.91455959                0.14641468                0.68198012                0.56303519
               9.59399957                0.77393639               16.77772723                1.00000000                0.37246522                0.36561625               -1.19863434               -0.00025745                0.09906188                0.08331781
              10.59805950                0.71936047               16.71675559                1.00000000                0.40599371                0.43779415               -1.48486630               -0.02646132                0.03292932               -0.64776125
               0.67184430                2.28624998               17.22593258                1.00000000               -0.30731884               -0.33838326                1.14871328               -0.02455470                0.03233304                1.25492986
               1.66877111                2.21684561               17.15787076                1.00000000               -0.26561200               -0.25488182                0.85877134                0.00077072                0.14909546                0.04437152
               2.66653206                2.14720193               17.09211535                0.43699231               -0.17722084               -0.18197351                0.57458840                0.05537192                0.73304429               -1.19476157
               3.66522670                2.07791561               17.03571011                0.00010000               -1.48960231               -0.16374996                0.28481152                0.97813429                4.14254598               -1.71649546
               4.63674001                2.02495175               17.03813862                0.00010000               -1.55040403                0.20627130                0.19291212                1.90340194                4.45129644               -1.16209422
               5.63421861                1.97631980               16.98962601                0.00010000               -0.07345871               -0.02722712               -0.09036416                1.64595878                1.53148229               -0.46966928
               6.63527084                1.92746629               16.93348052                0.00010000                0.38363240               -0.15038405               -0.36248405                1.45587489                2.81280413                0.15479061
               7.64189126                1.88194345               16.91074435                0.00010000                0.50386061               -0.10082066               -0.59636413                1.01764458                3.18849575                0.60205030
               8.64534805                1.83105749               16.86325375                0.45891920                0.31700283                0.27956345               -0.81020796                0.25592988                1.32637345                1.08228752
               9.64823132                1.77745889               16.80336136                1.00000000                0.33321887                0.35229286               -1.08916807                0.04389450                0.48125081                0.47522693
              10.65201243                1.72351353               16.73898495                1.00000000                0.37811103                0.39711296               -1.39271035               -0.01274024                0.25393401               -0.65736163
               0.74065792                3.28300842               17.20777757                1.00000000               -0.26413491               -0.31396553                1.03737247               -0.01788917                0.03947000                1.24636882
               1.73801657                3.21445170               17.13339142                1.00000000               -0.21662784               -0.22354490                0.73213488                0.00437801                0.04678438               -0.03038124
               2.73632536                3.14548242               17.05910975                0.23743205               -0.10950668               -0.14063428                0.43079401                0.01899670                0.95432716               -1.42267108
               3.73582643                3.07629882               17.00284233                0.00010000               -0.56702701               -0.10493197                0.13634854                1.05442170                4.18455262               -2.18006634
               4.72498482                3.02701377               16.99300197                0.00010000               -1.11962936                0.13533918                0.01491371                2.71801842                6.02118826               -2.75128494
               5.71343385                2.97424117               16.97466602                0.00010000               -0.88629701               -0.00676277               -0.13049976                2.31048664                5.23321772               -1.21877683
               6.70725888                2.92494215               16.95018088                0.00010000               -0.49484314               -0.08069373               -0.30145238                2.02881679                4.82279564                0.54096247
               7.70353698                2.87795946               16.92449622                0.00010000               -0.35227600               -0.16028909               -0.47769703                1.50984303                4.59151719                0.57229396
               8.70021336                2.83397811               16.89611859                0.25287629               -0.05577797                0.27192793               -0.67344246                0.61038612                2.79546989                1.99706629
               9.70242142                2.78098225               16.83542137                1.00000000                0.27410356                0.32086568               -0.94526009                0.05576719                0.59242346                0.74709134
              10.70569543                2.72730273               16.76296835                1.00000000                0.32740061                0.37099220               -1.28707535               -0.02288108                0.00379322               -0.48639224
               0.80859995                4.27997067               17.18905446                1.00000000               -0.22152857               -0.28998152                0.91854694               -0.02107843                0.03862161                1.16843401
               1.80638467                4.21237471               17.10823452                0.98089749               -0.17675416               -0.18581469                0.59908614                0.00082288                0.03970003               -0.08377854
               2.80506487                4.14438924               17.02739128                0.13406936               -0.08004423               -0.08130979                0.28720800               -0.00726659                1.14609848               -1.26330328
               3.80478378                4.07581697               16.96869605                0.00010000               -0.59534183                0.18006527               -0.08808334                0.80880791                5.38555885               -1.32218644
               4.79315804                4.02765853               16.97242978                0.00010000               -1.11419103                0.14074284               -0.12850772                1.62973376                7.98271630               -1.09827572
               5.78249996                3.97618454               16.96709669                0.00010000               -1.05145749                0.22703912               -0.17144762                1.49099802                7.27050360               -0.58600119
               6.77212889                3.92585241               16.95806579                0.00010000               -0.97238980                0.18253549               -0.25464007                1.38614178                6.96085371                0.20254754
               7.76305217                3.87873767               16.94793201                0.00010000               -0.87979495                0.15371430               -0.36061330                1.34211597                6.96330485                1.10138571
               8.75453299                3.83649605               16.94025998                0.24114192               -0.35150644                0.19950990               -0.47816635                0.62644724                3.72762857                2.27904517
               9.75602204                3.78387621               16.86655380                1.00000000                0.21904305                0.25725299               -0.79349701                0.03339228                0.21461963                0.67778065
              10.75891385                3.73093337               16.78855796                1.00000000                0.28918078                0.35036601               -1.16218267               -0.02080926               -0.00083931               -0.39263086
               0.87542827                5.27720879               17.16926050                1.00000000               -0.18138162               -0.25629377                0.79122284               -0.02456955                0.10487106                1.05670057
               1.87361445                5.21073541               17.08266530                0.79026400               -0.13452513               -0.14028807                0.45303165               -0.00380539                0.18419620               -0.21970380
               2.87273776                5.14385623               16.99761697                0.08137143               -0.24405751               -0.02614530                0.12614074                0.16729664                2.29990037               -1.36859312
               3.86873330                5.07990013               16.95331710                0.00010000               -0.77629219                0.47222132               -0.47465779                0.60337228                6.95840929                0.03786774
               4.85721192                5.02982863               16.96075188                0.00010000               -1.18366881                0.29094917               -0.23632366                1.23096198                9.27299728               -0.42614887
               5.84505992                4.97878195               16.96494226                0.00010000               -1.23916678                0.31875239               -0.19487932                1.06447843                8.96937354               -0.16015556
               6.83242859                4.92859286               16.96828803                0.00010000               -1.26621313                0.32006456               -0.20313349                1.00029379                8.87142121                0.39766462
               7.81973566                4.88103375               16.97239590                0.00010000               -1.24124082                0.25027547               -0.23881446                1.03528637                8.94899389                1.12891228
               8.80760377                4.83796831               16.97900050                0.25010285               -0.55418560                0.10866487               -0.28589314                0.49764921                4.58566382                1.89358009
               9.80865195                4.78612731               16.89729276                0.89679448                0.17805724                0.20183660               -0.65721199                0.01606367                0.10881251                0.65775257
              10.81116491                4.73431005               16.81434229                1.00000000                0.25129635                0.32511358               -1.04267871               -0.02048417                0.04633004               -0.40335548
               0.94105533                6.27484479               17.14821325                1.00000000               -0.13942049               -0.21378737                0.65655615               -0.02563024                0.06922823                0.93919800
               1.93966112                6.20956895               17.05477518                0.66773806               -0.09046229               -0.09281431                0.30104827               -0.00508388                0.19623895               -0.39964963
               2.93924608                6.14386634               16.96383644                0.05764852               -0.43911454                0.02697627               -0.04160089                0.37540346                4.04195320               -1.70039800
               3.93087883                6.08526140               16.94729131                0.00010000               -1.01753163                0.48772090               -0.46797099                0.73991242                8.89612384                0.00227543
               4.91889545                6.03347752               16.95365681                0.00010000               -1.29267684                0.43039526               -0.29427204                0.99972296               10.22766621               -0.17118340
               5.90502530                5.98255959               16.96582713                0.00010000               -1.45062416                0.45113041               -0.19278938                0.86124272               10.50179280                0.05522911
               6.88988297                5.93225370               16.98000870                0.00010000               -1.53214221                0.42015563               -0.14240840                0.71811571               10.59800752                0.50153194
               7.87438245                5.88374318               16.99638282                0.00010000               -1.52452793                0.28460426               -0.11764338                0.69990777               10.74610650                1.08451991
               8.85939241                5.83866935               17.01560249                0.26663001               -0.71904426                0.03848121               -0.10865336                0.31622897                5.46168326                1.73819958
               9.86000157                5.78791294               16.92807950                0.82724525                0.13731371                0.15896705               -0.51773918                0.00444994                0.08287042                0.61518842
              10.86213868                5.73743564               16.83968234                1.00000000                0.21371159                0.29802351               -0.93962430               -0.01926808                0.04276994               -0.47095268
               1.00546735                7.27293304               17.12595766                1.00000000               -0.09761234               -0.16802173                0.51908545               -0.02507713                0.03127286                0.85325241
               2.00449123                7.20887912               17.02559553                0.60213558               -0.04569853               -0.04563616                0.14941828               -0.00473170                0.14586359               -0.48733998
               3.00455338                7.14439575               16.92748911                0.04934625               -0.52854307                0.07782203               -0.21381403                0.50851864                5.34113259               -1.89746852
               3.99392037                7.08965455               16.93102420                0.00010000               -1.23225990                0.44478193               -0.40903497                0.97076489               10.97519922               -0.69550908
               4.97990819                7.03843653               16.94678178                0.00010000               -1.52058899                0.57113267               -0.28694669                0.95683013               11.72480581               -0.21070216
               5.96350859                6.98780456               16.96758967                0.00010000               -1.71504383                0.61848475               -0.16921741                0.71318733               12.02639125                0.10953617
               6.94560731                6.93699597               16.99198970                0.00010000               -1.80952093                0.55096871               -0.07552296                0.44700290               12.24496535                0.50282223
               7.92731817                6.88672583               17.01980212                0.00010000               -1.79243589                0.33095332                0.00040549                0.30527142               12.47853523                1.01297366
               8.90975859                6.83873793               17.05129296                0.28862810               -0.86717578               -0.02214193                0.06314751                0.08918489                6.31700942                1.65052758
               9.90997466                6.78930665               16.95793276                0.79377803                0.09877753                0.11699609               -0.38035407               -0.00107280                0.05119141                0.53694219
              10.91173414                6.74027052               16.86402160                1.00000000                0.17594864                0.26666902               -0.82786278               -0.01803029                0.02884155               -0.54761268
               1.06866163                8.27148436               17.10308362                1.00000000               -0.05578488               -0.12267206                0.38190546               -0.02425686                0.01352140                0.81822867
               2.06810378                8.20865622               16.99595057                0.58675414               -0.00102993                0.00090964               -0.00075297               -0.00302114                0.06735633               -0.52003627
               3.06864103                8.14542278               16.88986566                0.04579885               -0.59252130                0.12622680               -0.38449573                0.62140107                6.44705758               -1.88890438
               4.05625335                8.09415704               16.91034061                0.00010000               -1.43794958                0.52070180               -0.41462151                1.11145762               13.05158856               -0.80244723
               5.03988204                8.04490017               16.93826667                0.00010000               -1.77618772                0.74726123               -0.27230283                0.89469526               13.42211554               -0.25612446
               6.02072960                7.99492929               16.96887812                0.00010000               -1.99901421                0.79411354               -0.13782794                0.55406912               13.59091950                0.08805423
               6.99990175                7.94327308               17.00316506                0.00010000               -2.09918368                0.73817306               -0.01041304                0.17606847               13.85366652                0.41188821
               7.97874593                7.89036225               17.04203190                0.00551202               -2.06532328                0.44648297                0.11130860               -0.17791914               14.20538551                0.84062146
               8.95859529                7.83822651               17.08611698                0.31622855               -1.01492033               -0.07540447                0.22881785               -0.20503771                7.19122355                1.50645926
               9.95844752                7.79025286               16.98703622                0.79969291                0.06275243                0.07106501               -0.24236315               -0.00704344                0.02391272                0.49617593
              10.95985034                7.74276902               16.88764886                1.00000000                0.14028181                0.23167349               -0.71656890               -0.01722630                0.01567949               -0.59636149
               1.13063849                9.27047960               17.08004033                1.00000000               -0.01460959               -0.08011011                0.24682229               -0.02342719               -0.00210728                0.68805335
               2.13049239                9.20889732               16.96612006                0.60860428                0.04210535                0.04683713               -0.14897402               -0.00106696                0.07871379               -0.45919800
               3.13148059                9.14692029               16.85379649                0.02641345               -0.69101304                0.17023217               -0.54452559                0.77949713                7.64429364               -1.33089505
               4.11667213                9.10006858               16.89122336                0.00010000               -1.72253765                0.81542553               -0.43381475                0.96328794               15.04254598               -0.47481693
               5.09702984                9.05338176               16.92954735                0.00010000               -2.02275337                0.89428335               -0.27420447                0.63216392               14.99163038               -0.16055617
               6.07621706                9.00368683               16.96921622                0.00010000               -2.16670618                0.90848692               -0.11606599                0.33187867               15.07825105                0.05027678
               7.05369572                8.95175944               17.01247452                0.00010000               -2.37053537                0.88257091                0.04294656               -0.00944350               15.38437912                0.23965811
               8.02880636                8.89565549               17.06149536                0.02021314               -2.39642459                0.76879588                0.20617046               -0.48918982               15.92366033                0.48746169
               9.00576723                8.83722984               17.11885067                0.34746388               -1.17575402               -0.10763837                0.37968190               -0.59209610                8.19046137                1.01143903
              10.00529128                8.79072795               17.01593809                0.84768433                0.02950319                0.02725666               -0.10792277               -0.01607285                0.07469631                0.42119465
              11.00635729                8.74490399               16.91081070                0.97639314                0.10660139                0.19516643               -0.60904100               -0.01728869               -0.02700505               -0.51605414
               1.19135766               10.26988216               17.05449786                1.00000000                0.02840943               -0.05974457                0.11204274                0.04299823                0.37614121                0.56556231
               2.19164175               10.20959297               16.93769912                0.83692091                0.08510224                0.06956515               -0.29100791                0.06219939                0.70307935               -0.38956092
               3.19305970               10.14882742               16.82743030                0.51603660               -1.12920532                0.19071301               -0.68083606                1.20153999                8.98072054               -0.85005325
               4.16905765               10.11046555               16.87623969                0.36238988               -2.20763182                1.03969624               -0.47729121                0.93647247               16.55426219               -0.19460552
               5.14890707               10.06278584               16.92170510                0.35504933               -2.00340772                0.94040801               -0.29993977                0.31939658               16.29118811               -0.05066563
               6.12898949               10.01309902               16.96848435                0.37506482               -2.05814212                0.94121913               -0.11266986                0.18417603               16.39414903                0.06512891
               7.10774422                9.96092450               17.01897787                0.42002507               -2.27488838                0.91650609                0.07734550                0.03680781               16.74790565                0.16911061
               8.08349172                9.90573817               17.07585448                0.51643147               -2.80316584                1.00826727                0.27441107               -0.77400066               17.44546432                0.31325561
               9.05168091                9.83607374               17.14364192                0.68918142               -1.65199069               -0.11560956                0.48628459               -1.15564033                9.37387359                0.62562346
              10.05045191                9.79079799               17.04338363                0.95676128               -0.02642119                0.00700419                0.01329079                0.04599401                0.61375479                0.35834586
              11.05115248                9.74667235               16.93583496                0.98725333                0.07005732                0.17683615               -0.50010071                0.06695544                0.26040508               -0.41193827
               0.58899622                0.32523780               18.28173450                1.00000000               -0.35825084               -0.39175498                1.37040045               -0.07152472               -0.70264939                0.74115284
               1.58541371                0.24778921               18.21650172                1.00000000               -0.29570559               -0.31305964                1.09863139               -0.05733450               -0.88410586                0.04794579
               2.58308211                0.17018273               18.14756346                1.00000000               -0.15889346               -0.23621687                0.81274102               -0.03828976               -0.82168513               -0.20406578
               3.58223585                0.09375302               18.08352605                0.61980972                0.31532554               -0.18569185                0.53762655                0.48633660                0.15458450               -0.56226063
               4.58938862                0.02951225               18.03411108                0.70111565                0.46382739               -0.06823417                0.24374964               -0.06083625                0.68793384                0.12587694
               5.59151239               -0.02590628               17.98090894                0.78391309                0.14466838                0.02213563               -0.06371018                0.00392772                0.30057513                0.07083406
               6.59228199               -0.07991063               17.92382734                0.76564271                0.05064841                0.10542130               -0.36580186                0.00921756                0.11486933               -0.04619764
               7.59252536               -0.13496864               17.86686514                0.86179974                0.05756398                0.19981466               -0.67729689                0.04162814               -0.11014820                0.05138125
               8.59343327               -0.19350625               17.80512360                1.00000000                0.18532066                0.30446985               -0.98384184                0.02847783               -0.48077174                0.41119975
               9.59623177               -0.25439755               17.74064065                1.00000000                0.34587427                0.37418311               -1.28250108               -0.04682530               -0.58678211                0.01288994
              10.60035075               -0.31553106               17.67683674                1.00000000                0.41189801                0.45488445               -1.56578003               -0.06957401               -0.55882593               -0.57803410
               0.66572956                1.32132025               18.25691161                1.00000000               -0.33616530               -0.36990983                1.24645151               -0.03179710               -0.09139503                1.00901081
               1.66236791                1.24465862               18.19126288                1.00000000               -0.30061227               -0.29040326                0.97419576               -0.01463930               -0.05487862                0.07022260
               2.65971731                1.16782056               18.12628842                0.80269930               -0.24667282               -0.21409782                0.69917329                0.02732134                0.17037603               -0.56243934
               3.65743445                1.09189610               18.06512950                0.13495075               -0.55537034               -0.17781580                0.43762125                0.69340546                1.61872277               -0.96844012
               4.64860991                1.02882991               18.02918400                0.29328582               -0.55856688                0.06243279                0.19780732               -0.05204811                2.30912239                0.91762847
               5.64626311                0.97431508               17.98197970                0.38465058               -0.08522803                0.08702976               -0.08367531                0.21436280                1.51343222                0.35501415
               6.64690535                0.92114358               17.93019555                0.28113535                0.17381691                0.03583241               -0.36522581                0.24456737                1.37976979               -0.38198122
               7.64973945                0.86702951               17.88049219                0.43546475                0.32635800                0.19618421               -0.63570301                0.31762039                1.34600448                0.58299178
               8.65343251                0.80953845               17.82837744                1.00000000                0.35182387                0.28462348               -0.90511263                0.13807552                0.68847649                0.58326977
               9.65677593                0.74934428               17.76580629                1.00000000                0.36780051                0.36172228               -1.18593227                0.00021556                0.09894235                0.08447768
              10.66078852                0.68901779               17.70199019                1.00000000                0.40125888                0.43441371               -1.46853937               -0.02474968                0.03212407               -0.68531802
               0.74168354                2.31783960               18.23736634                1.00000000               -0.30629202               -0.33397863                1.13803421               -0.02335334                0.03361620                1.29054502
               1.73862062                2.24198115               18.16642099                1.00000000               -0.26462402               -0.25252226                0.85272127                0.00255151                0.15233591                0.04740957
               2.73639106                2.16590077               18.09781954                0.45424301               -0.17630082               -0.18239011                0.56656901                0.05904587                0.73470317               -1.21906511
               3.73509460                2.09019670               18.03853452                0.00010000               -1.52311904               -0.17467662                0.28394346                0.98821481                4.22835728               -1.75768196
               4.70592868                2.03076091               18.04002690                0.00010000               -1.58043132                0.19375571                0.18182924                1.89284613                4.58408194               -1.18872948
               5.70348598                1.97583432               17.98869564                0.00010000               -0.07348854               -0.04224163               -0.09756627                1.62873813                1.57534181               -0.46602007
               6.70445891                1.92080602               17.92985403                0.00010000                0.34984606               -0.15523370               -0.36325413                1.42239902                2.88004090                0.17963870
               7.71048290                1.86895505               17.90478479                0.00010000                0.47105520               -0.10642963               -0.59642963                0.99052955                3.28134851                0.64485113
               8.71388001                1.81218622               17.85516598                0.46578314                0.31369266                0.27665592               -0.80819022                0.24349696                1.39461070                1.12852021
               9.71675675                1.75283689               17.79250050                1.00000000                0.33143629                0.34899606               -1.08372233                0.04179355                0.50529872                0.49627286
              10.72050874                1.69315722               17.72510571                1.00000000                0.37519863                0.39825215               -1.38366291               -0.01178498                0.26627651               -0.69405632
               0.81697939                3.31464067               18.21809984                1.00000000               -0.26216268               -0.31007824                1.02732778               -0.01589947                0.04285518                1.27551189
               1.81435777                3.23960817               18.14068204                1.00000000               -0.21483570               -0.22205880                0.72655878                0.00741349                0.05213580               -0.03212445
               2.81268268                3.16417275               18.06341361                0.25093229               -0.10095795               -0.14221082                0.42980154                0.01615308                0.96360216               -1.45275046
               3.81233861                3.08840256               18.00421113                0.00010000               -0.59267345               -0.11431380                0.13663304                1.05510213                4.25345777               -2.23176125
               4.80082921                3.03270502               17.99319270                0.00010000               -1.17729224                0.11898619                0.01820117                2.72632589                6.18552128               -2.84427012
               5.78879276                2.97347025               17.97336298                0.00010000               -0.92983067               -0.02533783               -0.13283129                2.29598796                5.39388969               -1.22590095
               6.78223260                2.91803891               17.94716476                0.00010000               -0.53114651               -0.10010917               -0.30310903                2.00200104                4.97882852                0.59261609
               7.77816983                2.86490092               17.91971658                0.00010000               -0.39059989               -0.16717221               -0.47933786                1.49668529                4.73958741                0.65418285
               8.77442060                2.81507157               17.88936628                0.25263766               -0.07645145                0.26384674               -0.67827977                0.59386256                2.90271529                2.08862131
               9.77664080                2.75632420               17.82596608                1.00000000                0.27457809                0.31728458               -0.94695720                0.05119866                0.62898359                0.78977185
              10.77991216                2.69698283               17.75011154                1.00000000                0.32713574                0.37542051               -1.28548993               -0.02153550                0.00669611               -0.50279862
               0.89143055                4.31163804               18.19818585                1.00000000               -0.21937444               -0.28627050                0.90802237               -0.01980916                0.04541045                1.18857243
               1.88923681                4.23753997               18.11420939                0.96845825               -0.17554122               -0.18504057                0.59563493                0.00234637                0.05055574               -0.09600106
               2.88791973                4.16305655               18.03029291                0.14232403               -0.07862159               -0.08350988                0.29212084               -0.00976066                1.12858933               -1.30474402
               3.88766438                4.08791042               17.96787159                0.00010000               -0.62661071                0.15716576               -0.06527026                0.80679013                5.47562600               -1.48247260
               4.87538751                4.03314063               17.97119833                0.00010000               -1.17962632                0.12746412               -0.12072927                1.62181850                8.25584322               -1.16213294
               5.86407185                3.97532756               17.96538773                0.00010000               -1.11596281                0.22368891               -0.17216826                1.48288198                7.53962595               -0.58918462
               6.85306826                3.91880383               17.95551549                0.00010000               -1.03439558                0.17640860               -0.25664934                1.36649547                7.21296188                0.24963116
               7.84338394                3.86561160               17.94430914                0.00010000               -0.93671391                0.14996055               -0.36518357                1.31389298                7.20642153                1.18451695
               8.83433398                3.81746316               17.93542930                0.23907694               -0.37572375                0.18901165               -0.48890073                0.60676259                3.87664949                2.39767286
               9.83586946                3.75918258               17.85862524                0.99006147                0.22133895                0.25461932               -0.79974610                0.03022802                0.24447761                0.71869957
              10.83876076                3.70066563               17.77698434                1.00000000                0.28912952                0.35447181               -1.16037635               -0.01950516                0.00533692               -0.39887385
               0.96477934                5.30891526               18.17711745                1.00000000               -0.17931580               -0.25183355                0.78028179               -0.02400018                0.10810773                1.06821843
               1.96298618                5.23590736               18.08717074                0.78138082               -0.13311596               -0.13961362                0.44824001               -0.00284693                0.19306684               -0.24192866
               2.96211702                5.16250256               17.99888058                0.08862522               -0.22979221               -0.02848957                0.12725663                0.14525561                2.18172576               -1.42301513
               3.95839033                5.09154588               17.94869611                0.00010000               -0.81342864                0.44823522               -0.43108664                0.59436369                7.10032789               -0.04843022
               4.94584844                5.03525430               17.95838440                0.00010000               -1.28015669                0.29452620               -0.23779596                1.24006157                9.75082280               -0.45385239
               5.93278720                4.97794402               17.96298543                0.00010000               -1.32849889                0.32884183               -0.19695966                1.05187428                9.34385308               -0.14484043
               6.91927847                4.92156708               17.96624423                0.00010000               -1.34994163                0.32860265               -0.20664831                0.97301110                9.21876445                0.44940720
               7.90578837                4.86790013               17.96997816                0.00010000               -1.31467976                0.25337164               -0.24597417                0.99977177                9.28699775                1.21308195
               8.89298487                4.81885180               17.97607839                0.24760496               -0.58727360                0.10313666               -0.29990777                0.47239895                4.77004275                2.00517352
               9.89404289                4.76141658               17.89072774                0.87950869                0.17855477                0.20266369               -0.66123482                0.01238029                0.12762951                0.69199853
              10.89655597                4.70407227               17.80394282                1.00000000                0.25130713                0.32910461               -1.04630914               -0.01879700                0.05874594               -0.42260207
               1.03696636                6.30660136               18.15472303                1.00000000               -0.13737782               -0.20874053                0.64538992               -0.02487608                0.06972691                0.94491612
               2.03559258                6.23474770               18.05776235                0.66127304               -0.08900168               -0.09231390                0.29652942               -0.00347511                0.20319361               -0.42344012
               3.03518632                6.16248676               17.96342912                0.06388845               -0.43963377                0.02368400               -0.03964482                0.35538682                3.99693027               -1.75729115
               4.02679990                6.09687513               17.94232888                0.00010000               -1.06978605                0.50210143               -0.51466823                0.70671163                9.13702217                0.10867462
               5.01379060                6.03903115               17.95065223                0.00010000               -1.40016704                0.45195279               -0.30406817                1.00266356               10.75205535               -0.14330149
               5.99879656                5.98190440               17.96387117                0.00010000               -1.56091118                0.47682440               -0.19849065                0.83876976               10.96272095                0.09196844
               6.98257238                5.92537589               17.97856039                0.00010000               -1.63509565                0.44116099               -0.14810146                0.67787846               11.02998638                0.55852308
               7.96609465                5.87067903               17.99516374                0.00010000               -1.61534381                0.29575462               -0.12740774                0.64948434               11.16845255                1.16507588
               8.95026550                5.81952589               18.01444282                0.26418580               -0.75990212                0.03783767               -0.12481657                0.28361441                5.68015212                1.83951738
               9.95089661                5.76323586               17.92282765                0.81179094                0.14039748                0.16384998               -0.53403091                0.00210936                0.08851522                0.65177814
              10.95307345                5.70724772               17.83021469                1.00000000                0.21768448                0.30514376               -0.95505671               -0.01773094                0.04310645               -0.49273002
               1.10798914                7.30474045               18.13109575                1.00000000               -0.09578628               -0.16334851                0.50846979               -0.02427217                0.03115349                0.85742045
               2.10703128                7.23406108               18.02707548                0.59719759               -0.04459079               -0.04542794                0.14638194               -0.00300474                0.14908654               -0.50919426
               3.10709733                7.16297624               17.92537633                0.05402515               -0.55255527                0.07354714               -0.20931305                0.50845694                5.41579011               -1.95346297
               4.09598017                7.10158791               17.92668457                0.00010000               -1.31124401                0.47850694               -0.45808016                0.95499080               11.31853502               -0.57767705
               5.08087245                7.04429336               17.94381148                0.00010000               -1.63811554                0.60898945               -0.30598409                0.95107297               12.25066811               -0.14504933
               6.06321786                6.98748051               17.96585583                0.00010000               -1.84055238                0.65902968               -0.17764233                0.68241892               12.54184567                0.15931337
               7.04406140                6.93039030               17.99119885                0.00010000               -1.92949073                0.58500407               -0.08354129                0.39279087               12.74878448                0.55920329
               8.02462805                6.87381522               18.01974933                0.00010000               -1.89805304                0.35075685               -0.01223333                0.23756428               12.97850227                1.08614598
               9.00610034                6.81960856               18.05182366                0.28632844               -0.91323973               -0.01944332                0.04177750                0.04933315                6.57147803                1.74548885
              10.00636325                6.76469358               17.95402681                0.77922271                0.10386407                0.12358601               -0.40152905               -0.00181533                0.05372705                0.57555297
              11.00817762                6.71017514               17.85564084                1.00000000                0.18143652                0.27640282               -0.84897904               -0.01700634                0.03030447               -0.56204353
               1.17783965                8.30333439               18.10685527                1.00000000               -0.05429535               -0.11891397                0.37230495               -0.02355495                0.01310337                0.82357595
               2.17729670                8.23383914               17.99593928                0.58284891               -0.00055088                0.00088563               -0.00194068               -0.00172432                0.06665835               -0.53956151
               3.17782864                8.16395770               17.88606292                0.04852302               -0.63570529                0.12183332               -0.37703227                0.64279292                6.61164256               -1.93714181
               4.16458259                8.10644527               17.90605587                0.00010000               -1.54545896                0.55934935               -0.44336224                1.12873756               13.50033792               -0.72167801
               5.14691946                8.05121094               17.93546918                0.00010000               -1.91172962                0.79959596               -0.28745528                0.89505369               13.97805090               -0.19509225
               6.12634800                7.99508499               17.96745624                0.00010000               -2.14129842                0.84840061               -0.14712826                0.52289922               14.15162372                0.13372231
               7.10409349                7.93707597               18.00301631                0.00010000               -2.23601634                0.78806003               -0.02039432                0.11521191               14.42086474                0.45765007
               8.08162768                7.87769417               18.04307244                0.00589861               -2.18598444                0.47798503                0.09542748               -0.26391090               14.78060706                0.89952319
               9.06037380                7.81913703               18.08827981                0.31394998               -1.06669801               -0.06990688                0.20237165               -0.25681374                7.48549039                1.59123202
              10.06029371                7.76570758               17.98448725                0.78444870                0.06982030                0.07848685               -0.26826302               -0.00809550                0.02582164                0.53295154
              11.06177021                7.71277578               17.88035452                1.00000000                0.14764907                0.24204460               -0.74265871               -0.01599173                0.01646971               -0.61295687
               1.24650855                9.30236217               18.08246747                1.00000000               -0.01350646               -0.07722466                0.23840731               -0.02289776               -0.00330875                0.69475748
               2.24637348                9.23407880               17.96463791                0.60475825                0.04192561                0.04647684               -0.14814082               -0.00035455                0.07804794               -0.47424060
               3.24734706                9.16541290               17.84841076                0.02641182               -0.75358985                0.16624210               -0.53395820                0.82505277                7.88997846               -1.36113810
               4.23130169                9.11277490               17.88684462                0.00010000               -1.86066322                0.87086887               -0.44302111                0.99794067               15.58415385               -0.41840824
               5.21013379                9.06028528               17.92676617                0.00010000               -2.17454318                0.95519379               -0.28292279                0.63872037               15.58325595               -0.12613898
               6.18781082                9.00444852               17.96801737                0.00010000               -2.31886698                0.97142786               -0.12469858                0.31147110               15.68767592                0.07624781
               7.16375645                8.94615150               18.01285180                0.00010000               -2.52610251                0.94562654                0.03126581               -0.05670599               16.01195150                0.26461547
               8.13728877                8.88337492               18.06346964                0.02121768               -2.54028990                0.82747646                0.18727525               -0.56957455               16.57283409                0.52134923
               9.11295066                8.81821042               18.12249637                0.34492113               -1.23630900               -0.09823735                0.34782395               -0.65985683                8.53052979                1.06702220
              10.11256259                8.76626332               18.01470698                0.82932085                0.03853627                0.03642810               -0.13931891               -0.01790022                0.08124838                0.44926773
              11.11372138                8.71501603               17.90456320                0.97768183                0.11587909                0.20597184               -0.64075931               -0.01601435               -0.02697112               -0.53427648
               1.31394846               10.30178990               18.05558455                1.00000000                0.02904252               -0.05722734                0.10492796                0.04186860                0.37963201                0.57263190
               2.31423888               10.23476868               17.93480682                0.83545638                0.08425685                0.06898826               -0.28837625                0.06117206                0.71356654               -0.40107672
               3.31563359               10.16728255               17.82069104                0.51547712               -1.22849247                0.18696427               -0.66858227                1.28335158                9.28962969               -0.86786490
               4.28966903               10.12386264               17.87147370                0.36295725               -2.38066784                1.10877486               -0.47704048                0.98834821               17.17678578               -0.16213823
               5.26802024               10.07031482               17.91868337                0.35527025               -2.14789133                1.00295385               -0.30554741                0.32118928               16.93166266               -0.03653159
               6.24671120               10.01451355               17.96732142                0.37490046               -2.19936308                1.00650236               -0.12111852                0.17372226               17.06028490                0.07510627
               7.22403297                9.95598850               18.01969033                0.41951898               -2.42669705                0.98369988                0.06382272                0.01415950               17.43398873                0.17884351
               8.19817726                9.89424370               18.07849383                0.51729550               -2.98723557                1.08687813                0.25214581               -0.85196181               18.15482867                0.32819923
               9.16428826                9.81717228               18.14832247                0.68817266               -1.75235835               -0.10381418                0.44822734               -1.25661760                9.76650892                0.65975316
              10.16313010                9.76643614               18.04333214                0.94627109               -0.01718861                0.01728180               -0.02460826                0.04289723                0.64804616                0.38006899
              11.16394449                9.71689521               17.93064164                0.98713900                0.08143936                0.18791790               -0.53870556                0.06821829                0.27455928               -0.42971628
               0.64844847                0.35820515               19.29536890                1.00000000               -0.35464463               -0.38806824                1.35707887               -0.06998005               -0.72570557                0.76399535
               1.64490203                0.27414400               19.22743732                1.00000000               -0.29266153               -0.31094800                1.08938394               -0.05460631               -0.91562987                0.05085141
               2.64259524                0.18995965               19.15565451                1.00000000               -0.15771109               -0.23426237                0.80535823               -0.03531981               -0.85818765               -0.21125650
               3.64174780                0.10697044               19.08885955                0.61959810                0.31022963               -0.17738860                0.52994263                0.47576537                0.11377128               -0.57588111
               4.64879983                0.03598568               19.03652273                0.70414785                0.45761825               -0.06605942                0.23914201               -0.07022333                0.63575763                0.13542817
               5.65090017               -0.02614080               18.98027022                0.78776615                0.14487545                0.02400956               -0.06354263                0.00097213                0.24630203                0.07695478
               6.65169734               -0.08676715               18.92019996                0.76849466                0.05617818                0.10506603               -0.35945467                0.00880234                0.05890518               -0.05038442
               7.65202373               -0.14826594               18.86015175                0.86423781                0.06459977                0.19820045               -0.66543984                0.03793416               -0.16861992                0.05670509
               8.65298934               -0.21298801               18.79536633                1.00000000                0.18687908                0.29978563               -0.96770385                0.02457988               -0.53291600                0.42215939
               9.65576131               -0.27992692               18.72791414                1.00000000                0.34158824                0.36930134               -1.26284686               -0.04566143               -0.62701993                0.01121853
              10.65982110               -0.34710993               18.66129586                1.00000000                0.40597893                0.44950788               -1.54250443               -0.06699222               -0.59113601               -0.60942244
               0.73180982                1.35432447               19.26931639                1.00000000               -0.33311063               -0.36662499                1.23464961               -0.03105220               -0.09452367                1.03873203
               1.72847871                1.27103452               19.20096704                1.00000000               -0.29904975               -0.28846801                0.96667747               -0.01224180               -0.05856873                0.07470719
               2.72582882                1.18761702               19.13327239                0.78779224               -0.24931351               -0.21321056                0.69969922                0.03396954                0.17443296               -0.58174864
               3.72349244                1.10519655               19.06956465                0.14098878               -0.55878018               -0.16450489                0.44535555                0.67733651                1.63668697               -1.01589211
               4.71465322                1.03532508               19.03115985                0.30437283               -0.56030695                0.05913914                0.19422360               -0.08182829                2.31900658                0.93724509
               5.71228630                0.97409930               18.98113756                0.39790133               -0.09026417                0.08784569               -0.08586869                0.19782905                1.50899576                0.36220315
               6.71284794                0.91428351               18.92655380                0.29212568                0.16136005                0.04285032               -0.36385338                0.23509669                1.38349838               -0.38536424
               7.71551350                0.85371606               18.87416602                0.44492775                0.31088457                0.19410129               -0.63016584                0.29544422                1.35659079                0.58687903
               8.71906563                0.79000985               18.81937119                1.00000000                0.34260781                0.28135343               -0.89656025                0.12926211                0.69398839                0.60318706
               9.72236566                0.72376609               18.75400859                1.00000000                0.36342808                0.35757443               -1.17401547                0.00057782                0.09833652                0.08555679
              10.72633419                0.65738515               18.68738480                1.00000000                0.39685291                0.43104942               -1.45298218               -0.02277181                0.03105460               -0.72279429
               0.81440732                2.35087265               19.24869326                1.00000000               -0.30426871               -0.33126600                1.12693881               -0.02276062                0.03748933                1.32491685
               1.81136463                2.26837464               19.17492518                1.00000000               -0.26473593               -0.25068536                0.84718002                0.00447933                0.15592897                0.04944428
               2.80911260                2.18569544               19.10344673                0.45519566               -0.18890783               -0.18314918                0.56715001                0.07725930                0.74264897               -1.24972587
               3.80758647                2.10368034               19.04138898                0.00010000               -1.54260369               -0.14350149                0.30831846                0.95485395                4.32916796               -1.83973973
               4.77826053                2.03716846               19.04177521                0.00010000               -1.58440762                0.18159297                0.16084395                1.84129726                4.70579122               -1.21900810
               5.77589832                1.97561611               18.98767469                0.00010000               -0.07390085               -0.05341123               -0.10688533                1.59873380                1.61622493               -0.46420968
               6.77678251                1.91408986               18.92621543                0.00010000                0.31539798               -0.15752456               -0.36556388                1.38169400                2.94179573                0.20634016
               7.78220628                1.85561608               18.89881576                0.00010000                0.43710225               -0.10986451               -0.59825474                0.95814543                3.36989985                0.68892040
               8.78552455                1.79263906               18.84708994                0.47249139                0.30956443                0.27386854               -0.80778338                0.22805115                1.46155311                1.17440316
               9.78839757                1.72722456               18.78168691                1.00000000                0.33014999                0.34434336               -1.07966352                0.03810867                0.52883384                0.51716611
              10.79212755                1.66151106               18.71131169                1.00000000                0.37299835                0.39914887               -1.37580471               -0.01113862                0.27825133               -0.73105786
               0.89635062                3.34769915               19.22832413                1.00000000               -0.26051114               -0.30740688                1.01686094               -0.01514490                0.04722733                1.30234923
               1.89374551                3.26602081               19.14792260                1.00000000               -0.21411565               -0.22043295                0.72185619                0.00894939                0.05887621               -0.03594159
               2.89206831                3.18395404               19.06770578                0.25872102               -0.13145065               -0.14340211                0.42810278                0.05837842                0.97179438               -1.48044788
               3.89111650                3.10232652               19.00557499                0.00010000               -0.62624578               -0.09989004                0.14158102                1.04036590                4.32579675               -2.29693540
               4.87954339                3.03895694               18.99336600                0.00010000               -1.18884575                0.10278577                0.00948394                2.66013941                6.35222530               -2.93211278
               5.86733958                2.97303107               18.97200939                0.00010000               -0.95307737               -0.04188539               -0.13923282                2.26265394                5.55344712               -1.22738784
               6.86048185                2.91113302               18.94411870                0.00010000               -0.56061855               -0.11621460               -0.30683868                1.95859515                5.13225258                0.64746207
               7.85612721                2.85151877               18.91490946                0.00010000               -0.42318377               -0.17248228               -0.48313171                1.47073501                4.88184097                0.73951732
               8.85201817                2.79548722               18.88255299                0.25236292               -0.09356875                0.25491679               -0.68529853                0.56797552                3.00596119                2.18103111
               9.85425584                2.73065296               18.81648223                1.00000000                0.27601324                0.31319847               -0.95118561                0.04199432                0.66463453                0.83124272
              10.85753844                2.66536812               18.73725855                1.00000000                0.32825987                0.38067752               -1.28632457               -0.01974243                0.00859800               -0.51931652
               0.97746108                4.34472451               19.20721491                1.00000000               -0.21723608               -0.28315820                0.89741869               -0.01919269                0.05367708                1.20578041
               1.97528872                4.26396598               19.12014722                0.95572543               -0.17433134               -0.18384666                0.59152952                0.00350147                0.06362695               -0.10981986
               2.97397446                4.18282739               19.03323370                0.14817936               -0.09489171               -0.08471615                0.29526889                0.02475824                1.12509278               -1.34607230
               3.97339089                4.10168254               18.96739065                0.00010000               -0.66078457                0.10738588               -0.02789356                0.82581609                5.57159521               -1.63935686
               4.96075877                4.03922418               18.97001519                0.00010000               -1.22077830                0.11703657               -0.11952067                1.57457654                8.51610080               -1.23164247
               5.94897532                3.97477841               18.96365333                0.00010000               -1.16460284                0.21853159               -0.17492881                1.46394813                7.80424756               -0.58692003
               6.93746671                3.91176557               18.95293280                0.00010000               -1.08542695                0.17015415               -0.26076910                1.33586658                7.46056505                0.30125679
               7.92726678                3.85216644               18.94062834                0.00010000               -0.98584148                0.14610049               -0.37199335                1.27430351                7.44212543                1.27120901
               8.91774988                3.79773739               18.93048197                0.23702197               -0.39551175                0.17855215               -0.50207374                0.57794823                4.01965622                2.51940910
               9.91935655                3.73348853               18.85055888                0.97073551                0.22762457                0.25559569               -0.81909628                0.02357423                0.27427226                0.76584985
              10.92230237                3.66912461               18.76535044                1.00000000                0.29458216                0.36297693               -1.17417884               -0.01783125                0.01600069               -0.40575768
               1.05748383                5.34203598               19.18486614                1.00000000               -0.17711703               -0.24798481                0.76912228               -0.02370272                0.11128451                1.07732088
               2.05571266                5.26234388               19.09163010                0.77287746               -0.13184559               -0.13852846                0.44367887               -0.00230412                0.20204718               -0.26570586
               3.05484691                5.18225972               19.00016210                0.09524083               -0.22383091               -0.03013167                0.12944888                0.13870306                2.09082206               -1.47896607
               4.05123604                5.10447424               18.94469537                0.00010000               -0.84539278                0.38819463               -0.37560826                0.60216169                7.25655850               -0.18917648
               5.03793906                5.04129767               18.95599596                0.00010000               -1.35794411                0.29801157               -0.23710973                1.22814802               10.19875494               -0.48664295
               6.02407716                4.97740170               18.96100307                0.00010000               -1.40639573                0.33750773               -0.19947096                1.03173305                9.71380410               -0.12646741
               7.00981114                4.91453610               18.96415506                0.00010000               -1.42178515                0.33519890               -0.21186182                0.93812453                9.55965064                0.50539679
               7.99564145                4.85444078               18.96747641                0.00010000               -1.37780525                0.25535430               -0.25557932                0.95622246                9.61659370                1.30138973
               8.98225504                4.79905826               18.97300235                0.24516866               -0.61506717                0.09885178               -0.31668651                0.44528789                4.95181024                2.12157447
               9.98334011                4.73576487               18.88406806                0.86218097                0.18273134                0.20804482               -0.67849086                0.01064254                0.14733654                0.73397628
              10.98590967                4.67262766               18.79341611                1.00000000                0.25695570                0.33792114               -1.06747872               -0.01750320                0.06809053               -0.44117889
               1.13637123                6.33976481               19.16112105                1.00000000               -0.13523275               -0.20433847                0.63404977               -0.02458319                0.07008253                0.94909945
               2.13501891                6.26119541               19.06070577                0.65508904               -0.08765375               -0.09127890                0.29208549               -0.00301646                0.20993392               -0.44743189
               3.13461816                6.18222476               18.96304354                0.06974781               -0.43113696                0.02164883               -0.03748957                0.33321014                3.92875008               -1.81307715
               4.12639617                6.10944643               18.93699795                0.00010000               -1.11119464                0.49498884               -0.54334681                0.67897656                9.36167236                0.16113110
               5.11239427                6.04518441               18.94757544                0.00010000               -1.50123050                0.47104629               -0.30972535                0.99466774               11.28465784               -0.12003584
               6.09637156                5.98152856               18.96185731                0.00010000               -1.66020727                0.50020304               -0.20381146                0.80830544               11.41831179                0.13041619
               7.07919012                5.91846954               18.97704667                0.00010000               -1.72512398                0.45940070               -0.15530762                0.63116573               11.45487229                0.61898862
               8.06186908                5.85727352               18.99383466                0.00010000               -1.69292852                0.30496369               -0.13963121                0.59334204               11.58226473                1.24959361
               9.04533155                5.79971443               19.01310615                0.26184825               -0.79345394                0.03762256               -0.14462390                0.25157693                5.89433212                1.94511650
              10.04600000                5.73764943               18.91739888                0.79627759                0.14475872                0.16966159               -0.55313859                0.00302549                0.09479791                0.69009863
              11.04822672                5.67588303               18.82058121                1.00000000                0.22267259                0.31310784               -0.97286023               -0.01651454                0.04485923               -0.51181341
               1.21413097                7.33794921               19.13612705                1.00000000               -0.09385866               -0.15903300                0.49759377               -0.02386903                0.03102002                0.86081124
               2.21319238                7.26051830               19.02852317                0.59251667               -0.04354351               -0.04464240                0.14297785               -0.00230638                0.15219371               -0.53051764
               3.21326010                7.18269269               18.92330285                0.05853283               -0.56682287                0.07103762               -0.20569129                0.49974270                5.46045452               -2.00731606
               4.20185592                7.11437402               18.92186260                0.00010000               -1.37549050                0.50584923               -0.50284697                0.92417991               11.64191610               -0.45387936
               5.18575029                7.05071860               18.94066210                0.00010000               -1.74488973                0.64296114               -0.32183350                0.93400835               12.78715756               -0.08104946
               6.16695813                6.98740576               18.96403682                0.00010000               -1.95303962                0.69568141               -0.18595895                0.64244475               13.05465109                0.21071748
               7.14668949                6.92372412               18.99031887                0.00010000               -2.03473609                0.61517918               -0.09319998                0.33235087               13.24496370                0.61830698
               8.12626341                6.86054006               19.01955745                0.00010000               -1.98894113                0.36794378               -0.02747325                0.16560432               13.46882855                1.16251535
               9.10691067                6.79981071               19.05212851                0.28415141               -0.95156935               -0.01679914                0.01777324                0.00883901                6.82146978                1.84289122
              10.10723202                6.73915810               18.94990218                0.76458718                0.11007535                0.12911473               -0.42428473               -0.00158236                0.05653957                0.61692794
              11.10911218                6.67888982               18.84704202                1.00000000                0.18801588                0.28522475               -0.87120513               -0.01590464                0.03177157               -0.57406914
               1.29075567                8.33658415               19.11052971                1.00000000               -0.05263762               -0.11518717                0.36232385               -0.02313524                0.01275029                0.82846218
               2.29022930                8.26030256               18.99591176                0.57927262                0.00008121                0.00133335               -0.00394328               -0.00104782                0.06606954               -0.55826162
               3.29075730                8.18364551               18.88232502                0.05123551               -0.66877189                0.11883582               -0.37124221                0.65371007                6.75403218               -1.98285955
               4.27685386                8.11956342               18.90147336                0.00010000               -1.63573049                0.59542818               -0.47186438                1.12709932               13.92897263               -0.62117183
               5.25804269                8.05804363               18.93251757                0.00010000               -2.03194617                0.84630922               -0.30210578                0.88253481               14.53515950               -0.12863890
               6.23621494                7.99544219               18.96593556                0.00010000               -2.26699213                0.89704236               -0.15715804                0.48281574               14.70728615                0.18123488
               7.21270284                7.93077313               19.00275717                0.00010000               -2.35601831                0.83268062               -0.03235913                0.04915964               14.97936353                0.50541896
               8.18909457                7.86463240               19.04394045                0.00643223               -2.29062803                0.50605152                0.07678311               -0.35198057               15.34477481                0.96100346
               9.16689028                7.79937845               19.09016442                0.31175884               -1.11026631               -0.06415409                0.17301203               -0.30854299                7.77467016                1.67787779
              10.16688924                7.74023173               18.98167095                0.76909162                0.07774569                0.08551577               -0.29586087               -0.00867673                0.02822816                0.57163203
              11.16844520                7.68158752               18.87279569                1.00000000                0.15559549                0.25207604               -0.76930646               -0.01475805                0.01735162               -0.62753118
               1.36623144                9.33564547               19.08480847                1.00000000               -0.01213774               -0.07417630                0.22943414               -0.02254490               -0.00435553                0.70112162
               2.36611007                9.26054497               18.96315725                0.60132645                0.04210014                0.04655228               -0.14857662                0.00006222                0.07771891               -0.48850697
               3.36707345                9.18506941               18.84311732                0.02656765               -0.80551359                0.16320210               -0.52569439                0.85828624                8.12170561               -1.38954390
               4.34999979                9.12628258               18.88236294                0.00010000               -1.97756164                0.92006007               -0.45321787                1.01612754               16.10732657               -0.34800751
               5.32752221                9.06764478               18.92388889                0.00010000               -2.30574231                1.00885901               -0.29265840                0.63569759               16.16667036               -0.08736488
               6.30388495                9.00534661               18.96672225                0.00010000               -2.45198684                1.02754363               -0.13494227                0.28531184               16.28822064                0.10359929
               7.27848248                8.94037773               19.01309983                0.00010000               -2.66332358                1.00255945                0.01724863               -0.10683924               16.62896770                0.29060872
               8.25061848                8.87066109               19.06524086                0.02244734               -2.66709943                0.88106859                0.16561266               -0.64942536               17.20905312                0.55717852
               9.22514049                8.79852763               19.12580715                0.34239974               -1.28845334               -0.08809200                0.31259766               -0.72550882                8.86436339                1.12399125
              10.22484941                8.74086842               19.01315171                0.81073143                0.04824668                0.04586590               -0.17272744               -0.01959369                0.08843254                0.47836920
              11.22610542                8.68393134               18.89799552                0.97885386                0.12560120                0.21668095               -0.67288261               -0.01473419               -0.02669424               -0.55166301
               1.44050577               10.33510063               19.05659642                1.00000000                0.03008255               -0.05448405                0.09692810                0.04073130                0.38321121                0.57945458
               2.44080660               10.26123361               18.93193160                0.83420196                0.08398178                0.06886408               -0.28745586                0.06009980                0.72403960               -0.41198741
               3.44218541               10.18690956               18.81405866                0.51503253               -1.31027821                0.18401453               -0.65900851                1.34774688                9.58796758               -0.88470599
               4.41460104               10.13796462               18.86669888                0.36348699               -2.52463998                1.16820375               -0.47848111                1.02568693               17.78163455               -0.12144425
               5.39169261               10.07822081               18.91559415                0.35548353               -2.27064038                1.05760257               -0.31286683                0.31846186               17.55893836               -0.02035616
               6.36918823               10.01599306               18.96606198                0.37473073               -2.32205133                1.06464505               -0.13164827                0.16050334               17.71437162                0.08537991
               7.34525158                9.95082432               19.02025432                0.41897980               -2.56160329                1.04465868                0.04780686               -0.01005367               18.10677819                0.18856950
               8.31795616                9.88225377               19.08089740                0.51831146               -3.15394034                1.15926852                0.22737783               -0.92661680               18.84793017                0.34368219
               9.28217278                9.79761661               19.15260647                0.68716990               -1.84312516               -0.09110222                0.40691877               -1.35200746               10.15152218                0.69501949
              10.28109366                9.74114904               19.04289147                0.93563106               -0.00740534                0.02806256               -0.06444437                0.03965179                0.68288506                0.40236478
              11.28202467                9.68592114               18.92506084                0.98704884                0.09310112                0.19898031               -0.57735898                0.06913488                0.28887657               -0.44737446
               0.71034529                0.39262274               20.30887608                1.00000000               -0.35297753               -0.38522046                1.34568336               -0.06834630               -0.74826415                0.78582321
               1.70681551                0.30174679               20.23828940                1.00000000               -0.29245811               -0.30818926                1.08172847               -0.05254390               -0.94871307                0.05296892
               2.70449612                0.21072183               20.16367062                1.00000000               -0.15862307               -0.23284620                0.80055257               -0.03485530               -0.89863839               -0.21204117
               3.70364305                0.12082520               20.09412490                0.62022301                0.30984887               -0.17763693                0.53059694                0.47500653                0.06973007               -0.58604058
               4.71069310                0.04294659               20.03889392                0.70695176                0.45590760               -0.06242515                0.23584295               -0.07394915                0.58673676                0.14210887
               5.71276120               -0.02610185               19.97963809                0.79103575                0.14427307                0.02565245               -0.06180231                0.00015794                0.19522336                0.08323643
               6.71357856               -0.09362599               19.91663824                0.77078498                0.06126977                0.10468202               -0.35255884                0.00876778                0.00565144               -0.05444072
               7.71398660               -0.16186306               19.85355635                0.86623728                0.07169979                0.19661487               -0.65366166                0.03438872               -0.22559237                0.06248915
               8.71501256               -0.23307278               19.78576952                1.00000000                0.18876244                0.29513575               -0.95187041                0.02076446               -0.58464710                0.43326575
               9.71776185               -0.30636207               19.71538371                1.00000000                0.33760230                0.36447130               -1.24352247               -0.04451132               -0.66720349                0.00980751
              10.72176460               -0.37989739               19.64598665                1.00000000                0.40027588                0.44434693               -1.51976780               -0.06427588               -0.62328036               -0.64020365
               0.80053777                1.38877053               20.28160460                1.00000000               -0.32972468               -0.36462695                1.22349061               -0.02935407               -0.09833278                1.06697580
               1.79724053                1.29866490               20.21059643                1.00000000               -0.29647027               -0.28661523                0.95971907               -0.01034716               -0.06075921                0.07888012
               2.79460837                1.20839337               20.14028241                0.79072543               -0.24798945               -0.21244849                0.69731538                0.03340253                0.17938367               -0.59625480
               3.79228074                1.11904883               20.07403661                0.15026658               -0.55956178               -0.17168182                0.43471197                0.68176996                1.65133580               -1.05043355
               4.78341713                1.04232234               20.03306848                0.31502421               -0.56158326                0.06140024                0.18502705               -0.09142280                2.32216327                0.94594984
               5.78104907                0.97415468               19.98026232                0.41061808               -0.09351404                0.08900664               -0.09029164                0.18537692                1.50395556                0.36830819
               6.78154685                0.90742083               19.92291849                0.30257640                0.15024026                0.04969557               -0.36359415                0.22617956                1.38699274               -0.38768541
               7.78405388                0.84010308               19.86788887                0.45390353                0.29614273                0.19265393               -0.62575141                0.27387702                1.36672888                0.59076778
               8.78746970                0.76987858               19.81044623                1.00000000                0.33375828                0.27826295               -0.88881731                0.12034615                0.69894938                0.62304683
               9.79072904                0.69728264               19.74232598                1.00000000                0.35937337                0.35343194               -1.16300245                0.00086651                0.09738297                0.08706023
              10.79465717                0.62454607               19.67293055                1.00000000                0.39281304                0.42798562               -1.43852298               -0.02067662                0.02976750               -0.75937638
               0.88996948                2.38533020               20.25990512                1.00000000               -0.29837467               -0.33022619                1.11537141               -0.02210990                0.04049684                1.35803635
               1.88698573                2.29601448               20.18336459                1.00000000               -0.25946178               -0.24987974                0.83968438                0.00278855                0.16295001                0.05249240
               2.88478024                2.20647286               20.10916254                0.44928228               -0.18181253               -0.18082715                0.57738913                0.06174392                0.77148289               -1.28388270
               3.88334948                2.11739156               20.04470089                0.00010000               -1.55107244               -0.12933208                0.33660899                0.93076626                4.42546108               -1.94319836
               4.85375879                2.04417459               20.04324378                0.00010000               -1.59896165                0.17502216                0.13288031                1.81544568                4.79725188               -1.25094034
               5.85137025                1.97567829               19.98655794                0.00010000               -0.08025226               -0.06054144               -0.11725606                1.56266284                1.66235376               -0.46094806
               6.85215375                1.90736792               19.92254276                0.00010000                0.28180680               -0.15750254               -0.36823325                1.33712294                3.00110238                0.23632412
               7.85700638                1.84199001               19.89281970                0.00010000                0.40430858               -0.11121999               -0.60250194                0.92215233                3.45578860                0.73506172
               8.86023992                1.77249248               19.83901032                0.47892510                0.30526491                0.27107938               -0.80865571                0.21069523                1.52746090                1.22026312
               9.86311168                1.70070657               19.77090723                1.00000000                0.32921460                0.33972189               -1.07697127                0.03343668                0.55203177                0.53849617
              10.86682421                1.62866232               19.69758961                1.00000000                0.37125300                0.40058387               -1.36945079               -0.01070972                0.28968879               -0.76739425
               0.97872700                3.38216601               20.23843706                1.00000000               -0.25733694               -0.30592842                1.00523581               -0.01637131                0.05227181                1.32842056
               1.97615363                3.29366730               20.15511916                1.00000000               -0.21304174               -0.21892045                0.71688061                0.00578225                0.06459514               -0.03900385
               2.97446617                3.20477683               20.07197567                0.26133452               -0.14796521               -0.13970349                0.42727704                0.05964001                0.98379804               -1.51175322
               3.97319433                3.11646219               20.00704275                0.00010000               -0.65134252               -0.06943246                0.15623167                1.00056283                4.47366675               -2.46703712
               4.96143932                3.04582278               19.99338238                0.00010000               -1.20426644                0.08516111                0.00451796                2.60848619                6.53578029               -3.00182427
               5.94910900                2.97294385               19.97057832                0.00010000               -0.97308678               -0.05414028               -0.14546295                2.21584703                5.71921030               -1.22231087
               6.94197758                2.90427078               19.94102798                0.00010000               -0.58683209               -0.12876549               -0.31162691                1.90428163                5.28363335                0.70672034
               7.93737236                2.83787868               19.91005395                0.00010000               -0.45052650               -0.17605941               -0.48854480                1.43501458                5.01866771                0.82919091
               8.93296705                2.77530017               19.87566031                0.25198073               -0.10722095                0.24547510               -0.69382018                0.53775191                3.10529021                2.27427689
               9.93522794                2.70407708               19.80694237                1.00000000                0.27822157                0.31035884               -0.95827021                0.03161705                0.69983089                0.86935600
              10.93853148                2.63255775               19.72438504                1.00000000                0.33035435                0.38652985               -1.28994677               -0.01826057                0.01013746               -0.54016324
               1.06663947                4.37921163               20.21613423                1.00000000               -0.21489078               -0.28052337                0.88609962               -0.02004996                0.06233363                1.22178794
               2.06449056                4.29163607               20.12603998                0.94464740               -0.17306549               -0.18163036                0.58638776                0.00223445                0.07753185               -0.12416109
               3.06317816                4.20367879               20.03619829                0.15459763               -0.10878881               -0.08317170                0.29650263                0.03844262                1.13813810               -1.38508605
               4.06231478                4.11600291               19.96731372                0.00010000               -0.68656522                0.08464324               -0.01484085                0.83461669                5.70621487               -1.87141543
               5.04944685                4.04587781               19.96880791                0.00010000               -1.25377964                0.10692094               -0.11586495                1.53345460                8.76467496               -1.28488612
               6.03723919                3.97459548               19.96188915                0.00010000               -1.20711531                0.21334187               -0.17699767                1.43549882                8.06814351               -0.57674442
               7.02530455                3.90479261               19.95030010                0.00010000               -1.12809536                0.16451854               -0.26595743                1.29469480                7.70319388                0.35795856
               8.01467728                3.83846883               19.93686927                0.00010000               -1.02539938                0.14214559               -0.38086350                1.22549835                7.67070810                1.36165745
               9.00479656                3.77740198               19.92538783                0.23490950               -0.40954220                0.16794691               -0.51946194                0.54536492                4.15492479                2.64457788
              10.00648644                3.70691375               19.84224331                0.95133939                0.23505511                0.25895153               -0.84244787                0.01694284                0.30057855                0.81340106
              11.00949766                3.63639291               19.75350077                1.00000000                0.30112221                0.37300819               -1.19391753               -0.01757338                0.02646642               -0.41746795
               1.15347711                5.37655554               20.19249989                1.00000000               -0.17459523               -0.24445949                0.75743789               -0.02413011                0.11461970                1.08509723
               2.15173116                5.29003469               20.09604432                0.76475504               -0.13044649               -0.13650427                0.43869077               -0.00319724                0.21122001               -0.28982714
               3.15086818                5.20311339               20.00146956                0.10139019               -0.20217610               -0.02971630                0.13154244                0.12056736                2.01993593               -1.53440305
               4.14768764                5.11815505               19.94118394                0.00010000               -0.86761723                0.34638047               -0.34558334                0.60172355                7.41015192               -0.39019550
               5.13351584                5.04796120               19.95364220                0.00010000               -1.43917286                0.30432420               -0.23184789                1.21165875               10.61511554               -0.51886837
               6.11890418                4.97721069               19.95899601                0.00010000               -1.47588527                0.34417458               -0.20138865                1.00261631               10.07556032               -0.10317278
               7.10399813                4.90756115               19.96200699                0.00010000               -1.48156158                0.33996193               -0.21821207                0.89494181                9.89299550                0.56592909
               8.08927295                4.84072160               19.96486657                0.00010000               -1.42843528                0.25605217               -0.26763265                0.90505676                9.93782676                1.39335714
               9.07542943                4.77865911               19.96974466                0.24272359               -0.63485420                0.09500397               -0.33785574                0.41629431                5.12792867                2.24131843
              10.07657587                4.70925611               19.87715792                0.84480997                0.18961267                0.21449821               -0.70406714                0.00949389                0.16294322                0.78431438
              11.07922168                4.64001792               19.78259325                1.00000000                0.26458151                0.34963121               -1.09416420               -0.01840438                0.07093138               -0.45338071
               1.23919856                6.37432244               20.16740403                1.00000000               -0.13297957               -0.20037640                0.62237263               -0.02463529                0.07010910                0.95257097
               2.23786877                6.28890599               20.06360406                0.64910580               -0.08647062               -0.08949751                0.28744198               -0.00348917                0.21619294               -0.47127765
               3.23746915                6.20308447               19.96267933                0.07520812               -0.41836584                0.02175228               -0.03551123                0.30616671                3.84536862               -1.86770955
               4.22950145                6.12293052               19.93146194                0.00010000               -1.14223782                0.49399283               -0.55992887                0.63257202                9.57269253                0.16611330
               5.21462439                6.05196430               19.94445772                0.00010000               -1.59049404                0.48845246               -0.31276929                0.97369938               11.81537956               -0.10382936
               6.19769157                5.98147897               19.95979494                0.00010000               -1.74659584                0.52029651               -0.20824817                0.76887398               11.86506120                0.17065904
               7.17969248                5.91159185               19.97545424                0.00010000               -1.80055538                0.47423940               -0.16380504                0.57763997               11.87075580                0.68277902
               8.16168046                5.84358987               19.99237112                0.00010000               -1.75522733                0.31190699               -0.15450563                0.53161234               11.98631341                1.33725515
               9.14458793                5.77930206               20.01155034                0.25954237               -0.81814755                0.03745063               -0.16853595                0.21847102                6.10447894                2.05298998
              10.14531751                5.71120371               19.91176487                0.78070448                0.15090204                0.17519755               -0.57579724                0.00440692                0.10228776                0.73348851
              11.14760597                5.64338554               19.81075748                1.00000000                0.22884604                0.32306825               -0.99357577               -0.01623329                0.04764719               -0.52337789
               1.32381731                7.37254801               20.14104762                1.00000000               -0.09179562               -0.15501101                0.48634264               -0.02372647                0.03078171                0.86396261
               2.32289935                7.28824474               20.02993503                0.58803381               -0.04251612               -0.04330783                0.13916244               -0.00227774                0.15493010               -0.55121316
               3.32296699                7.20354844               19.92126250                0.06275512               -0.57200534                0.07007890               -0.20267910                0.48343463                5.47875289               -2.05918809
               4.31145925                7.12803491               19.91662763                0.00010000               -1.42628061                0.52954819               -0.53809536                0.88249308               11.94592539               -0.33111681
               5.29444138                7.05773025               19.93737481                0.00010000               -1.84025668                0.67235373               -0.33327768                0.90588843               13.33004198               -0.01973462
               6.27465411                6.98761662               19.96213665                0.00010000               -2.05006687                0.72726404               -0.19374575                0.59391186               13.56117325                0.26293313
               7.25344004                6.91704594               19.98933485                0.00010000               -2.12295656                0.64057689               -0.10434620                0.26632536               13.73135371                0.67959550
               8.23219498                6.84695974               20.01919987                0.00010000               -2.06275157                0.38204799               -0.04547844                0.08988258               13.94831939                1.24115239
               9.21218501                6.77940812               20.05217913                0.28204300               -0.98072255               -0.01430630               -0.00951494               -0.03254500                7.06685154                1.94153945
              10.21258053                6.71276006               19.94554112                0.74986214                0.11741779                0.13434877               -0.44919796               -0.00096707                0.05996216                0.65971379
              11.21453336                6.64647928               19.83821674                1.00000000                0.19528315                0.29430600               -0.89412649               -0.01498835                0.03304866               -0.58420420
               1.40733057                8.37122222               20.11410175                1.00000000               -0.05077841               -0.11150552                0.35180096               -0.02290981                0.01238988                0.83330441
               2.40682279                8.28803983               19.99586042                0.57597029                0.00085533                0.00220362               -0.00668586               -0.00082604                0.06530655               -0.57618852
               3.40734768                8.20448604               19.87863808                0.05381130               -0.69266435                0.11699758               -0.36665370                0.65450693                6.87613212               -2.02637611
               4.39296950                8.13352148               19.89661858                0.00010000               -1.70936134                0.62771584               -0.49544312                1.10713652               14.33810063               -0.50378494
               5.37316045                8.06541137               19.92942706                0.00010000               -2.13576918                0.88655760               -0.31431250                0.85846426               15.09116662               -0.05882128
               6.35025412                7.99602425               19.96431308                0.00010000               -2.37422930                0.93887362               -0.16719844                0.43510967               15.25548238                0.22978037
               7.32567586                7.92440339               20.00236913                0.00010000               -2.45690942                0.87102963               -0.04609876               -0.02081326               15.52708857                0.55458397
               8.30111593                7.85123083               20.04460810                0.00712954               -2.37695824                0.53009048                0.05527867               -0.44099575               15.89628081                1.02431247
               9.27813670                7.77901594               20.09174005                0.30964621               -1.14444608               -0.05799616                0.14032329               -0.35990334                8.05806915                1.76469027
              10.27822701                7.71389069               19.97857004                0.75360647                0.08655348                0.09250634               -0.32537181               -0.00909660                0.03116929                0.61097987
              11.27986777                7.64927166               19.86496839                1.00000000                0.16407632                0.26191691               -0.79626676               -0.01357689                0.01825401               -0.64050133
               1.48972389                9.37031790               20.08705615                1.00000000               -0.01048777               -0.07095607                0.21969335               -0.02232138               -0.00530420                0.70739865
               2.48961901                9.28828882               19.96166637                0.59824867                0.04257934                0.04701949               -0.15012339                0.00025670                0.07749993               -0.50206085
               3.49057547                9.20588839               19.83789687                0.02677701               -0.84711814                0.16098582               -0.51914126                0.87891958                8.34061060               -1.41625798
               4.47267665                9.14058922               19.87778027                0.00010000               -2.07337915                0.96201974               -0.46188771                1.01848694               16.61280208               -0.26494301
               5.44910789                9.07546140               19.92091300                0.00010000               -2.41561765                1.05429036               -0.30187824                0.62401611               16.74076575               -0.04527424
               6.42436429                9.00639409               19.96531853                0.00010000               -2.56453467                1.07587213               -0.14607212                0.25447392               16.87828655                0.13172907
               7.39781720                8.93446653               20.01319678                0.00010000               -2.78008896                1.05237633                0.00118579               -0.15876457               17.23376208                0.31724979
               8.36876251                8.85756155               20.06678190                0.02394699               -2.77450583                0.92867251                0.14129904               -0.72752700               17.83031055                0.59450587
               9.34232708                8.77824820               20.12874832                0.33996615               -1.33098185               -0.07709503                0.27374992               -0.78817100                9.19058438                1.18103369
              10.34214288                8.71461019               20.01125243                0.79197658                0.05864000                0.05566124               -0.20817037               -0.02120822                0.09613344                0.50763291
              11.34349988                8.65171762               19.89110555                0.97990709                0.13570033                0.22727036               -0.70511507               -0.01348227               -0.02615530               -0.56837432
               1.57094232               10.36980310               20.05752312                1.00000000                0.03151181               -0.05148047                0.08786276                0.03955538                0.38686579                0.58615212
               2.57125744               10.28898022               19.92905770                0.83315376                0.08416719                0.06914064               -0.28800880                0.05897559                0.73440499               -0.42233678
               3.57262566               10.20770576               19.80751087                0.51465386               -1.37456036                0.18173705               -0.65142504                1.39410152                9.87650267               -0.90053312
               4.54376623               10.15276188               19.86190408                0.36398378               -2.63948770                1.21726553               -0.48041510                1.04852918               18.36957301               -0.07326791
               5.51983591               10.08649718               19.91242603                0.35569438               -2.37138812                1.10357811               -0.32075417                0.31179242               18.17256067               -0.00260623
               6.49633847               10.01754170               19.96468845                0.37455559               -2.42513943                1.11476063               -0.14365397                0.14510377               18.35536994                0.09569957
               7.47133312                9.94545091               20.02064647                0.41841269               -2.67773728                1.09843841                0.02956258               -0.03527883               18.76519639                0.19815934
               8.44278372                9.86980428               20.08304139                0.51950867               -3.30042422                1.22427337                0.20033984               -0.99672325               19.52297689                0.35965120
               9.40532463                9.77747404               20.15646084                0.68622494               -1.92251504               -0.07741591                0.36211092               -1.44026308               10.52697977                0.73047184
              10.40433342                9.71500391               20.04204325                0.92490045                0.00293172                0.03937208               -0.10617145                0.03620558                0.71788391                0.42469155
              11.40538327                9.65381707               19.91909446                0.98698901                0.10498492                0.20994471               -0.61574716                0.06965414                0.30332400               -0.46486257
               0.77465655                0.42846457               21.32228257                1.00000000               -0.35233221               -0.38296267                1.33680726               -0.06722926               -0.76891086                0.80454282
               1.77113322                0.33058932               21.24907189                1.00000000               -0.29347864               -0.30523912                1.07499740               -0.05321645               -0.97776322                0.05593254
               2.76878697                0.23249525               21.17166556                1.00000000               -0.16070582               -0.22952407                0.79822101               -0.03922175               -0.92857552               -0.21005216
               3.76791911                0.13542621               21.09947149                0.62178186                0.31172035               -0.18143083                0.53557786                0.48057258                0.02893906               -0.60708636
               4.77502138                0.05047874               21.04123959                0.70988587                0.45706009               -0.05845243                0.23314183               -0.07259794                0.52844287                0.15287741
               5.77706031               -0.02572454               20.97903418                0.79395816                0.14353660                0.02701511               -0.05881901                0.00074993                0.14429113                0.08911991
               6.77789211               -0.10041645               20.91314879                0.77263644                0.06601486                0.10417411               -0.34523406                0.00907909               -0.04685313               -0.05819559
               7.77838061               -0.17568121               20.84707852                0.86783186                0.07884604                0.19492811               -0.64211634                0.03098949               -0.28166308                0.06853386
               8.77946903               -0.25367612               20.77632892                1.00000000                0.19097514                0.29061056               -0.93669533                0.01714198               -0.63592035                0.44462661
               9.78220011               -0.33361532               20.70304370                1.00000000                0.33402870                0.35990901               -1.22506420               -0.04339401               -0.70711058                0.00873007
              10.78614961               -0.41380179               20.63090050                1.00000000                0.39494979                0.43964504               -1.49825373               -0.06156660               -0.65505431               -0.67017819
               0.87185950                1.42463495               21.29378620                1.00000000               -0.32737828               -0.36318277                1.21390470               -0.02771377               -0.10232732                1.09222023
               1.86858572                1.32753693               21.22016143                1.00000000               -0.29415947               -0.28437831                0.95343313               -0.01009764               -0.06613541                0.08197149
               2.86597632                1.23020001               21.14721870                0.81252584               -0.24263156               -0.20853632                0.68714595                0.02469783                0.16904694               -0.59497718
               3.86373309                1.13361190               21.07825889                0.16053234               -0.55527703               -0.18079851                0.41050904                0.68947735                1.65299753               -1.05311687
               4.85487077                1.04989421               21.03486039                0.32533505               -0.56088433                0.06785057                0.17295650               -0.08695775                2.33128536                0.95315978
               5.85251540                0.97454561               20.97933172                0.42234046               -0.09547672                0.09028454               -0.09587993                0.17585960                1.50087657                0.37518797
               6.85296124                0.90062529               20.91928192                0.31335309                0.14024662                0.05616464               -0.36369064                0.21865702                1.39103998               -0.38710602
               7.85532034                0.82626807               20.86165099                0.46229569                0.28231336                0.19167281               -0.62207245                0.25392910                1.37671384                0.59382661
               8.85860751                0.74922999               20.80159484                1.00000000                0.32543347                0.27531829               -0.88182682                0.11164517                0.70367027                0.64299371
               9.86182901                0.66998377               20.73074854                1.00000000                0.35564527                0.34967130               -1.15305752                0.00117361                0.09617116                0.08906883
              10.86572041                0.59059466               20.65861434                1.00000000                0.38914072                0.42552321               -1.42549696               -0.01856289                0.02830446               -0.79487703
               0.96829830                2.42120092               21.27100069                1.00000000               -0.29320922               -0.32982500                1.10448896               -0.02129875                0.03982873                1.38930817
               1.96536621                2.32490176               21.19171887                1.00000000               -0.25461680               -0.24857924                0.83251245                0.00183449                0.17120947                0.05650477
               2.96320596                2.22832452               21.11499451                0.45924581               -0.16758787               -0.17583925                0.58118221                0.03764223                0.79309106               -1.30431082
               3.96201445                2.13181023               21.04812116                0.00010000               -1.54287263               -0.16194761                0.32329678                0.94806272                4.45387999               -1.96031755
               4.93234851                2.05183575               21.04443281                0.00010000               -1.60840128                0.17310569                0.10903292                1.80617833                4.86375041               -1.27077872
               5.92984643                1.97608115               20.98532957                0.00010000               -0.09028582               -0.06459851               -0.12866382                1.52169366                1.71463688               -0.45069473
               6.93054280                1.90070684               20.91885077                0.00010000                0.25040336               -0.15576061               -0.36964396                1.28943705                3.05677000                0.27157833
               7.93485449                1.82815224               20.88676572                0.00010000                0.37217199               -0.11075261               -0.60824214                0.88356563                3.53692106                0.78325466
               8.93798624                1.75183025               20.83091683                0.48495373                0.30022081                0.26826296               -0.81033017                0.19269572                1.59347085                1.26636182
               9.94085891                1.67337811               20.76014749                1.00000000                0.32851679                0.33601157               -1.07558238                0.02885692                0.57486574                0.55958316
              10.94455657                1.59470867               20.68392267                1.00000000                0.36976624                0.40295236               -1.36474839               -0.01017259                0.30074866               -0.80367670
               1.06403185                3.41803845               21.24842884                1.00000000               -0.25330461               -0.30517407                0.99372631               -0.01741274                0.05630309                1.35429377
               2.06149881                3.32256535               21.16226021                1.00000000               -0.21055853               -0.21720780                0.71107708                0.00269333                0.06775843               -0.03891297
               3.05982068                3.22668322               21.07625132                0.26841475               -0.11578431               -0.13463693                0.42839965                0.00325576                0.99938919               -1.54321569
               4.05918312                3.13037294               21.00869963                0.00010000               -0.65486276               -0.08485980                0.16464949                0.97821077                4.56809078               -2.55675833
               5.04672343                3.05335633               20.99345636                0.00010000               -1.25524674                0.07154405                0.01139238                2.60045107                6.69247541               -3.05369510
               6.03407818                2.97325364               20.96910013                0.00010000               -1.00222687               -0.06276581               -0.14892251                2.15766644                5.87269287               -1.20691232
               7.02667889                2.89751008               20.93788616                0.00010000               -0.61049703               -0.13805563               -0.31698000                1.84035224                5.42966657                0.77075809
               8.02186824                2.82405302               20.90513856                0.00010000               -0.47216644               -0.17826383               -0.49517477                1.39119508                5.14981630                0.92367610
               9.01723556                2.75459525               20.86867659                0.25141900               -0.11702634                0.23571747               -0.70344507                0.50695443                3.20022427                2.36677569
              10.01952772                2.67670400               20.79731682                1.00000000                0.28101337                0.30814455               -0.96712949                0.02273668                0.73387513                0.90507559
              11.02285583                2.59865371               20.71145961                1.00000000                0.33281097                0.39291842               -1.29535235               -0.01701865                0.01143742               -0.56349917
               1.15889625                4.41509744               21.22493690                1.00000000               -0.21209480               -0.27851595                0.87455451               -0.02120804                0.06983677                1.23792812
               2.15677530                4.32055760               21.13187498                0.93413737               -0.17163819               -0.17910417                0.58063612                0.00014683                0.09018522               -0.13743092
               3.15546348                4.22563178               21.03916375                0.16135537               -0.09348668               -0.07963033                0.29655369               -0.00796155                1.13994908               -1.42123560
               4.15490556                4.13011304               20.96709383                0.00010000               -0.69933218                0.10745831               -0.02518173                0.78590771                5.82523889               -2.05193551
               5.14147684                4.05326663               20.96769789                0.00010000               -1.30297799                0.09570852               -0.10667411                1.52093381                9.01028222               -1.33291859
               6.12884600                3.97482583               20.96011337                0.00010000               -1.24631865                0.20894079               -0.17761763                1.39122442                8.31845242               -0.56011490
               7.11655046                3.89794573               20.94761366                0.00010000               -1.16263888                0.15952373               -0.27172922                1.24413683                7.93702767                0.41972793
               8.10559323                3.82458697               20.93301107                0.00010000               -1.05380630                0.13765307               -0.39185435                1.16954703                7.88888586                1.45524375
               9.09547434                3.75654460               20.92009273                0.23267627               -0.41690225                0.15634354               -0.54043886                0.51203651                4.28220745                2.77043047
              10.09725518                3.67954100               20.83370992                0.93186023                0.24212246                0.26127963               -0.86328982                0.01225581                0.32567656                0.86026735
              11.10031679                3.60256704               20.74147209                1.00000000                0.30616068                0.38248110               -1.21026741               -0.01730474                0.03786933               -0.42991838
               1.25268736                5.41246813               21.20001490                1.00000000               -0.17199689               -0.24144666                0.74566082               -0.02463102                0.11731331                1.09245977
               2.25096739                5.31898326               21.10040391                0.75686205               -0.12906756               -0.13392266                0.43305979               -0.00426729                0.21995335               -0.31311656
               3.25010601                5.22509062               21.00279295                0.10724193               -0.18504824               -0.02770814                0.13262067                0.08715068                1.95015259               -1.58730568
               4.24726643                5.13252211               20.93778370                0.00010000               -0.88383524                0.36059887               -0.33317131                0.56729696                7.53966775               -0.57118173
               5.23242931                5.05527050               20.95135900                0.00010000               -1.50214272                0.30542938               -0.22666235                1.19011828               11.01385634               -0.55159202
               6.21722357                4.97743246               20.95697530                0.00010000               -1.53144071                0.34876332               -0.20260381                0.96301592               10.42387016               -0.07621568
               7.20180049                4.90070055               20.95979082                0.00010000               -1.52816282                0.34257678               -0.22566667                0.84261066               10.21556265                0.63022587
               8.18666032                4.82680608               20.96212376                0.00010000               -1.46391163                0.25491822               -0.28228375                0.84637914               10.24724934                1.48837553
               9.17252226                4.75772212               20.96624523                0.24019622               -0.64549652                0.08975856               -0.36361789                0.38382764                5.29640340                2.36472370
              10.17375039                4.68192959               20.86998672                0.82738878                0.19676914                0.21975053               -0.72944541                0.00823191                0.17636352                0.83913226
              11.17645764                4.60630333               20.77153282                1.00000000                0.27072553                0.36124719               -1.11618645               -0.01874366                0.07264138               -0.46080502
               1.34537335                6.41026850               21.17356850                1.00000000               -0.13058920               -0.19686922                0.61052921               -0.02471463                0.06987468                0.95580221
               2.34406746                6.31787915               21.06645461                0.64318267               -0.08528531               -0.08727918                0.28246199               -0.00410859                0.22195715               -0.49444312
               3.34366765                6.22507762               20.96233332                0.08019630               -0.39979190                0.02297837               -0.03392956                0.27412103                3.75088564               -1.92084349
               4.33607162                6.13732502               20.92579937                0.00010000               -1.16493943                0.50364664               -0.56516637                0.58466478                9.77104486                0.15531876
               5.32036886                6.05937522               20.94132006                0.00010000               -1.66976778                0.50420377               -0.31313403                0.94444416               12.33987165               -0.09193721
               6.30267627                5.98180110               20.95769235                0.00010000               -1.81699008                0.53569171               -0.21217527                0.72100109               12.30036805                0.21250198
               7.28402906                5.90479726               20.97377057                0.00010000               -1.85885112                0.48502906               -0.17368886                0.51685447               12.27489634                0.74921545
               8.26549924                5.82968533               20.99074455                0.00010000               -1.80008408                0.31600216               -0.17223797                0.46338529               12.37822527                1.42744372
               9.24802738                5.75833977               21.00973544                0.25720940               -0.83303191                0.03648349               -0.19624683                0.18174344                6.30832745                2.16363681
              10.24883861                5.68393601               20.90588293                0.76504831                0.15835353                0.18088106               -0.60163174                0.00477427                0.10913887                0.78206495
              11.25119445                5.60979199               20.80070969                1.00000000                0.23558390                0.33457498               -1.01584824               -0.01618857                0.04988217               -0.52920677
               1.43697178                7.40853074               21.14585391                1.00000000               -0.08956785               -0.15133955                0.47480278               -0.02366735                0.03039813                0.86711424
               2.43607610                7.31723768               21.03130642                0.58362475               -0.04146093               -0.04158465                0.13485764               -0.00244602                0.15722823               -0.57126607
               3.43614256                7.22555018               20.91924927                0.06658163               -0.57069870                0.07030024               -0.20032513                0.46057473                5.47705596               -2.10939037
               4.42466213                7.14259504               20.91110069                0.00010000               -1.46502286                0.55050312               -0.55908419                0.82798270               12.23184789               -0.20870190
               5.40684210                7.06535457               20.93399655                0.00010000               -1.92202898                0.69768958               -0.33957068                0.86769561               13.87318853                0.04039849
               6.38622155                6.98814629               20.96016190                0.00010000               -2.12943772                0.75274086               -0.20077514                0.53764023               14.05782306                0.31587519
               7.36425335                6.91040113               20.98823195                0.00010000               -2.19180139                0.66028084               -0.11702343                0.19501811               14.20543310                0.74261156
               8.34238552                6.83312612               21.01864788                0.00010000               -2.11734493                0.39256442               -0.06640755                0.01003359               14.41476446                1.32148865
               9.32190645                6.75845179               21.05193821                0.27995691               -0.99959335               -0.01183539               -0.04055957               -0.07582733                7.30607652                2.04094371
              10.32239365                6.68554722               20.94091822                0.73500871                0.12577317                0.14020019               -0.47669338               -0.00056375                0.06359563                0.70480564
              11.32442192                6.61299483               20.82915949                1.00000000                0.20282616                0.30483498               -0.91759749               -0.01428261                0.03433101               -0.59116114
               1.52748613                8.40724171               21.11756573                1.00000000               -0.04870339               -0.10793344                0.34074451               -0.02276882                0.01199474                0.83820570
               2.52699910                8.31704745               20.99577804                0.57283696                0.00178224                0.00343952               -0.01015520               -0.00074190                0.06425958               -0.59338246
               3.52752178                8.22648363               20.87499194                0.05613014               -0.70861046                0.11606374               -0.36307229                0.64584135                6.98210935               -2.06801302
               4.51282689                8.14833508               20.89156450                0.00010000               -1.76751268                0.65515871               -0.50938902                1.07114776               14.72908770               -0.37336097
               5.49217152                8.07332901               20.92623132                0.00010000               -2.22221889                0.91928785               -0.32240233                0.82390011               15.64194159                0.01312242
               6.46838251                7.99685592               20.96259159                0.00010000               -2.46109676                0.97297633               -0.17674601                0.38096132               15.79309506                0.27900306
               7.44294959                7.91800288               21.00183520                0.00010000               -2.53666236                0.90221280               -0.06147254               -0.09391509               16.06155231                0.60481487
               8.41764926                7.83753662               21.04504603                0.00800503               -2.44299273                0.54958991                0.03081260               -0.53060996               16.43286953                1.08910933
               9.39408973                7.75810306               21.09297088                0.30759772               -1.16824873               -0.05121362                0.10393460               -0.41107090                8.33428223                1.85084968
              10.39428429                7.68674001               20.97516352                0.73796418                0.09619169                0.10003213               -0.35706827               -0.00965895                0.03446963                0.65070030
              11.39601357                7.61588869               20.85687035                1.00000000                0.17292782                0.27214772               -0.82339199               -0.01242467                0.01915505               -0.65195698
               1.61690492                9.40637207               21.08920234                1.00000000               -0.00855702               -0.06759829                0.20914238               -0.02217084               -0.00619582                0.71364186
               2.61681935                9.31730647               20.96015478                0.59547558                0.04334225                0.04783839               -0.15268740                0.00036173                0.07723528               -0.51495823
               3.61777176                9.22787146               20.83273450                0.02691801               -0.87898241                0.15936328               -0.51397364                0.88695255                8.54887162               -1.44145080
               4.59923970                9.15569822               20.87312519                0.00010000               -2.14862482                0.99582743               -0.46636597                1.00596576               17.10162676               -0.17209191
               5.57479927                9.08374033               20.91785133                0.00010000               -2.50363992                1.09068103               -0.30917410                0.60477658               17.30344023               -0.00099808
               6.54916690                9.00760582               20.96380081                0.00010000               -2.65524605                1.11556424               -0.15745618                0.21988690               17.45568374                0.16024091
               7.52169435                8.92844539               21.01312355                0.00010000               -2.87468795                1.09426208               -0.01665030               -0.21174567               17.82434111                0.34436641
               8.49167314                8.84411792               21.06806684                0.02575482               -2.86063522                0.96955956                0.11453629               -0.80329076               18.43411465                0.63329944
               9.46448164                8.75742751               21.13128215                0.33767080               -1.36291475               -0.06510299                0.23101620               -0.84746444                9.50736458                1.23722828
              10.46441485                8.68754786               21.00898830                0.77310867                0.06972163                0.06606052               -0.24576114               -0.02281521                0.10414391                0.53657379
              11.46587607                8.61843778               20.88389321                0.98083384                0.14612261                0.23786888               -0.73729599               -0.01224922               -0.02535099               -0.58444138
               1.70517392               10.40588975               21.05835367                1.00000000                0.03330239               -0.04823277                0.07772667                0.03834795                0.39054275                0.59273282
               2.70550695               10.31800422               20.92617142                0.83230102                0.08475785                0.06977521               -0.28985636                0.05781708                0.74454625               -0.43215733
               3.70686908               10.22967089               20.80103015                0.51428710               -1.42148063                0.17994328               -0.64541863                1.42210182               10.15624613               -0.91534121
               4.67707733               10.16825163               20.85709058                0.36445107               -2.72548120                1.25534094               -0.48169386                1.05735017               18.94145841               -0.01954732
               5.65235946               10.09514263               20.90917907                0.35590015               -2.45010724                1.14023001               -0.32813573                0.30179757               18.77165351                0.01612533
               6.62807519               10.01916720               20.96318890                0.37437874               -2.50784414                1.15613857               -0.15663814                0.12810333               18.98178470                0.10591800
               7.60220257                9.93988812               21.02084557                0.41781666               -2.77369325                1.14427335                0.00929708               -0.06114696               19.40796244                0.20763246
               8.57260132                9.85692781               21.08490419                0.52091264               -3.42460335                1.28098920                0.17133654               -1.06153811               20.17773068                0.37635468
               9.53371051                9.75680100               21.15984869                0.68538321               -1.98918043               -0.06265144                0.31339759               -1.52044309               10.89056027                0.76531147
              10.53281772                9.68806122               21.04076804                0.91414615                0.01391139                0.05133640               -0.14997933                0.03253989                0.75268145                0.44665017
              11.53398873                9.62064606               20.91274590                0.98692522                0.11710178                0.22082800               -0.65380201                0.06974996                0.31786498               -0.48208784
               0.84138844                0.46570634               22.33561223                1.00000000               -0.35111828               -0.38095159                1.32951119               -0.06676404               -0.78714030                0.82067835
               1.83787726                0.36068636               22.25978935                1.00000000               -0.29317143               -0.30290196                1.06848474               -0.05378533               -1.00228500                0.06074624
               2.83552501                0.25541451               22.17963504                1.00000000               -0.16147271               -0.22496314                0.79360206               -0.04220126               -0.95123237               -0.20993743
               3.83464780                0.15110867               22.10483646                0.62361842                0.30871303               -0.17718499                0.53169587                0.47252176               -0.00833303               -0.63499002
               4.84169927                0.05876255               22.04355675                0.71255643                0.45450130               -0.05702354                0.22977219               -0.07408716                0.46620653                0.16697898
               5.84373783               -0.02491454               21.97846171                0.79642199                0.14489429                0.02775885               -0.05621946               -0.00021117                0.09392279                0.09509018
               6.84459716               -0.10705616               21.90973356                0.77406457                0.07176865                0.10328910               -0.33823587                0.00898317               -0.09880241               -0.06151675
               7.84517320               -0.18963733               21.84071402                0.86901447                0.08659103                0.19297429               -0.63131023                0.02740651               -0.33697061                0.07468823
               8.84632898               -0.27471209               21.76703561                1.00000000                0.19374256                0.28626350               -0.92267210                0.01366727               -0.68653455                0.45621037
               9.84904805               -0.36159715               21.69088243                1.00000000                0.33104624                0.35573815               -1.20800959               -0.04233665               -0.74646687                0.00792075
              10.85294990               -0.44872864               21.61602158                1.00000000                0.39018498                0.43550069               -1.47856617               -0.05897447               -0.68627055               -0.69929545
               0.94574077                1.46189682               22.30588269                1.00000000               -0.32554579               -0.36163091                1.20618475               -0.02688554               -0.10573679                1.11472806
               1.94248532                1.35765734               22.22966509                1.00000000               -0.29244660               -0.28202819                0.94690406               -0.00965492               -0.07490147                0.08669303
               2.93989184                1.25316488               22.15402533                0.82708692               -0.23931573               -0.20302448                0.67711848                0.01971233                0.14886298               -0.58786632
               3.93769900                1.14933682               22.08224679                0.16992085               -0.54609192               -0.16821004                0.39684543                0.66842034                1.64884487               -1.05622438
               4.92897000                1.05819231               22.03652761                0.33475277               -0.55269653                0.07002512                0.16213657               -0.09238235                2.34569064                0.96432162
               5.92664507                0.97536305               21.97834472                0.43280222               -0.09608107                0.09052600               -0.10065089                0.16458096                1.50042032                0.38326414
               6.92704838                0.89397673               21.91564467                0.32363572                0.13150781                0.06257021               -0.36358596                0.20926018                1.39594699               -0.38285501
               7.92927523                0.81229242               21.85544743                0.47001231                0.26985901                0.19024303               -0.61877834                0.23396825                1.38673082                0.59631929
               8.93244556                0.72815055               21.79280970                1.00000000                0.31788678                0.27250292               -0.87556531                0.10332035                0.70831532                0.66296931
               9.93563296                0.64196023               21.71926483                1.00000000                0.35230422                0.34635491               -1.14427873                0.00154596                0.09479643                0.09137193
              10.93949165                0.55562637               21.64442061                1.00000000                0.38586841                0.42360787               -1.41405664               -0.01644076                0.02678164               -0.82941910
               1.04932969                2.45847372               22.28199490                1.00000000               -0.29135867               -0.32905755                1.09548538               -0.02031404                0.03906616                1.41829145
               2.04641610                2.35504580               22.20001484                1.00000000               -0.25449553               -0.24622037                0.82695835                0.00406531                0.17832247                0.06152283
               3.04423978                2.25135402               22.12078618                0.46874449               -0.17136617               -0.17108040                0.57463455                0.04106817                0.79570304               -1.31462726
               4.04298878                2.14774447               22.05116682                0.00010000               -1.52071907               -0.14912381                0.29606445                0.92305700                4.46627038               -1.95452176
               5.01382540                2.06016305               22.04542444                0.00010000               -1.58718733                0.16457422                0.09300452                1.75349137                4.93128522               -1.27563529
               6.01124503                1.97689598               21.98398466                0.00010000               -0.09862005               -0.06706269               -0.13856704                1.47600862                1.77064424               -0.43129115
               7.01185299                1.89419524               21.91514988                0.00010000                0.22168571               -0.15268382               -0.37196126                1.23778272                3.10954169                0.31189707
               8.01567874                1.81416753               21.88065485                0.00010000                0.34372886               -0.10927788               -0.61294486                0.84228811                3.61316380                0.83352120
               9.01872757                1.73073797               21.82280371                0.49044699                0.29622047                0.26546168               -0.81246193                0.17550624                1.65938075                1.31240200
              10.02160315                1.64532995               21.74939559                1.00000000                0.32806221                0.33279635               -1.07511033                0.02475012                0.59723184                0.58012624
              11.02528882                1.55974352               21.67029465                1.00000000                0.36856614                0.40559942               -1.36128212               -0.00949253                0.31150657               -0.83981072
               1.15219034                3.45531567               22.25831158                1.00000000               -0.25040152               -0.30447910                0.98374869               -0.01675540                0.05945573                1.37901413
               2.14968632                3.35273293               22.16934070                1.00000000               -0.20879019               -0.21510225                0.70521227                0.00394583                0.07083011               -0.03811917
               3.14801453                3.24974327               22.08054366                0.27572229               -0.11676034               -0.13207825                0.42886535                0.00699604                1.00979783               -1.57023689
               4.14735111                3.14635435               22.01033574                0.00010000               -0.65631061               -0.09321723                0.16345384                0.95185817                4.61540854               -2.57631125
               5.13488832                3.06148379               21.99361023                0.00010000               -1.26090312                0.05768731                0.01049937                2.52375068                6.82258265               -3.08415172
               6.12213305                2.97402180               21.96759987                0.00010000               -1.01779178               -0.06889817               -0.15207809                2.09433520                6.00910492               -1.18038591
               7.11453248                2.89092305               21.93468838                0.00010000               -0.62773968               -0.14563643               -0.32282986                1.76897372                5.56783440                0.83916821
               8.10957826                2.81010686               21.90015045                0.00010000               -0.48696046               -0.17895166               -0.50315680                1.34169574                5.27473278                1.02184632
               9.10479328                2.73345978               21.86159141                0.25059995               -0.12279187                0.22519886               -0.71371713                0.47617893                3.29092001                2.45765340
              10.10712242                2.64861616               21.78759978                1.00000000                0.28406911                0.30596273               -0.97610664                0.01480163                0.76664223                0.93848171
              11.11047466                2.56373835               21.69847800                1.00000000                0.33522368                0.39889095               -1.30069540               -0.01568482                0.01252462               -0.58788743
               1.25416005                4.45238414               22.23362532                1.00000000               -0.20926343               -0.27712671                0.86366955               -0.02128754                0.07678658                1.25341348
               2.25206742                4.35074375               22.13765271                0.92381803               -0.17008825               -0.17701030                0.57504573               -0.00029116                0.10201932               -0.15000204
               3.25075829                4.24871246               22.04212936                0.16737103               -0.08910001               -0.07727796                0.29641939               -0.01933564                1.13512039               -1.45643939
               4.25028542                4.14588013               21.96681009                0.00010000               -0.70626642                0.08357657               -0.01835729                0.75840815                5.91532619               -2.16447598
               5.23663296                4.06131679               21.96667443                0.00010000               -1.32964689                0.09117009               -0.10187643                1.46754716                9.24290541               -1.37784673
               6.22369248                3.97551802               21.95833680                0.00010000               -1.27427758                0.20427992               -0.17872264                1.33912183                8.55222756               -0.53812654
               7.21114741                3.89128251               21.94486552                0.00010000               -1.18582753                0.15428498               -0.27872426                1.18494608                8.15899003                0.48598280
               8.19997593                3.81058850               21.92903219                0.00010000               -1.07027770                0.13243823               -0.40471072                1.10723507                8.09483737                1.55107404
               9.18974185                3.73524195               21.91457905                0.23025691               -0.41776568                0.14255461               -0.56237260                0.47809824                4.40117231                2.89512472
              10.19162061                3.65144920               21.82497751                0.91229131                0.24944363                0.26247964               -0.88262363                0.00862572                0.34991716                0.90712677
              11.19473072                3.56772134               21.72929542                1.00000000                0.31101104                0.39129261               -1.22415783               -0.01740458                0.05067133               -0.44186054
               1.35504535                5.44977314               22.20741311                1.00000000               -0.16931751               -0.23923305                0.73423352               -0.02485156                0.11938546                1.09932742
               2.35335218                5.34919273               22.10470552                0.74890935               -0.12769543               -0.13145662                0.42730724               -0.00498735                0.22831822               -0.33597667
               3.35249145                5.24819771               22.00412197                0.11258312               -0.17186204               -0.02505914                0.13304763                0.06084828                1.88377027               -1.63916811
               4.34991494                5.14802588               21.93452052                0.00010000               -0.89450375                0.34198904               -0.31164533                0.53798372                7.66791620               -0.72742252
               5.33460137                5.06330720               21.94910896                0.00010000               -1.54825837                0.30856088               -0.22237286                1.14887030               11.39771560               -0.57967093
               6.31894977                4.97810740               21.95494393                0.00010000               -1.57202236                0.35121938               -0.20428122                0.91287445               10.75863023               -0.04652238
               7.30316092                4.89400875               21.95749366                0.00010000               -1.55931245                0.34262588               -0.23462922                0.78195128               10.52468155                0.69758518
               8.28776352                4.81275562               21.95922090                0.00010000               -1.48331917                0.25130599               -0.29935807                0.78031483               10.54230195                1.58582992
               9.27349454                4.73631087               21.96247231                0.23752252               -0.64739866                0.08199386               -0.39153080                0.34921842                5.45593467                2.49078137
              10.27481555                4.65386575               21.86256902                0.80990193                0.20438790                0.22321543               -0.75350496                0.00793726                0.18828903                0.89825827
              11.27758230                4.57156421               21.76026952                1.00000000                0.27667493                0.37267002               -1.13539232               -0.01918619                0.07434805               -0.46376549
               1.45482384                6.44759948               22.17961461                1.00000000               -0.12807406               -0.19400347                0.59879010               -0.02474085                0.06943138                0.95864829
               2.45354309                6.34811462               22.06925330                0.63720724               -0.08408661               -0.08483679                0.27707274               -0.00459140                0.22744839               -0.51701909
               3.45314210                6.24821127               21.96200074                0.08462777               -0.38037444                0.02521447               -0.03304393                0.24138379                3.65328605               -1.97288294
               4.44593561                6.15271991               21.92015861                0.00010000               -1.18066288                0.50349320               -0.55348904                0.53553643                9.95566285                0.13897963
               5.42952885                6.06748801               21.93819504                0.00010000               -1.73435959                0.51598803               -0.30964256                0.90325303               12.85238205               -0.07689510
               6.41124841                5.98254241               21.95555143                0.00010000               -1.86953212                0.54637436               -0.21583095                0.66362099               12.72217658                0.25639635
               7.39213820                5.89813503               21.97198046                0.00010000               -1.89841567                0.49123942               -0.18515938                0.44870056               12.66498033                0.81783536
               8.37328010                5.81561462               21.98892636                0.00010000               -1.82610543                0.31662041               -0.19266773                0.38836421               12.75549499                1.51979577
               9.35561609                5.73688183               22.00762540                0.25477629               -0.83770367                0.03403358               -0.22701730                0.14202751                6.50388851                2.27715033
              10.35652603                5.65591351               21.89973224                0.74927070                0.16669968                0.18549202               -0.62864192                0.00542606                0.11491157                0.83557872
              11.35895009                5.57517474               21.79044052                1.00000000                0.24240608                0.34655960               -1.03733984               -0.01612054                0.05183257               -0.52923983
               1.55352025                7.44589307               22.15054368                1.00000000               -0.08716947               -0.14807872                0.46307789               -0.02360666                0.02990684                0.87010229
               2.55264855                7.34749599               22.03263219                0.57922289               -0.04032073               -0.03953983                0.13001603               -0.00261965                0.15915282               -0.59070550
               3.55271383                7.24870200               21.91725600                0.06990509               -0.56498133                0.07146414               -0.19875138                0.43305264                5.46410491               -2.15832018
               4.54134893                7.15809574               21.90544594                0.00010000               -1.49349511                0.56549298               -0.56208490                0.76506168               12.50337744               -0.08679360
               5.52284393                7.07362696               21.93058339                0.00010000               -1.98868769                0.71655147               -0.33965621                0.81912442               14.40905459                0.10103427
               6.50157517                6.98903488               21.95812115                0.00010000               -2.18906061                0.77115007               -0.20684370                0.47351510               14.54107577                0.37023049
               7.47906272                6.90383354               21.98699438                0.00010000               -2.23955824                0.67365267               -0.13124548                0.11837104               14.66465103                0.80723901
               8.45678401                6.81908803               22.01787172                0.00010000               -2.15132592                0.39897162               -0.09022167               -0.07422298               14.86568626                1.40325177
               9.43603620                6.73699155               22.05136793                0.27783621               -1.00764242               -0.00964178               -0.07506049               -0.12118428                7.53716657                2.14111003
              10.43663116                6.65757559               21.93600725                0.71999250                0.13506174                0.14605508               -0.50629713               -0.00026233                0.06672474                0.75294630
              11.43873744                6.57849540               21.81986479                1.00000000                0.21062757                0.31620304               -0.94116370               -0.01366360                0.03552027               -0.59417546
               1.65114585                8.44463790               22.12091664                1.00000000               -0.04640825               -0.10451332                0.32920921               -0.02266566                0.01155890                0.84301523
               2.65068177                8.34732382               21.99565731                0.56980969                0.00287787                0.00501386               -0.01436095               -0.00071716                0.06289236               -0.60989866
               3.65120341                8.24964056               21.87137663                0.05805733               -0.71849423                0.11595811               -0.36046292                0.62873026                7.07851679               -2.10797535
               4.63631188                8.16402977               21.88643080                0.00010000               -1.81156075                0.67627817               -0.50962010                1.02109549               15.10436151               -0.23446944
               5.61497219                8.08181904               21.92297901                0.00010000               -2.28998743                0.94333654               -0.32514688                0.77963911               16.18187051                0.08641204
               6.59051213                7.99796541               21.96077816                0.00010000               -2.52598590                0.99833581               -0.18541163                0.32098072               16.31663233                0.32890315
               7.56445247                7.91160808               22.00113968                0.00010000               -2.59372502                0.92549726               -0.07832025               -0.16980443               16.58011756                0.65617334
               8.53863763                7.82359405               22.04522436                0.00906369               -2.48738117                0.56406667                0.00346442               -0.62084474               16.95194827                1.15556132
               9.51470485                7.73668899               22.09381874                0.30560168               -1.18103530               -0.04382928                0.06384592               -0.46213631                8.60146588                1.93602423
              10.51501693                7.65883461               21.97142867                0.72217005                0.10661745                0.10807780               -0.39089959               -0.01033318                0.03773608                0.69111970
              11.51683720                7.58149880               21.84850055                1.00000000                0.18202719                0.28289227               -0.85047482               -0.01130172                0.02004384               -0.66135150
               1.74769509                9.44380280               22.09123900                1.00000000               -0.00635350               -0.06414087                0.19781378               -0.02206192               -0.00705457                0.71974096
               2.74763156                9.34759627               21.95861263                0.59293221                0.04437021                0.04899808               -0.15621616                0.00042372                0.07683711               -0.52724217
               3.74858250                9.25102116               21.82761740                0.02687069               -0.90196024                0.15835319               -0.51000377                0.88265269                8.74990539               -1.46512575
               4.72959235                9.17162130               21.86845295                0.00010000               -2.20407113                1.02051911               -0.46430895                0.98035635               17.57560398               -0.07397921
               5.70450107                9.09249369               21.91472952                0.00010000               -2.56933023                1.11725839               -0.31345066                0.57893807               17.85177597                0.04434004
               6.67820575                9.00900160               21.96216940                0.00010000               -2.72315440                1.14592366               -0.16862194                0.18226577               18.01792219                0.18899200
               7.65003799                8.92234348               22.01286377                0.00010000               -2.94597708                1.12757159               -0.03595717               -0.26538179               18.39863498                0.37205938
               8.61928621                8.83036937               22.06907262                0.02790552               -2.92425341                1.00313105                0.08575558               -0.87654688               19.01762022                0.67405898
               9.59155292                8.73611496               22.13336864                0.33555138               -1.38357573               -0.05208976                0.18428006               -0.90325384                9.81242224                1.29199618
              10.59161469                8.65973715               22.00633721                0.75415077                0.08150576                0.07714123               -0.28555779               -0.02444063                0.11216886                0.56505258
              11.59318303                8.58415324               21.87635963                0.98160794                0.15683412                0.24855690               -0.76930753               -0.01100808               -0.02428553               -0.59961258
               1.84311767               10.44335508               22.05907765                1.00000000                0.03542066               -0.04477164                0.06658803                0.03712818                0.39416278                0.59911108
               2.84347188               10.34830379               21.92326057                0.83161088                0.08568770                0.07075151               -0.29288354                0.05665901                0.75438615               -0.44146707
               3.84483143               10.25280762               21.79460250                0.51388886               -1.45126971                0.17864565               -0.64075456                1.43171125               10.42853581               -0.92900980
               4.81444649               10.18444015               21.85227021                0.36488990               -2.78303837                1.28188447               -0.48140488                1.05324279               19.49840458                0.03638261
               5.78917066               10.10416421               21.90586332                0.35610078               -2.50694157                1.16705213               -0.33416408                0.28914517               19.35513063                0.03525917
               6.76430765               10.02088388               21.96155569                0.37419701               -2.56967938                1.18822822               -0.17023103                0.10995586               19.59185424                0.11602640
               7.73777707                9.93415951               22.02083241                0.41719674               -2.84862169                1.18160302               -0.01274440               -0.08745172               20.03383793                0.21720167
               8.70733522                9.84365667               22.08646812                0.52254139               -3.52525392                1.32873091                0.14096239               -1.12071453               20.80954816                0.39443913
               9.66727199                9.73564720               22.16272879                0.68467296               -2.04226942               -0.04677648                0.26044952               -1.59205434               11.23947861                0.79890868
              10.66648983                9.66037744               22.03904367                0.90337106                0.02564250                0.06402899               -0.19612506                0.02865098                0.78691907                0.46800777
              11.66778484                9.58646993               21.90601842                0.98688183                0.12950117                0.23166904               -0.69161512                0.06943087                0.33248006               -0.49880505
               0.91055949                0.50433720               23.34887280                1.00000000               -0.34947827               -0.37903647                1.32260505               -0.06639606               -0.80376433                0.83598215
               1.90706471                0.39205276               23.27044158                1.00000000               -0.29221375               -0.30074625                1.06197511               -0.05302865               -1.02576307                0.06588686
               2.90471522                0.27951593               23.18753760                1.00000000               -0.16169878               -0.22243894                0.78715995               -0.04168566               -0.97568798               -0.20985961
               3.90383073                0.16790574               23.11010541                0.62503064                0.30025216               -0.17486899                0.52332326                0.45573156               -0.04548051               -0.66004067
               4.91072026                0.06787661               23.04583503                0.71437474                0.44656117               -0.05636560                0.22620345               -0.07808582                0.41052888                0.17979671
               5.91276196               -0.02358877               22.97790979                0.79806486                0.14717459                0.02767102               -0.05453518               -0.00280277                0.04730286                0.10158788
               6.91366375               -0.11346901               22.90638407                0.77495983                0.07885924                0.10208853               -0.33240033                0.00809813               -0.14865233               -0.06440703
               7.91433914               -0.20365426               22.83445232                0.86974487                0.09530924                0.19078781               -0.62183487                0.02352551               -0.39086309                0.08077907
               8.91556994               -0.29610008               22.75787548                1.00000000                0.19728320                0.28213490               -0.91026213                0.01027385               -0.73597452                0.46795630
               9.91828481               -0.39022172               22.67888350                1.00000000                0.32879761                0.35197667               -1.19274967               -0.04136239               -0.78484793                0.00730637
              10.92214589               -0.48458576               22.60132918                1.00000000                0.38610833                0.43189676               -1.46107404               -0.05654310               -0.71666317               -0.72743458
               1.02217997                1.50054684               23.31790990                1.00000000               -0.32349124               -0.35996729                1.19931616               -0.02614195               -0.10903397                1.13605200
               2.01894506                1.38904530               23.23909951                1.00000000               -0.29040493               -0.27980800                0.94014893               -0.00893189               -0.08334554                0.09294241
               3.01637187                1.27729154               23.16076107                0.83726001               -0.23686760               -0.20011422                0.67126815                0.01822876                0.13098991               -0.58255846
               4.01420771                1.16615705               23.08619580                0.17798148               -0.53426095               -0.16374421                0.39506210                0.64461412                1.64641051               -1.07040954
               5.00568666                1.06731296               23.03810312                0.34287890               -0.54004831                0.06819041                0.15492985               -0.10164940                2.35835845                0.97630137
               6.00340674                0.97668794               22.97731871                0.44187927               -0.09545881                0.08944731               -0.10379991                0.15054178                1.50244815                0.39286485
               7.00377748                0.88755187               22.91201020                0.33303904                0.12415942                0.06850416               -0.36316056                0.19826806                1.40206617               -0.37687430
               8.00588993                0.79825362               22.84927542                0.47701309                0.25894639                0.18869484               -0.61581251                0.21470939                1.39716193                0.59899986
               9.00895641                0.70672127               22.78408354                1.00000000                0.31120460                0.26983266               -0.87005802                0.09538045                0.71303870                0.68277615
              10.01211402                0.61329805               22.70786296                1.00000000                0.34940448                0.34337035               -1.13667906                0.00198732                0.09338681                0.09389687
              11.01594450                0.51973321               22.63033321                1.00000000                0.38304737                0.42204125               -1.40417669               -0.01434886                0.02533412               -0.86279238
               1.13303973                2.49713786               23.29291040                1.00000000               -0.28983600               -0.32792653                1.08795094               -0.01898768                0.03966480                1.44524205
               2.13014137                2.38645660               23.20825804                1.00000000               -0.25358419               -0.24400997                0.82127862                0.00570302                0.18558097                0.06741584
               3.12796805                2.27551364               23.12648720                0.47960454               -0.17198851               -0.16781174                0.56629672                0.04119880                0.79675749               -1.32390349
               4.12670160                2.16463085               23.05404245                0.00010000               -1.49058345               -0.14767960                0.28418842                0.89718948                4.49736283               -1.97354422
               5.09815638                2.06924042               23.04629290                0.00010000               -1.55838619                0.15551729                0.08293532                1.68968078                5.00323857               -1.27348610
               6.09553388                1.97820018               22.98255822                0.00010000               -0.10464709               -0.06970780               -0.14546167                1.42180176                1.82959378               -0.40506357
               7.09606344                1.88790107               22.91141154                0.00010000                0.19650280               -0.14870382               -0.37600810                1.18134894                3.16355785                0.35518243
               8.09946393                1.80011964               22.87450682                0.00010000                0.31848416               -0.10705039               -0.61620434                0.79827265                3.68839100                0.88560120
               9.10243312                1.70929658               22.81466759                0.49528652                0.29243409                0.26258528               -0.81482676                0.15871407                1.72428707                1.35794207
              10.10531261                1.61664569               22.73864528                1.00000000                0.32777333                0.32968306               -1.07508295                0.02092198                0.61922117                0.60024764
              11.10898859                1.52385507               22.65669703                1.00000000                0.36759716                0.40809873               -1.35842717               -0.00879298                0.32203794               -0.87508113
               1.24316273                3.49398831               23.26810382                1.00000000               -0.24793957               -0.30368373                0.97511404               -0.01544721                0.06313331                1.40135181
               2.24068333                3.38416510               23.17636445                1.00000000               -0.20705640               -0.21319279                0.69947043                0.00586320                0.07581578               -0.03793233
               3.23902160                3.27393530               23.08482863                0.28454303               -0.11293053               -0.12944784                0.42720429                0.00394078                1.02079821               -1.59377012
               4.23842472                3.16320345               23.01196870                0.00010000               -0.65553276               -0.09960546                0.15958741                0.92267088                4.68694701               -2.62884559
               5.22591094                3.07042330               22.99366634                0.00010000               -1.26212979                0.04852728                0.00361638                2.43710952                6.95086873               -3.09806031
               6.21318213                2.97529379               22.96605857                0.00010000               -1.02129742               -0.07404655               -0.15728591                2.01600431                6.14174373               -1.14514858
               7.20548500                2.88457780               22.93142957                0.00010000               -0.63611237               -0.15204808               -0.32936044                1.68951342                5.69920330                0.91167294
               8.20045988                2.79611261               22.89507543                0.00010000               -0.49401789               -0.17908161               -0.51218128                1.28538471                5.39358419                1.12209211
               9.19560464                2.71197298               22.85440225                0.24945364               -0.12429544                0.21348068               -0.72393911                0.44492176                3.37792586                2.54617476
              10.19797397                2.61989171               22.77779469                1.00000000                0.28726184                0.30343019               -0.98452577                0.00733750                0.79820405                0.97008017
              11.20134988                2.52789519               22.68544570                1.00000000                0.33759057                0.40416193               -1.30535497               -0.01436125                0.01344719               -0.61188211
               1.35237720                4.49106418               23.24221029                1.00000000               -0.20655639               -0.27614623                0.85373479               -0.02076728                0.08409178                1.26682315
               2.35031164                4.38219275               23.14337589                0.91418507               -0.16843462               -0.17509810                0.56944614                0.00010355                0.11430849               -0.16277881
               3.34900851                4.27292469               23.04509214                0.17314544               -0.08223081               -0.07497118                0.29543881               -0.03045937                1.13844654               -1.49046182
               4.34866702                4.16263874               22.96672669                0.00010000               -0.71001357                0.07108397               -0.00432184                0.72496606                6.00986884               -2.29042392
               5.33480824                4.07021097               22.96566037                0.00010000               -1.34837765                0.08665825               -0.09977514                1.40648818                9.45863320               -1.40804055
               6.32169947                3.97671925               22.95653892                0.00010000               -1.28866793                0.19967927               -0.18194835                1.27392471                8.77523890               -0.50997914
               7.30903488                3.88486011               22.94203917                0.00010000               -1.19615106                0.14797591               -0.28728264                1.11754617                8.36966321                0.55589697
               8.29777645                3.79653801               22.92491685                0.00010000               -1.07412102                0.12579443               -0.41892630                1.03869558                8.28876246                1.64838140
               9.28755246                3.71356619               22.90884528                0.22758442               -0.41196449                0.12592063               -0.58416520                0.44322398                4.51277654                3.01766859
              10.28953716                3.62271429               22.81605745                0.89262477                0.25709747                0.26241625               -0.90077577                0.00585500                0.37388475                0.95414163
              11.29269441                3.53193831               22.71698893                1.00000000                0.31572507                0.39938650               -1.23635790               -0.01791257                0.06449958               -0.45203839
               1.46049025                5.48846538               23.21469957                1.00000000               -0.16653567               -0.23766416                0.72329241               -0.02485411                0.12131065                1.10484717
               2.45882490                5.38066314               23.10895006                0.74096533               -0.12619191               -0.12903248                0.42144611               -0.00554183                0.23677930               -0.35883761
               3.45796642                5.27243588               23.00545390                0.11733689               -0.15935664               -0.02193785                0.13289476                0.03907697                1.82940526               -1.68986735
               4.45563776                5.16462513               22.93155080                0.00010000               -0.90031057                0.32702208               -0.28366330                0.50220707                7.79674459               -0.88518824
               5.43996020                5.07215647               22.94691155                0.00010000               -1.58131440                0.30759565               -0.21528401                1.09388401               11.76002595               -0.60036714
               6.42401148                4.97928737               22.95288967                0.00010000               -1.59715225                0.35162837               -0.20688459                0.85078819               11.07934450               -0.01267237
               7.40801716                4.88753732               22.95509823                0.00010000               -1.57418830                0.33965687               -0.24526714                0.71299951               10.81978632                0.76772411
               8.39252771                4.79862850               22.95613660                0.00010000               -1.48621634                0.24462102               -0.31828665                0.70709166               10.82232271                1.68486886
               9.37829283                4.71449139               22.95841462                0.23463321               -0.64043790                0.07104771               -0.42031444                0.31291715                5.60713249                2.61822468
              10.37971895                4.62514003               22.85491662                0.79233135                0.21253803                0.22475281               -0.77637613                0.00880446                0.19972622                0.96055430
              11.38254359                4.53588292               22.74882498                1.00000000                0.28246411                0.38368083               -1.15252586               -0.01970540                0.07579462               -0.46244355
               1.56748461                6.48631090               23.18554430                1.00000000               -0.12543063               -0.19173108                0.58720706               -0.02474778                0.06878472                0.96068720
               2.56623030                6.37961210               23.07199607                0.63112926               -0.08282779               -0.08217921                0.27129776               -0.00515141                0.23272035               -0.53922594
               3.56582805                6.27248593               22.96167244                0.08844149               -0.36198627                0.02860037               -0.03296625                0.21057882                3.56291908               -2.02398577
               4.55899057                6.16917918               22.91472959                0.00010000               -1.19021862                0.49809267               -0.52600228                0.48207349               10.13467902                0.11599847
               5.54202368                6.07636288               22.93512720                0.00010000               -1.78280964                0.52174108               -0.30143919                0.84802098               13.34535315               -0.05789498
               6.52333438                5.98375181               22.95337573                0.00010000               -1.90349704                0.55184043               -0.21901726                0.59554830               13.12789520                0.30318010
               7.50395374                5.89165325               22.97006738                0.00010000               -1.91850893                0.49246891               -0.19818871                0.37286276               13.03926705                0.88853128
               8.48496420                5.80143043               22.98689119                0.00010000               -1.83272354                0.31323303               -0.21540730                0.30659406               13.11657807                1.61373347
               9.46729927                5.71498714               23.00519509                0.25217461               -0.83212420                0.02946265               -0.25978426                0.10001690                6.69052088                2.39264605
              10.46832172                5.62720935               22.89331009                0.73336047                0.17576337                0.18848376               -0.65555650                0.00685626                0.11983555                0.89272406
              11.47081453                5.53961192               22.77996290                1.00000000                0.24928147                0.35841857               -1.05735389               -0.01605967                0.05361923               -0.52404885
               1.67339290                7.48463076               23.15511546                1.00000000               -0.08460661               -0.14521023                0.45120084               -0.02355302                0.02932790                0.87261712
               2.67254684                7.37901955               23.03390674                0.57475263               -0.03909992               -0.03715272                0.12460691               -0.00281100                0.16078289               -0.60956954
               3.67261090                7.27300789               22.91527424                0.07262445               -0.55722755                0.07383972               -0.19805541                0.40290048                5.45034205               -2.20585149
               4.66140229                7.17458699               22.89985899                0.00010000               -1.51314550                0.57297508               -0.54552244                0.69522818               12.76500614                0.03289736
               5.64234799                7.08259129               22.92720342                0.00010000               -2.03851057                0.72741217               -0.33297922                0.75875459               14.92956423                0.16307863
               6.62063207                6.99032418               22.95602503                0.00010000               -2.22760964                0.78169551               -0.21179245                0.40077567               15.00712566                0.42630473
               7.59779580                6.89738669               22.98560704                0.00010000               -2.26531896                0.68018564               -0.14689360                0.03604920               15.10661859                0.87351946
               8.57532569                6.80489316               23.01684345                0.00010000               -2.16407760                0.40082563               -0.11662416               -0.16305441               15.29901734                1.48619760
               9.55451425                6.71508064               23.05043700                0.27564224               -1.00471987               -0.00821548               -0.11229148               -0.16839916                7.75874104                2.24152917
              10.55523130                6.62890971               22.93079228                0.70480236                0.14514996                0.15115505               -0.53700472                0.00030639                0.06909163                0.80368577
              11.55741725                6.54305129               22.81033622                1.00000000                0.21859511                0.32774441               -0.96402320               -0.01303473                0.03655689               -0.59304754
               1.77823596                8.48340669               23.12414992                1.00000000               -0.04390081               -0.10124394                0.31722814               -0.02258129                0.01108853                0.84748578
               2.77779695                8.37886904               22.99549082                0.56679022                0.00413333                0.00694070               -0.01930768               -0.00065535                0.06124745               -0.62577524
               3.77831863                8.27396273               22.86778269                0.05947990               -0.72426071                0.11675958               -0.35880400                0.60441454                7.17372886               -2.14619485
               4.76331174                8.18063869               22.88137210                0.00010000               -1.84285248                0.68961201               -0.49369003                0.95928844               15.46780538               -0.09259740
               5.74146158                8.09091112               22.91972838                0.00010000               -2.33786237                0.95757696               -0.32192200                0.72586882               16.70426680                0.15994441
               6.71655449                7.99938572               22.95888336                0.00010000               -2.56779187                1.01419727               -0.19298713                0.25524297               16.82259170                0.37953133
               7.69010574                7.90525696               23.00026879                0.00010000               -2.62726627                0.94035775               -0.09641986               -0.24853794               17.08024092                0.70889826
               8.66400917                7.80944694               23.04511531                0.01030302               -2.50955020                0.57310866               -0.02645379               -0.71195723               17.45100246                1.22418074
               9.63991474                7.71482283               23.09424780                0.30363978               -1.18259809               -0.03616279                0.02045876               -0.51316180                8.85781523                2.01964165
              10.64035720                7.63023245               22.96734553                0.70619339                0.11779736                0.11621017               -0.42647235               -0.01100392                0.04057761                0.73217797
              11.64227068                7.54616681               22.83986086                1.00000000                0.19134795                0.29381865               -0.87720755               -0.01015019                0.02088462               -0.66828820
               1.88201658                9.48260588               23.09315861                1.00000000               -0.00388826               -0.06060111                0.18575576               -0.02198279               -0.00789116                0.72551884
               2.88197770                9.37915837               22.95703045                0.59054599                0.04564854                0.05049724               -0.16068229                0.00050349                0.07630675               -0.53894789
               3.88292955                9.27534308               22.82253442                0.02652600               -0.91690205                0.15788849               -0.50707471                0.86661979                8.94813782               -1.48720128
               4.86363966                9.18837923               22.86383901                0.00010000               -2.24056095                1.03530381               -0.45421493                0.94363084               18.03717603                0.02347648
               5.83811833                9.10174283               22.91158231                0.00010000               -2.61242804                1.13345497               -0.31413348                0.54719537               18.38239178                0.08957673
               6.81139110                9.01060813               22.96042837                0.00010000               -2.76772526                1.16647179               -0.17931800                0.14198557               18.56248586                0.21792036
               7.78276383                8.91619385               23.01240440                0.00010000               -2.99352101                1.15189604               -0.05637487               -0.31958152               18.95483178                0.40061940
               8.75152068                8.81635533               23.06978196                0.03041811               -2.96491617                1.02893295                0.05572311               -0.94748619               19.57784633                0.71775895
               9.72346550                8.71435739               23.13496775                0.33363815               -1.39267172               -0.03819811                0.13366467               -0.95558140               10.10312320                1.34474031
              10.72366724                8.63123391               23.00327714                0.73512534                0.09400077                0.08880017               -0.32749893               -0.02602312                0.11987465                0.59292211
              11.72534552                8.54892766               22.86850706                0.98220061                0.16782775                0.25927808               -0.80111039               -0.00971807               -0.02295009               -0.61359511
               1.98469133               10.48219467               23.05968543                1.00000000                0.03784903               -0.04112102                0.05452873                0.03590681                0.39763235                0.60516130
               2.98506982               10.37987899               22.92031375                0.83103443                0.08694149                0.07206192               -0.29703997                0.05550377                0.76385041               -0.45027938
               3.98643016               10.27712049               22.78821506                0.51339398               -1.46426083                0.17774150               -0.63726199                1.42334997               10.69496833               -0.94139031
               4.95578461               10.20134476               22.84746248                0.36530329               -2.81267881                1.29655347               -0.47906622                1.03748139               20.04185773                0.08998819
               5.93017659               10.11358022               22.90249578                0.35629988               -2.54207128                1.18373942               -0.33838257                0.27434537               19.92185595                0.05417086
               6.90494318               10.02271516               22.95978428                0.37401002               -2.61048433                1.21070347               -0.18421631                0.09094151               20.18383290                0.12612591
               7.87796690                9.92829488               23.02059068                0.41655293               -2.90236394                1.21010323               -0.03620535               -0.11417074               20.64196143                0.22722101
               8.84689590                9.83002560               23.08772344                0.52441496               -3.60211852                1.36702640                0.11029477               -1.17427774               21.41554578                0.41496496
               9.80592453                9.71405887               23.16505768                0.68411795               -2.08147169               -0.02985154                0.20316626               -1.65495467               11.57035593                0.83063777
              10.80526647                9.63200845               23.03684554                0.89259603                0.03821482                0.07745400               -0.24478005                0.02459781                0.82017489                0.48852629
              11.80668883                9.55135237               22.89891360                0.98681306                0.14223575                0.24247133               -0.72935079                0.06872284                0.34711324               -0.51478199
               0.98217558                0.54435178               24.36206433                1.00000000               -0.34783932               -0.37715192                1.31577887               -0.06582410               -0.81988553                0.85088901
               1.97869719                0.42468825               24.28102885                1.00000000               -0.29140775               -0.29885143                1.05581050               -0.05206548               -1.04916871                0.07073665
               2.97634743                0.30477038               24.19537824                1.00000000               -0.16282133               -0.22062705                0.78187156               -0.04126598               -1.00158591               -0.21010882
               3.97544076                0.18572708               24.11530292                0.62599479                0.28790211               -0.17354869                0.51807719                0.43703700               -0.08302288               -0.68295227
               4.98210547                0.07782231               24.04808082                0.71532906                0.43470448               -0.05618451                0.22383791               -0.08050481                0.36056208                0.19077351
               5.98413485               -0.02170061               23.97737101                0.79872274                0.14880575                0.02725254               -0.05322830               -0.00573343                0.00522006                0.10811765
               6.98508158               -0.11959656               23.90308555                0.77524759                0.08648398                0.10083295               -0.32795756                0.00677333               -0.19543702               -0.06684142
               7.98586453               -0.21766796               23.82827732                0.86996552                0.10483588                0.18858659               -0.61411782                0.01943411               -0.44255674                0.08665546
               8.98717830               -0.31776907               23.74883037                1.00000000                0.20164317                0.27830358               -0.89982648                0.00695046               -0.78362084                0.47985214
               9.98989739               -0.41940994               23.66702743                1.00000000                0.32734929                0.34863342               -1.17956195               -0.04045305               -0.82178352                0.00690315
              10.99372529               -0.52128540               23.58680010                1.00000000                0.38278926                0.42880659               -1.44597214               -0.05429079               -0.74592220               -0.75431103
               1.10118087                1.54058026               24.32986902                1.00000000               -0.32136410               -0.35835711                1.19247578               -0.02544685               -0.11221794                1.15671404
               2.09796723                1.42169973               24.24846807                1.00000000               -0.28827608               -0.27795398                0.93388322               -0.00812097               -0.09095144                0.09921841
               3.09541535                1.30256411               24.16745069                0.84596754               -0.23410329               -0.19809971                0.66676114                0.01674748                0.11601715               -0.57887840
               4.09328517                1.18399159               24.09014803                0.18518831               -0.52005425               -0.16131992                0.39430644                0.61929630                1.64438760               -1.08862799
               5.08501427                1.07726047               24.03962620                0.34983032               -0.52491057                0.06538928                0.15042681               -0.10753789                2.36881758                0.98634999
               6.08278695                0.97857191               23.97626873                0.44963233               -0.09406387                0.08777292               -0.10586126                0.13673577                1.50631528                0.40310290
               7.08313299                0.88141177               23.90838146                0.34161216                0.11790870                0.07380411               -0.36260712                0.18699830                1.40951262               -0.37040885
               8.08514513                0.78421791               23.84313118                0.48328897                0.24929046                0.18737570               -0.61336906                0.19640902                1.40818300                0.60185156
               9.08811880                0.68501396               23.77540854                1.00000000                0.30529480                0.26735884               -0.86540536                0.08775196                0.71798483                0.70224649
              10.09125102                0.58407639               23.69653125                1.00000000                0.34695172                0.34065571               -1.13025731                0.00247265                0.09208487                0.09674205
              11.09505783                0.48300267               23.61633707                1.00000000                0.38068078                0.42073994               -1.39575771               -0.01233270                0.02408868               -0.89452253
               1.21942770                2.53718464               24.30375391                1.00000000               -0.28767825               -0.32687262                1.08061444               -0.01800409                0.04094700                1.47066731
               2.21655092                2.41912917               24.21644041                1.00000000               -0.25185907               -0.24216504                0.81520963                0.00671709                0.19251861                0.07343687
               3.21439052                2.30080839               24.13211212                0.49085821               -0.17102929               -0.16505914                0.55971438                0.03912035                0.79647969               -1.33151086
               4.21313033                2.18250068               24.05685059                0.00010000               -1.45080640               -0.14491981                0.27834762                0.86444442                4.52537326               -1.99343710
               5.18537439                2.07913010               24.04708315                0.00010000               -1.52060318                0.14473277                0.07552264                1.61778637                5.07716622               -1.26630848
               6.18271827                1.98005485               23.98107543                0.00010000               -0.10994183               -0.07168906               -0.15058235                1.35835856                1.89022418               -0.37586565
               7.18317555                1.88187952               23.90762971                0.00010000                0.17361254               -0.14414437               -0.37984496                1.11957093                3.21857869                0.39968947
               8.18619052                1.78607956               23.86833077                0.00010000                0.29496516               -0.10396177               -0.61912031                0.75153566                3.76239271                0.93789455
               9.18907486                1.68757810               23.80650718                0.49937746                0.28838104                0.25958145               -0.81730453                0.14186726                1.78780804                1.40257211
              10.19195814                1.58740317               23.72789393                1.00000000                0.32756101                0.32645991               -1.07521937                0.01716607                0.64093648                0.62028640
              11.19562608                1.48712940               23.64312610                1.00000000                0.36679378                0.41030716               -1.35580667               -0.00818965                0.33243945               -0.90861347
               1.33693173                3.53404281               24.27781387                1.00000000               -0.24539083               -0.30298952                0.96684792               -0.01448819                0.06748321                1.42137103
               2.33447782                3.41685643               24.18333011                1.00000000               -0.20527422               -0.21132977                0.69359887                0.00704737                0.08217843               -0.03779800
               3.33282625                3.29926293               24.08908775                0.29391118               -0.11127395               -0.12652196                0.42448700                0.00113345                1.02932310               -1.61360105
               4.33225234                3.18109320               24.01352749                0.00010000               -0.65052090               -0.10055615                0.15379634                0.88382142                4.75140294               -2.66639624
               5.31981583                3.08015513               23.99368256                0.00010000               -1.25238194                0.03903395               -0.00023552                2.33319673                7.07912630               -3.10539473
               6.30720470                2.97713813               23.96445416                0.00010000               -1.01580661               -0.07837553               -0.16314582                1.92369709                6.27104065               -1.10402570
               7.29949970                2.87852888               23.92810118                0.00010000               -0.63637220               -0.15738698               -0.33666211                1.59938631                5.82577612                0.98677371
               8.29447726                2.78213867               23.88990683                0.00010000               -0.49335843               -0.17923001               -0.52164451                1.22156313                5.50742046                1.22254088
               9.28963253                2.69020559               23.84711262                0.24791234               -0.12171074                0.20024234               -0.73361522                0.41244227                3.46184655                2.63171248
              10.29204305                2.59060559               23.76790926                1.00000000                0.29045249                0.30034681               -0.99200338               -0.00001294                0.82870897                1.00021311
              11.29544158                2.49120881               23.67237090                1.00000000                0.33985316                0.40859462               -1.30903991               -0.01309349                0.01410373               -0.63455776
               1.45351069                4.53112485               24.25070001                1.00000000               -0.20389449               -0.27533707                0.84425449               -0.02028438                0.09180789                1.27788229
               2.45147174                4.41490257               24.14904163                0.90501483               -0.16671317               -0.17303156                0.56354694                0.00043568                0.12724770               -0.17570478
               3.45017642                4.29827795               24.04803814                0.17879447               -0.07785890               -0.07214332                0.29343993               -0.03802249                1.14520885               -1.52249483
               4.44991456                4.18048956               23.96672365                0.00010000               -0.70915176                0.06130065                0.00245223                0.68863349                6.09904072               -2.39510067
               5.43599339                4.07991078               23.96467893                0.00010000               -1.35480559                0.08389451               -0.09719670                1.33224806                9.66499711               -1.43190761
               6.42281845                3.97848733               23.95469783                0.00010000               -1.29153257                0.19395025               -0.18631339                1.19831361                8.98771038               -0.47571855
               7.41016274                3.87873178               23.93911987                0.00010000               -1.19366907                0.14030694               -0.29713473                1.04088246                8.57039414                0.62848587
               8.39894507                3.78249496               23.92065366                0.00010000               -1.06529765                0.11699933               -0.43405123                0.96337497                8.47163618                1.74604583
               9.38885678                3.69158295               23.90289574                0.22461762               -0.39952069                0.10599825               -0.60533201                0.40698981                4.61795955                3.13685952
              10.39095466                3.59341011               23.80696200                0.87287400                0.26504882                0.26093019               -0.91751591                0.00375074                0.39778319                1.00119602
              11.39415776                3.49530129               23.70456826                1.00000000                0.32031033                0.40662772               -1.24686880               -0.01888649                0.07922565               -0.45989738
               1.56897059                5.52853607               24.22187896                1.00000000               -0.16371592               -0.23637619                0.71264294               -0.02476073                0.12317256                1.10854329
               2.56733343                5.41339580               24.11313444                0.73316719               -0.12458902               -0.12645772                0.41519310               -0.00591887                0.24551643               -0.38162068
               3.56647881                5.29782006               24.00677986                0.12156470               -0.14706248               -0.01833675                0.13174370                0.02069724                1.78653229               -1.73852477
               4.56439218                5.18231921               23.92884725                0.00010000               -0.90079001                0.31210613               -0.25747968                0.46364030                7.92407525               -1.02898203
               5.54846301                5.08183302               23.94480328                0.00010000               -1.60211050                0.30637289               -0.20613773                1.02471530               12.10235475               -0.61573985
               6.53234997                4.98101714               23.95080624                0.00010000               -1.60766442                0.34916589               -0.20985950                0.77748460               11.38433524                0.02567154
               7.51630972                4.88133502               23.95258832                0.00010000               -1.57281908                0.33325351               -0.25733733                0.63534333               11.10066297                0.84013947
               8.50089359                4.78447866               23.95285516                0.00010000               -1.47262759                0.23437425               -0.33858496                0.62647099               11.08746945                1.78449340
               9.48685717                4.69232556               23.95406602                0.23146941               -0.62469385                0.05647091               -0.44947633                0.27481815                5.75072636                2.74540558
              10.48839972                4.59582419               23.84704149                0.77466339                0.22121508                0.22411134               -0.79790180                0.01080421                0.21124504                1.02518383
              11.49128147                4.49934137               23.73721900                1.00000000                0.28817582                0.39406121               -1.16757632               -0.02032746                0.07698283               -0.45691128
               1.68329600                6.52639732               24.19135875                1.00000000               -0.12266359               -0.18981363                0.57567020               -0.02470728                0.06801563                0.96156334
               2.68206937                6.41237342               24.07467925                0.62495769               -0.08145212               -0.07929778                0.26510961               -0.00570542                0.23791670               -0.56101262
               3.68166696                6.29791122               23.96134141                0.09159915               -0.34474747                0.03273289               -0.03362581                0.18239356                3.48676202               -2.07346875
               4.67517442                6.18673168               23.90963857                0.00010000               -1.19385974                0.48959864               -0.48862007                0.42273543               10.31268841                0.09514823
               5.65778977                6.08603824               23.93216626                0.00010000               -1.81541397                0.52271705               -0.28884920                0.77725702               13.81366730               -0.03525549
               6.63886614                5.98547065               23.95117109                0.00010000               -1.91908432                0.55181082               -0.22169388                0.51613568               13.51478313                0.35290742
               7.61940808                5.88539685               23.96801669                0.00010000               -1.91910920                0.48837486               -0.21257412                0.28893683               13.39633596                0.96101020
               8.60048396                5.78718244               23.98461821                0.00010000               -1.82002340                0.30546032               -0.24001446                0.21781590               13.46072780                1.70847091
               9.58300761                5.69271237               24.00242972                0.24935002               -0.81645128                0.02219310               -0.29372134                0.05574593                6.86823461                2.50876009
              10.58415493                5.59789233               23.88662111                0.71729230                0.18546259                0.18948396               -0.68178983                0.00921054                0.12431185                0.95213147
              11.58671686                5.50318252               23.76929344                1.00000000                0.25619345                0.36975606               -1.07555376               -0.01602070                0.05525401               -0.51413056
               1.79652426                7.52473980               24.15956770                1.00000000               -0.08188243               -0.14264286                0.43913799               -0.02350454                0.02865900                0.87441123
               2.79570543                7.41180985               24.03512432                0.57016959               -0.03779179               -0.03444081                0.11863105               -0.00302467                0.16215930               -0.62787865
               3.79576842                7.29847472               23.91329489                0.07467278               -0.54927816                0.07726323               -0.19814536                0.37155419                5.44627469               -2.25173637
               4.78471987                7.19211118               23.89453549                0.00010000               -1.52496213                0.57330609               -0.51083744                0.61802570               13.02203658                0.15136981
               5.76526918                7.09228736               23.92392381                0.00010000               -2.07028991                0.73004008               -0.32017009                0.68493363               15.42675457                0.22643085
               6.74331407                6.99205335               23.95388530                0.00010000               -2.24462540                0.78410201               -0.21570605                0.31862870               15.45241678                0.48398206
               7.72037667                6.89110252               23.98405651                0.00010000               -2.26898389                0.67959143               -0.16381350               -0.05241162               15.52928708                0.94139373
               8.69793439                6.79058787               24.01553923                0.00010000               -2.15572374                0.39783608               -0.14518960               -0.25691901               15.71326578                1.56997794
               9.67726220                6.69276942               24.04912210                0.27330581               -0.99103099               -0.00806477               -0.15149607               -0.21753318                7.97001083                2.34114667
              10.67811377                6.59961387               23.92526715                0.68940356                0.15592470                0.15504843               -0.56805258                0.00137824                0.07069634                0.85591252
              11.68038069                6.50673649               23.80058432                1.00000000                0.22669159                0.33898340               -0.98568254               -0.01237014                0.03743692               -0.58813199
               1.90868581                8.52354447               24.12726120                1.00000000               -0.04118632               -0.09810670                0.30481021               -0.02252000                0.01059219                0.85139475
               2.90827395                8.41168460               23.99527116                0.56371111                0.00554495                0.00922681               -0.02499075               -0.00057682                0.05937964               -0.64104402
               3.90879671                8.29945648               23.86420055                0.06028783               -0.72758248                0.11850193               -0.35801547                0.57407374                7.27685300               -2.18243030
               4.89372230                8.19819780               23.87655700                0.00010000               -1.86252209                0.69446335               -0.46133981                0.88753343               15.82381451                0.04670418
               5.87154627                8.10063904               23.91654057                0.00010000               -2.36493730                0.96152301               -0.31303318                0.66226291               17.20217697                0.23239402
               6.84642355                8.00115269               23.95691841                0.00010000               -2.58604668                1.02028663               -0.19959672                0.18344717               17.30770478                0.43073879
               7.81982534                7.89898868               23.99921128                0.00010000               -2.63724387                0.94657325               -0.11553482               -0.33045824               17.55975276                0.76327380
               8.79367868                7.79513916               24.04469528                0.01170577               -2.50971967                0.57642759               -0.05846598               -0.80461084               17.92786997                1.29573977
               9.76963094                7.69255107               24.09422792                0.30168021               -1.17316256               -0.02847623               -0.02563027               -0.56439313                9.10178423                2.10083611
              10.77021542                7.60099330               23.96289922                0.69002573                0.12966446                0.12408526               -0.46331615               -0.01148943                0.04270339                0.77323830
              11.77222423                7.50996219               23.83095640                1.00000000                0.20088068                0.30460563               -0.90336649               -0.00893657                0.02162774               -0.67281487
               2.01979359                9.52277766               24.09495412                1.00000000               -0.00117026               -0.05698987                0.17300810               -0.02193432               -0.00870713                0.73081534
               3.01978188                9.41199438               23.95539898                0.58813225                0.04715554                0.05234997               -0.16607464                0.00062046                0.07573901               -0.55012583
               4.02073670                9.30084476               23.81747590                0.02575053               -0.92469522                0.15810246               -0.50507326                0.83957092                9.14853774               -1.50754251
               5.00128798                9.20600045               23.85936865                0.00010000               -2.25885756                1.03975825               -0.43583765                0.89768381               18.48913004                0.11353509
               5.97555955                9.11151782               23.90844685                0.00010000               -2.63273033                1.13908233               -0.31143358                0.50991755               18.89181429                0.13337954
               6.94863337                9.01245908               23.95858304                0.00010000               -2.78892551                1.17709476               -0.18959568                0.09910126               19.08719619                0.24694636
               7.91978104                8.91003398               24.01173627                0.00010000               -3.01767937                1.16713477               -0.07751028               -0.37454331               19.49171275                0.43042498
               8.88827979                8.80211642               24.07018708                0.03331014               -2.98304216                1.04669208                0.02555747               -1.01668108               20.11186379                0.76588160
               9.86012019                8.69219989               24.13604194                0.33194632               -1.39034574               -0.02354854                0.07951041               -1.00473831               10.37655308                1.39468151
              10.86047287                8.60209558               23.99978723                0.71603657                0.10719991                0.10089357               -0.37145317               -0.02746552                0.12690869                0.61979900
              11.86226419                8.51282860               23.86033742                0.98258978                0.17913202                0.26995184               -0.83280047               -0.00835996               -0.02137379               -0.62624579
               2.12981368               10.52240467               24.06016822                1.00000000                0.04055752               -0.03729916                0.04161311                0.03470281                0.40085311                0.61077756
               3.13021926               10.41273160               23.91731977                0.83047853                0.08841900                0.07372196               -0.30232443                0.05443033                0.77300819               -0.45864517
               4.13158206               10.30261853               23.78185726                0.51273764               -1.46081696                0.17737685               -0.63492883                1.39760473               10.95741654               -0.95244241
               5.10100292               10.21899297               23.84268888                0.36569392               -2.81480399                1.29925183               -0.47485113                1.01160167               20.57347162                0.13590582
               6.07528598               10.12342069               23.89909566                0.35649084               -2.55567534                1.19028687               -0.34092437                0.25772469               20.47089173                0.07220780
               7.04988941               10.02469459               23.95787136                0.37382040               -2.63044234                1.22355027               -0.19861137                0.07113837               20.75628800                0.13635234
               8.02267714                9.92233138               24.02010830                0.41588875               -2.93551343                1.22973938               -0.06062807               -0.14146920               21.23224256                0.23814410
               8.99117914                9.81607300               24.08867401                0.52653996               -3.65600607                1.39565868                0.08094583               -1.22262803               21.99271287                0.43946508
               9.94955702                9.69208010               24.16679212                0.68374032               -2.10708688               -0.01197913                0.14170453               -1.70940934               11.87920007                0.85976837
              10.94903741                9.60301117               24.03414807                0.88184866                0.05169855                0.09155965               -0.29601435                0.02050952                0.85202483                0.50787406
              11.95059099                9.51536122               23.89143141                0.98671385                0.15535802                0.25326228               -0.76727058                0.06768434                0.36174313               -0.52978423
               1.05623273                0.58574560               25.37518837                1.00000000               -0.34653084               -0.37540696                1.30930070               -0.06517687               -0.83561296                0.86528688
               2.05276742                0.45858906               25.29155779                1.00000000               -0.29116520               -0.29709520                1.05041274               -0.05114377               -1.07211161                0.07537172
               3.05040943                0.33116885               25.20317503                1.00000000               -0.16498648               -0.21887593                0.77810631               -0.04134690               -1.02717512               -0.21038117
               4.04946769                0.20455647               25.12046695                0.62669718                0.27269966               -0.17196481                0.51550200                0.41684879               -0.11976970               -0.70415396
               5.05586342                0.08860132               25.05031179                0.71564863                0.41969664               -0.05636922                0.22316395               -0.08102693                0.31324379                0.20070671
               6.05786163               -0.01922186               24.97684522                0.79853594                0.14926365                0.02674357               -0.05171291               -0.00833275               -0.03413152                0.11446525
               7.05884869               -0.12539766               24.89982492                0.77496246                0.09407825                0.09971924               -0.32465334                0.00530911               -0.23981275               -0.06889240
               8.05974319               -0.23162885               24.82216996                0.86962938                0.11493588                0.18660595               -0.60837395                0.01524724               -0.49196864                0.09219290
               9.06114741               -0.33965936               24.73987895                1.00000000                0.20681084                0.27487576               -0.89165304                0.00373947               -0.82909210                0.49192252
              10.06387941               -0.44909129               24.65529226                1.00000000                0.32673508                0.34576876               -1.16870870               -0.03955089               -0.85692724                0.00675388
              11.06768211               -0.55874593               24.57240974                1.00000000                0.38027050                0.42626845               -1.43341304               -0.05221209               -0.77382055               -0.77965008
               1.18273751                1.58199153               25.34175941                1.00000000               -0.31931473               -0.35696228                1.18568896               -0.02469579               -0.11536756                1.17655055
               2.17954436                1.45561810               25.25777717                1.00000000               -0.28626270               -0.27628793                0.92819015               -0.00726612               -0.09830778                0.10536576
               3.17701225                1.32898009               25.17409629                0.85418016               -0.23122065               -0.19612405                0.66244105                0.01483762                0.10197587               -0.57543764
               4.17491995                1.20283682               25.09408193                0.19188171               -0.50349691               -0.15869061                0.39187355                0.59139386                1.64140867               -1.10685550
               5.16694231                1.08803763               25.04111165                0.35586341               -0.50710796                0.06282882                0.14692500               -0.10898996                2.37823877                0.99493801
               6.16477779                0.98104558               24.97520148                0.45626182               -0.09185163                0.08596466               -0.10744822                0.12460371                1.51153988                0.41333260
               7.16510528                0.87559954               24.90475806                0.34948574                0.11243649                0.07864016               -0.36225855                0.17613019                1.41799117               -0.36373887
               8.16702652                0.77023721               24.83700804                0.48888285                0.24053723                0.18653647               -0.61177334                0.17904945                1.41972425                0.60430116
               9.16991603                0.66308940               24.76677543                1.00000000                0.30003320                0.26516468               -0.86178484                0.08039477                0.72324631                0.72122771
              10.17302718                0.55436639               24.68525782                1.00000000                0.34492992                0.33823509               -1.12507286                0.00301871                0.09099606                0.10006720
              11.17681463                0.44551676               24.60241806                1.00000000                0.37874438                0.41974511               -1.38873623               -0.01041795                0.02314671               -0.92411753
               1.30848567                2.57860635               25.31452268                1.00000000               -0.28521300               -0.32609511                1.07303256               -0.01718611                0.04236619                1.49479833
               2.30563354                2.45306330               25.22456223                1.00000000               -0.24991019               -0.24050892                0.80928153                0.00743388                0.19889927                0.07962960
               3.30348746                2.32724637               25.13768149                0.50260576               -0.16977523               -0.16214163                0.55470530                0.03588950                0.79476437               -1.33739181
               4.30223803                2.20138266               25.05960940                0.00010000               -1.40063003               -0.14171755                0.27336818                0.82747755                4.54972110               -2.01210912
               5.27547486                2.08985790               25.04780336                0.00010000               -1.47231203                0.13409985                0.06873395                1.53696337                5.14995242               -1.25694382
               6.27279179                1.98249743               24.97954658                0.00010000               -0.11475979               -0.07273543               -0.15486671                1.28618902                1.95153655               -0.34525690
               7.27317967                1.87617515               24.90381464                0.00010000                0.15212644               -0.13882092               -0.38280584                1.05235029                3.27314266                0.44412087
               8.27583432                1.77210188               24.86212442                0.00010000                0.27232257               -0.09983340               -0.62271405                0.70195532                3.83444747                0.98911939
               9.27862612                1.66564393               24.79832150                0.50263904                0.28390487                0.25646331               -0.81994695                0.12473214                1.85013704                1.44599996
              10.28151242                1.55767341               24.71714089                1.00000000                0.32734530                0.32307538               -1.07537607                0.01338686                0.66252802                0.64062524
              11.28517303                1.44964898               24.62958090                1.00000000                0.36606063                0.41225578               -1.35320314               -0.00774078                0.34279976               -0.93961584
               1.43347990                3.57546963               25.28744078                1.00000000               -0.24268779               -0.30248092                0.95836411               -0.01394737                0.07214959                1.43973100
               2.43105302                3.45080793               25.19023643                1.00000000               -0.20346067               -0.20944874                0.68765221                0.00762776                0.08924487               -0.03739553
               3.42941069                3.32573726               25.09331837                0.30326179               -0.10975252               -0.12318493                0.42179997               -0.00311298                1.03663045               -1.63063416
               4.42885797                3.20000247               25.01504463                0.00010000               -0.64219410               -0.09828446                0.15121276                0.83756889                4.81542542               -2.69873133
               5.41656680                3.09071963               24.99366163                0.00010000               -1.23368260                0.02970974               -0.00360607                2.21237671                7.20424458               -3.10561509
               6.40418432                2.97959087               24.96279565                0.00010000               -1.00094785               -0.08223213               -0.16849325                1.81622174                6.39615897               -1.05966369
               7.39654785                2.87282312               24.92469632                0.00010000               -0.62937391               -0.16162302               -0.34447098                1.49784663                5.94734927                1.06249286
               8.39159684                2.76824054               24.88464254                0.00010000               -0.48543540               -0.17956433               -0.53135875                1.14972562                5.61711439                1.32175547
               9.38683914                2.66821866               24.83972994                0.24593322               -0.11534832                0.18530281               -0.74250230                0.37822762                3.54339373                2.71379270
              10.38928987                2.56082790               24.75795462                1.00000000                0.29347680                0.29662858               -0.99815285               -0.00744512                0.85832254                1.02914398
              11.39270867                2.45376187               24.65926491                1.00000000                0.34188001                0.41216393               -1.31138399               -0.01193426                0.01438908               -0.65526239
               1.55753013                4.57255674               25.25909538                1.00000000               -0.20116645               -0.27460596                0.83467489               -0.02009926                0.09980577                1.28711197
               2.55551846                4.44887432               25.15464683                0.89608238               -0.16497321               -0.17074129                0.55738550                0.00036169                0.14071481               -0.18864508
               3.55423066                4.32478267               25.05096094                0.18410097               -0.07557083               -0.06875738                0.29107738               -0.04418963                1.15458971               -1.55282875
               4.55400705                4.19941697               24.96677573                0.00010000               -0.70483320                0.05640530                0.00747072                0.64536535                6.18887506               -2.48613817
               5.54013400                4.09045209               24.96371643                0.00010000               -1.34971545                0.08173565               -0.09544989                1.24586669                9.86228430               -1.44654118
               6.52701274                3.98085279               24.95281265                0.00010000               -1.28235336                0.18683369               -0.19101356                1.11097086                9.19018659               -0.43736395
               7.51448693                3.87294269               24.93609648                0.00010000               -1.17897220                0.13100839               -0.30790698                0.95457239                8.76124760                0.70254903
               8.50343329                3.76851059               24.91623583                0.00010000               -1.04418108                0.10566375               -0.44973930                0.88049292                8.64449386                1.84274421
               9.49360331                3.66934999               24.89673864                0.22130687               -0.38064937                0.08234348               -0.62553876                0.36886401                4.71766691                3.25149187
              10.49582030                3.56360598               24.79770713                0.85308605                0.27315433                0.25783492               -0.93230860                0.00216293                0.42185160                1.04792175
              11.49906640                3.45789225               24.69205155                1.00000000                0.32460914                0.41288171               -1.25524857               -0.02039479                0.09465197               -0.46515810
               1.68044274                5.56997751               25.22895243                1.00000000               -0.16084214               -0.23516550                0.70195872               -0.02475137                0.12491411                1.11058169
               2.67883432                5.44739310               25.11725392                0.72540949               -0.12292452               -0.12361822                0.40848172               -0.00639431                0.25449446               -0.40425880
               3.67798425                5.32436211               25.00808877                0.12525335               -0.13692307               -0.01405728                0.12964199                0.00553937                1.75550066               -1.78537699
               4.67609586                5.20113057               24.92640120                0.00010000               -0.89679690                0.29884701               -0.23225599                0.42023394                8.05084703               -1.15418008
               5.66004831                5.09235434               24.94278879                0.00010000               -1.60913577                0.30425724               -0.19686004                0.94137366               12.42474756               -0.62305434
               6.64391314                4.98332754               24.94869248                0.00010000               -1.60334074                0.34390569               -0.21316908                0.69279145               11.67310527                0.06783797
               7.62798150                4.87544329               24.94995149                0.00010000               -1.55568713                0.32312846               -0.27054063                0.54863360               11.36693898                0.91401358
               8.61279940                4.77035381               24.94936490                0.00010000               -1.44302337                0.22025929               -0.35991022                0.53773410               11.33804054                1.88356591
               9.59912103                4.66986553               24.94942509                0.22797531               -0.60042665                0.03781353               -0.47864771                0.23442708                5.88743462                2.87070284
              10.60079087                4.56598460               24.83895858                0.75692173                0.23036001                0.22101683               -0.81765260                0.01389513                0.22338063                1.09116274
              11.60372823                4.46201951               24.72547345                1.00000000                0.29373632                0.40358704               -1.18013063               -0.02108162                0.07785308               -0.44736412
               1.80220392                6.56785343               25.19705771                1.00000000               -0.11979452               -0.18804869                0.56403114               -0.02464250                0.06717106                0.96119951
               2.80100597                6.44640196               25.07729826                0.61873591               -0.07999713               -0.07615135                0.25845585               -0.00616961                0.24314778               -0.58229781
               3.80060397                6.32450153               24.96099992                0.09407669               -0.32932376                0.03759553               -0.03508643                0.15664636                3.42904701               -2.12102810
               4.79441950                6.20539391               24.90495719                0.00010000               -1.19197357                0.47826893               -0.44503533                0.35769778               10.49190640                0.08425263
               5.77676450                6.09653724               24.92935022                0.00010000               -1.83199392                0.51956266               -0.27331921                0.69109857               14.25413716               -0.00753082
               6.75777962                5.98773091               24.94894185                0.00010000               -1.91655857                0.54644777               -0.22420161                0.42512921               13.88069538                0.40532391
               7.73843333                5.87940526               24.96581590                0.00010000               -1.90069444                0.47883426               -0.22816933                0.19654902               13.73512808                1.03474561
               8.71976573                5.77291578               24.98209091                0.00010000               -1.78861336                0.29309209               -0.26610029                0.12135095               13.78759134                1.80316452
               9.70266106                5.67010626               24.99932066                0.24623342               -0.79107495                0.01199215               -0.32842756                0.00880272                7.03727257                2.62413913
              10.70394423                5.56802632               24.87967430                0.70107169                0.19569414                0.18826224               -0.70691540                0.01249394                0.12868978                1.01247119
              11.70657495                5.46596400               24.75845182                1.00000000                0.26307171                0.38030909               -1.09158447               -0.01606086                0.05669009               -0.50009730
               1.92285282                7.56621654               25.16389822                1.00000000               -0.07899995               -0.14026294                0.42683041               -0.02344776                0.02793542                0.87533879
               2.92206283                7.44587007               25.03627936                0.56540215               -0.03637981               -0.03142263                0.11209605               -0.00316449                0.16343471               -0.64563049
               3.92212523                7.32511402               24.91131134                0.07598867               -0.54243618                0.08157919               -0.19891420                0.33958768                5.46088497               -2.29572549
               4.91121410                7.21069595               24.88964224                0.00010000               -1.52959728                0.56728541               -0.46162195                0.53300400               13.27923038                0.27165151
               5.89153328                7.10274559               24.92080002                0.00010000               -2.08331974                0.72493617               -0.30270794                0.59698718               15.89380817                0.29091013
               6.86954771                6.99425650               24.95171091                0.00010000               -2.24028380                0.77859239               -0.21906182                0.22663183               15.87408215                0.54295963
               7.84672761                6.88501997               24.98233077                0.00010000               -2.25111451                0.67187087               -0.18192216               -0.14751231               15.93112967                1.01073697
               8.82452542                6.77621566               25.01393966                0.00010000               -2.12705321                0.38990538               -0.17550317               -0.35651996               16.10746825                1.65425318
               9.80418654                6.67010537               25.04740708                0.27077640               -0.96712046               -0.00932664               -0.19198987               -0.26901998                8.17052358                2.43889221
              10.80518301                6.56974984               24.91943122                0.67379262                0.16725556                0.15754138               -0.59897302                0.00294375                0.07157701                0.90838486
              11.80753165                6.46962569               24.79062257                1.00000000                0.23486465                0.34967105               -1.00591412               -0.01171869                0.03811692               -0.58003918
               2.04242789                8.56504817               25.13024612                1.00000000               -0.03826924               -0.09506851                0.29194706               -0.02247180                0.01008352                0.85458115
               3.04204519                8.44577351               24.99499101                0.56044857                0.00709806                0.01185822               -0.03139382               -0.00035942                0.05742704               -0.65576265
               4.04256985                8.32613311               24.86062238                0.06037336               -0.72985938                0.12107510               -0.35793317                0.53857589                7.39656691               -2.21661781
               5.02744801                8.21673961               24.87214530                0.00010000               -1.87130729                0.69110465               -0.41481090                0.80700288               16.17689706                0.17857175
               6.00514370                8.11103596               24.91346771                0.00010000               -2.37050653                0.95548675               -0.29988812                0.58850399               17.66928541                0.30237339
               6.98003788                8.00330275               24.95489142                0.00010000               -2.58098870                1.01688031               -0.20574226                0.10523013               17.76944698                0.48224182
               7.95352393                7.89284267               24.99795810                0.00010000               -2.62439741                0.94426792               -0.13548824               -0.41612187               18.01709296                0.81965201
               8.92754993                7.78071388               25.04394599                0.01324511               -2.48887261                0.57392881               -0.09201548               -0.89980388               18.38084074                1.37141674
               9.90374648                7.66991973               25.09373520                0.29969133               -1.15335689               -0.02092774               -0.07377783               -0.61634300                9.33208186                2.17863030
              10.90448279                7.57117714               24.95807920                0.67366164                0.14212041                0.13156026               -0.50106464               -0.01176924                0.04388338                0.81339806
              11.90658888                7.47295742               24.82179353                1.00000000                0.21060941                0.31510248               -0.92894046               -0.00767268                0.02221349               -0.67528443
               2.16095271                9.56431517               25.09661878                1.00000000                0.00179818               -0.05330799                0.15959613               -0.02192227               -0.00949591                0.73550495
               3.16097069                9.44610724               24.95370896                0.58559955                0.04889629                0.05454951               -0.17239402                0.00080603                0.07528804               -0.56085790
               4.16193064                9.32753553               24.81243296                0.02443957               -0.92596923                0.15879130               -0.50384159                0.80251732                9.35583286               -1.52614425
               5.14245131                9.22451805               24.85512226                0.00010000               -2.25952067                1.03413985               -0.41073473                0.84437138               18.93441403                0.18933609
               6.11674022                9.12185533               24.90535364                0.00010000               -2.63028560                1.13453948               -0.30645906                0.46721483               19.37703986                0.17446166
               7.08984560                9.01459410               24.95663646                0.00010000               -2.78730919                1.17814072               -0.19987481                0.05342149               19.59060548                0.27596478
               8.06099404                8.90390533               25.01085420                0.00010000               -3.01966543                1.17355167               -0.09899371               -0.43073514               20.00898032                0.46194606
               9.02945229                8.78769423               25.07029311                0.03657297               -2.97988089                1.05635777               -0.00333945               -1.08510483               20.61696354                0.82056927
              10.00139642                8.66968682               25.13655796                0.33049151               -1.37711783               -0.00829242                0.02231984               -1.05125894               10.62952207                1.44088448
              11.00190993                8.57238105               24.99584808                0.69692428                0.12106168                0.11335551               -0.41726538               -0.02870965                0.13293558                0.64507422
              12.00381766                8.47592774               24.85185105                0.98273304                0.19077242                0.28056506               -0.86461505               -0.00692484               -0.01958898               -0.63762294
               2.27840530               10.56398201               25.06051770                1.00000000                0.04356579               -0.03331577                0.02788135                0.03350745                0.40372758                0.61587825
               3.27884096               10.44686450               24.91426726                0.82983002                0.09020442                0.07572587               -0.30876512                0.05337267                0.78185206               -0.46664656
               4.28020939               10.32930894               24.77551649                0.51186270               -1.44126617                0.17734116               -0.63360171                1.35577063               11.21736744               -0.96225937
               5.25001563               10.23742241               24.83796546                0.36606469               -2.78987223                1.29043657               -0.46981436                0.97732303               21.09484462                0.16852667
               6.22441194               10.13372675               24.89567730                0.35668100               -2.54796639                1.18714230               -0.34266549                0.23932955               21.00167796                0.08882780
               7.19905630               10.02686557               24.95581205                0.37362777               -2.63014216                1.22714643               -0.21374547                0.05041857               21.30842519                0.14686350
               8.17180910                9.91631371               25.01937812                0.41520156               -2.94949806                1.24083772               -0.08554240               -0.16972067               21.80572171                0.25051554
               9.14006634                9.80184104               25.08934236                0.52892092               -3.68873096                1.41468073                0.05494638               -1.26658608               22.53810048                0.47007631
              10.09803448                9.66975388               25.16789177                0.68354610               -2.11993327                0.00670574                0.07640559               -1.75603358               12.16129379                0.88545063
              11.09766768                9.57344425               25.03092525                0.87113479                0.06612654                0.10632040               -0.34985897                0.01651662                0.88197989                0.52557496
              12.09935701                9.47856872               24.88356819                0.98658272                0.16893322                0.26409782               -0.80579046                0.06638171                0.37631465               -0.54369468
               1.13272448                0.62851544               26.38825034                1.00000000               -0.34561903               -0.37384814                1.30343381               -0.06450036               -0.85065823                0.87895314
               2.12926829                0.49375692               26.30203711                1.00000000               -0.29148603               -0.29543127                1.04583963               -0.05017001               -1.09408654                0.07995716
               3.12689476                0.35872024               26.21094037                1.00000000               -0.16798428               -0.21713352                0.77538185               -0.04160871               -1.05163046               -0.21046909
               4.12590861                0.22441405               26.12561296                0.62723530                0.25486542               -0.17020162                0.51412854                0.39476122               -0.15508653               -0.72415740
               5.13199207                0.10023673               26.05254410                0.71555809                0.40152430               -0.05690606                0.22409848               -0.08015214                0.26735156                0.21025937
               6.13393909               -0.01612382               25.97633675                0.79778552                0.14842592                0.02610325               -0.04963290               -0.01064499               -0.07272791                0.12079414
               7.13496059               -0.13084068               25.89659249                0.77429851                0.10160158                0.09879493               -0.32220429                0.00374389               -0.28333559               -0.07065640
               8.13597113               -0.24550026               25.81610984                0.86871293                0.12567818                0.18497386               -0.60462524                0.01096634               -0.53973486                0.09720002
               9.13747415               -0.36172358               25.73099731                1.00000000                0.21284678                0.27195490               -0.88590081                0.00069420               -0.87240042                0.50414594
              10.14022806               -0.47920597               25.64365326                1.00000000                0.32698880                0.34350775               -1.16042450               -0.03854735               -0.89021286                0.00682050
              11.14401393               -0.59689504               25.55813184                1.00000000                0.37858683                0.42441996               -1.42355841               -0.05027154               -0.80037632               -0.80342689
               1.26683800                1.62477696               26.35358280                1.00000000               -0.31738066               -0.35581007                1.17912954               -0.02386277               -0.11852508                1.19539266
               2.26366419                1.49080261               26.26703187                1.00000000               -0.28439434               -0.27472108                0.92295738               -0.00631240               -0.10571364                0.11154618
               3.26115011                1.35654891               26.18069951                0.86242478               -0.22831076               -0.19408842                0.65830105                0.01266476                0.08788089               -0.57137059
               4.25909798                1.22271203               26.09798551                0.19821685               -0.48453131               -0.15591282                0.38856478                0.56065173                1.63760824               -1.12434226
               5.25145949                1.09966767               26.04256470                0.36117479               -0.48633143                0.06022586                0.14413762               -0.10653181                2.38739862                1.00308513
               6.24937135                0.98413721               25.97411976                0.46202267               -0.08866186                0.08396778               -0.10862711                0.11391077                1.51778518                0.42377190
               7.24968625                0.87014727               25.90113629                0.35687158                0.10754449                0.08321769               -0.36234173                0.16561208                1.42704409               -0.35682017
               8.25152224                0.75634947               25.83089571                0.49387546                0.23238495                0.18638571               -0.61134231                0.16250924                1.43162096                0.60549233
               9.25433395                0.64099597               25.75817284                1.00000000                0.29530386                0.26335853               -0.85942744                0.07333002                0.72888801                0.73948799
              10.25742832                0.52422911               25.67402979                1.00000000                0.34331677                0.33624194               -1.12129238                0.00372173                0.09018243                0.10396078
              11.26120028                0.40734916               25.58856235                1.00000000                0.37719675                0.41926385               -1.38318263               -0.00858800                0.02258530               -0.95131076
               1.40019593                2.62139924               26.32521457                1.00000000               -0.28258315               -0.32561152                1.06529584               -0.01640336                0.04368178                1.51773799
               2.39737010                2.48826250               26.23262605                1.00000000               -0.24786474               -0.23893445                0.80356622                0.00800817                0.20480594                0.08609841
               3.39523864                2.35483848               26.14320622                0.51501389               -0.16836075               -0.15890549                0.55053494                0.03169165                0.79131346               -1.34109196
               4.39400288                2.22129579               26.06231795                0.00010000               -1.34011879               -0.13798978                0.26817370                0.78611910                4.57079215               -2.02743297
               5.36843626                2.10144124               26.04845783                0.00010000               -1.41325868                0.12310398                0.06310536                1.44749739                5.22099659               -1.24556931
               6.36573771                1.98555553               25.97797809                0.00010000               -0.11878465               -0.07292130               -0.15818771                1.20521348                2.01330241               -0.31381365
               7.36606057                1.87082367               25.89997360                0.00010000                0.13174503               -0.13251805               -0.38538580                0.97927339                3.32629063                0.48780828
               8.36837261                1.75822745               25.85587649                0.00010000                0.25002772               -0.09435517               -0.62801900                0.64918030                3.90431345                1.03840530
               9.37106112                1.64354359               25.79010824                0.50504447                0.27883457                0.25341703               -0.82300801                0.10728919                1.91189892                1.48793846
              10.37394930                1.52751887               25.70638641                1.00000000                0.32704719                0.31965606               -1.07557696                0.00964332                0.68426076                0.66174009
              11.37760206                1.41149024               25.61606204                1.00000000                0.36527625                0.41418737               -1.35060812               -0.00743758                0.35327644               -0.96734221
               1.53278341                3.61826473               26.29698115                1.00000000               -0.23982888               -0.30219029                0.94956420               -0.01368223                0.07686449                1.45688524
               2.53038512                3.48602392               26.19708316                1.00000000               -0.20163787               -0.20751589                0.68167853                0.00782267                0.09672038               -0.03663979
               3.52875065                3.35337080               26.09752374                0.31237498               -0.10837664               -0.11937513                0.41944128               -0.00855000                1.04377965               -1.64529084
               4.52821759                3.21995224               26.01655174                0.00010000               -0.63004795               -0.09427851                0.15098741                0.78463169                4.87667458               -2.72399905
               5.51614970                3.10212975               25.99361043                0.00010000               -1.20621986                0.02057754               -0.00632273                2.07462197                7.32537029               -3.10039744
               6.50409319                2.98267878               25.96108429                0.00010000               -0.97749477               -0.08561528               -0.17370757                1.69357946                6.51607552               -1.01344974
               7.49659980                2.86749691               25.92121176                0.00010000               -0.61536323               -0.16480367               -0.35279397                1.38437670                6.06361650                1.13729313
               8.49178593                2.75446237               25.87927965                0.00010000               -0.47057432               -0.17999874               -0.54162049                1.06937890                5.72331152                1.41910447
               9.48718831                2.64606431               25.83226258                0.24349634               -0.10556975                0.16870246               -0.75059717                0.34187768                3.62356010                2.79201563
              10.48967453                2.53062223               25.74794620                1.00000000                0.29602409                0.29228577               -1.00244419               -0.01509644                0.88742856                1.05730160
              11.49310880                2.41563291               25.64614322                1.00000000                0.34342620                0.41496750               -1.31191845               -0.01093736                0.01423093               -0.67324214
               1.66440390                4.61535544               26.26739351                1.00000000               -0.19834198               -0.27396775                0.82479727               -0.02020106                0.10792509                1.29507071
               2.66242049                4.48411218               26.16018934                0.88718391               -0.16322929               -0.16823617                0.55103834               -0.00013052                0.15452090               -0.20151673
               3.66113932                4.35245097               26.05385969                0.18891433               -0.07419579               -0.06486296                0.28867933               -0.05055368                1.16604821               -1.58188425
               4.66093657                4.21941022               25.96687306                0.00010000               -0.69685827                0.05509555                0.01188637                0.59466698                6.27907032               -2.56412296
               5.64720215                4.10185280               25.96276993                0.00010000               -1.33472143                0.08041967               -0.09400549                1.14749949               10.05192655               -1.45341722
               6.63424214                3.98384323               25.95087756                0.00010000               -1.26188204                0.17829550               -0.19630070                1.01154962                9.38240268               -0.39569479
               7.62196451                3.86752760               25.93296173                0.00010000               -1.15246764                0.11994807               -0.31950918                0.85802670                8.94225917                0.77695536
               8.61119279                3.75462748               25.91165887                0.00010000               -1.01128479                0.09162643               -0.46594735                0.78924549                8.80826119                1.93742093
               9.60173882                3.64691764               25.89038497                0.21762231               -0.35570074                0.05466395               -0.64448945                0.32804888                4.81318654                3.36048223
              10.60407877                3.53336458               25.78831583                0.83330328                0.28115715                0.25290277               -0.94426485                0.00081931                0.44652559                1.09381957
              11.60736196                3.41978959               25.67946329                1.00000000                0.32831871                0.41804536               -1.26063224               -0.02249953                0.11054099               -0.46758554
               1.79486589                5.61278538               26.23591813                1.00000000               -0.15789179               -0.23399586                0.69106135               -0.02489681                0.12640788                1.11137315
               2.79328698                5.48265920               26.12130407                0.71766945               -0.12121758               -0.12050814                0.40138353               -0.00711053                0.26353119               -0.42668655
               3.79244154                5.35207354               26.00937270                0.12834522               -0.12889346               -0.00914399                0.12687345               -0.00776976                1.73617070               -1.83076831
               4.79070911                5.22105415               25.92420213                0.00010000               -0.88874302                0.28827338               -0.20852406                0.36951398                8.17959098               -1.25841065
               5.77466668                5.10373814               25.94086608                0.00010000               -1.60298613                0.30117983               -0.18788216                0.84381180               12.72847017               -0.62123912
               6.75864938                4.98624469               25.94654286                0.00010000               -1.58452979                0.33577392               -0.21715253                0.59649769               11.94540883                0.11362226
               7.74297609                4.86989587               25.94717750                0.00010000               -1.52342924                0.30924436               -0.28481646                0.45236420               11.61845727                0.98852422
               8.72818080                4.75629490               25.94565696                0.00010000               -1.39819516                0.20217494               -0.38209190                0.43999758               11.57436590                1.98110294
               9.71501218                4.64715759               25.94449306                0.22410485               -0.56809147                0.01477638               -0.50768414                0.19081198                6.01812924                2.99278856
              10.71681897                4.53568028               25.83068844                0.73910531                0.23983079                0.21522662               -0.83504779                0.01775108                0.23675348                1.15723357
              11.71980880                4.42399381               25.71361639                1.00000000                0.29898289                0.41209347               -1.18951567               -0.02196416                0.07834809               -0.43426773
               1.92415832                6.61067552               26.20263937                1.00000000               -0.11682130               -0.18636093                0.55218535               -0.02460962                0.06626439                0.95975344
               2.92299011                6.48170202               26.07984837                0.61240248               -0.07846756               -0.07273550                0.25135992               -0.00666921                0.24840637               -0.60302927
               3.92258897                6.35226809               25.96063969                0.09586611               -0.31639318                0.04321087               -0.03732620                0.13276829                3.39298445               -2.16680112
               4.91666225                6.22517569               25.90073786                0.00010000               -1.18505639                0.46509754               -0.39715561                0.28574932               10.67432154                0.08961939
               5.89888785                6.10787639               25.92669988                0.00010000               -1.83239401                0.51249624               -0.25643385                0.58965057               14.66470077                0.02676391
               6.88001437                5.99055871               25.94668706                0.00010000               -1.89631274                0.53591417               -0.22707655                0.32258387               14.22438416                0.46033777
               7.86096159                5.87371248               25.96345330                0.00010000               -1.86416735                0.46395966               -0.24497353                0.09533494               14.05505721                1.10923401
               8.84273102                5.75867097               25.97929621                0.00010000               -1.73959592                0.27614703               -0.29338944                0.01636654               14.09701435                1.89714659
               9.82616967                5.64721316               25.99586116                0.24274978               -0.75667274               -0.00124288               -0.36368002               -0.04164688                7.19802854                2.73807935
              10.82759757                5.53766912               25.87248280                0.68465218                0.20629716                0.18481895               -0.73064941                0.01645743                0.13343327                1.07243870
              11.83029562                5.42803146               25.74746175                1.00000000                0.26980498                0.39000921               -1.10530466               -0.01618870                0.05789213               -0.48284009
               2.05232070                7.60905816               26.16810430                1.00000000               -0.07596783               -0.13799901                0.41422599               -0.02339756                0.02718686                0.87537140
               3.05156102                7.48120449               26.03736625                0.56048083               -0.03487285               -0.02811368                0.10501818               -0.00321388                0.16471674               -0.66284259
               4.05162324                7.35293776               25.90931661                0.07654358               -0.53726120                0.08672052               -0.20040965                0.30681973                5.50095968               -2.33781618
               5.04081579                7.23035610               25.88530305                0.00010000               -1.52732801                0.55567665               -0.40215398                0.44014816               13.54015965                0.39630544
               6.02107668                7.11398807               25.91786965                0.00010000               -2.07754121                0.71282464               -0.28259990                0.49524437               16.32575625                0.35641251
               6.99926497                6.99696298               25.94950406                0.00010000               -2.21530812                0.76566370               -0.22259771                0.12473686               16.27023206                0.60296418
               7.97677052                6.87917506               25.98041807                0.00010000               -2.21287595                0.65729022               -0.20124664               -0.24970524               16.31127573                1.08152016
               8.95500745                6.76181784               26.01202917                0.00010000               -2.07947066                0.37715378               -0.20719658               -0.46274805               16.48119862                1.73892805
               9.93518110                6.64713273               26.04528231                0.26799414               -0.93388118               -0.01201841               -0.23319268               -0.32357402                8.36015174                2.53419461
              10.93632983                6.53937666               25.91328769                0.65793666                0.17896208                0.15876454               -0.62952112                0.00492325                0.07179442                0.96005261
              11.93876034                6.43179400               25.78046604                1.00000000                0.24305179                0.35982769               -1.02485688               -0.01105453                0.03857334               -0.56958369
               2.17939771                8.60791554               26.13310014                1.00000000               -0.03514770               -0.09209853                0.27861374               -0.02244893                0.00959172                0.85694826
               3.17904623                8.48113975               25.99464328                0.55688687                0.00880223                0.01482401               -0.03849450               -0.00002931                0.05558663               -0.67001960
               4.17957376                8.35400250               25.85704189                0.05966213               -0.73156660                0.12450048               -0.35845454                0.49831496                7.53970785               -2.24873577
               5.16441490                8.23628922               25.86826078                0.00010000               -1.86939502                0.68054555               -0.35892668                0.71850823               16.53108821                0.29870200
               6.14218586                8.12213289               25.91054281                0.00010000               -2.35463964                0.94047014               -0.28472963                0.50461102               18.10094865                0.36851639
               7.11732211                8.00587198               25.95280357                0.00010000               -2.55366168                1.00473878               -0.21223614                0.02026812               18.20640346                0.53375822
               8.09111262                7.88685829               25.99650152                0.00010000               -2.59018591                0.93389094               -0.15620864               -0.50622246               18.45147538                0.87854890
               9.06551839                7.76621405               26.04285497                0.01487727               -2.44866265                0.56567993               -0.12656143               -0.99888224               18.80878028                1.45304559
              10.04213937                7.64697280               26.09275236                0.29762821               -1.12418157               -0.01358579               -0.12322346               -0.66975423                9.54771574                2.25216407
              11.04303476                7.54084441               25.95287793                0.65709716                0.15502419                0.13871761               -0.53945597               -0.01180620                0.04393085                0.85182085
              12.04523985                7.43522801               25.81237759                1.00000000                0.22050930                0.32537417               -0.95419228               -0.00633360                0.02260898               -0.67621321
               2.30542330                9.60721619               26.09814604                1.00000000                0.00501680               -0.04955718                0.14552546               -0.02195244               -0.01024760                0.73952598
               3.30547347                9.48150097               25.95195110                0.58261922                0.05083817                0.05711597               -0.17964861                0.00114272                0.07524355               -0.57129237
               4.30644006                9.35542777               25.80739907                0.02246580               -0.92089452                0.16018888               -0.50323219                0.75617512                9.57348463               -1.54308046
               5.28705558                9.24396701               25.85115395                0.00010000               -2.24269592                1.01939347               -0.38256878                0.78469003               19.37540059                0.24477012
               6.26158614                9.13279747               25.90231767                0.00010000               -2.60553242                1.12085235               -0.30114935                0.41889192               19.83626348                0.21172236
               7.23494493                9.01705775               25.95458555                0.00010000               -2.76410734                1.17043471               -0.21091335                0.00451960               20.07225821                0.30488820
               8.20630400                8.89785288               26.00975640                0.00010000               -3.00148147                1.17177755               -0.12058236               -0.48888363               20.50748904                0.49578220
               9.17491530                8.77313144               26.07012029                0.04018767               -2.95741680                1.05809879               -0.02946579               -1.15413744               21.09084771                0.88481676
              10.14715566                8.64686101               26.13648833                0.32925422               -1.35384046                0.00743513               -0.03724769               -1.09598977               10.85865541                1.48247894
              11.14783849                8.54215101               25.99144192                0.67779296                0.13554028                0.12619625               -0.46480687               -0.02968539                0.13765683                0.66812969
              12.14986647                8.43830148               25.84304512                0.98260677                0.20279772                0.29125260               -0.89703744               -0.00537563               -0.01760457               -0.64786682
               2.43038910               10.60692439               26.06072585                1.00000000                0.04684100               -0.02917922                0.01336118                0.03234741                0.40619117                0.62044185
               3.43085751               10.48228207               25.91114447                0.82893077                0.09210584                0.07810984               -0.31643023                0.05249868                0.79072115               -0.47444125
               4.43223122               10.35720628               25.76918522                0.51068491               -1.40592539                0.17785143               -0.63323097                1.29886683               11.47574995               -0.97090076
               5.40273900               10.25667709               25.83329259                0.36641527               -2.73791318                1.27100822               -0.46583472                0.93552523               21.60676195                0.18307114
               6.37747295               10.14454993               25.89224235                0.35686744               -2.51909554                1.17524644               -0.34523197                0.21886003               21.51421150                0.10362310
               7.35235709               10.02928067               25.95359645                0.37343251               -2.61058448                1.22229213               -0.23027329                0.02841180               21.84026476                0.15784923
               8.32526126                9.91029384               26.01839745                0.41449285               -2.94647907                1.24409615               -0.11062497               -0.19950569               22.36479173                0.26497484
               9.29342751                9.78737603               26.08977294                0.53154797               -3.70306327                1.42445866                0.03442815               -1.30739586               23.04894108                0.50966015
              10.25120000                9.64712150               26.16832023                0.68354705               -2.12134635                0.02604871                0.00772973               -1.79595088               12.41137018                0.90688778
              11.25100058                9.54336833               26.02715089                0.86049200                0.08157042                0.12173174               -0.40641200                0.01278756                0.90963720                0.54114437
              12.25283141                9.44105306               25.87531560                0.98640137                0.18308239                0.27515804               -0.84562675                0.06496708                0.39086648               -0.55640832
               1.21164604                0.67265975               27.40125705                1.00000000               -0.34503676               -0.37245919                1.29820016               -0.06382710               -0.86474261                0.89167494
               2.20819567                0.53019866               27.31247458                1.00000000               -0.29225370               -0.29385755                1.04198159               -0.04915797               -1.11471828                0.08459216
               3.20580096                0.38744118               27.21868267                1.00000000               -0.17167203               -0.21543579                0.77349125               -0.04199376               -1.07454397               -0.21034411
               4.20476223                0.24532823               27.13074952                0.62759001                0.23428536               -0.16832505                0.51365677                0.37067549               -0.18839967               -0.74363358
               5.21048667                0.11276531               27.05479376                0.71519493                0.37982270               -0.05797007                0.22687263               -0.07807585                0.22271163                0.21998530
               6.21235868               -0.01237201               26.97585256                0.79684605                0.14611080                0.02516752               -0.04678872               -0.01286279               -0.11200575                0.12745850
               7.21340888               -0.13589839               26.89338083                0.77352270                0.10924953                0.09804143               -0.32040667                0.00190454               -0.32751169               -0.07226497
               8.21454367               -0.25925658               26.81007746                0.86722301                0.13735522                0.18369916               -0.60257899                0.00641625               -0.58675725                0.10137306
               9.21615599               -0.38392750               26.72216093                1.00000000                0.21984756                0.26957264               -0.88235944               -0.00219753               -0.91393781                0.51637531
              10.21894062               -0.50970796               26.63208377                1.00000000                0.32807194                0.34204172               -1.15463118               -0.03732971               -0.92194787                0.00684337
              11.22271743               -0.63567549               26.54393857                1.00000000                0.37768048                0.42358287               -1.41634899               -0.04837376               -0.82598694               -0.82611789
               1.35346885                1.66893516               27.36534200                1.00000000               -0.31554775               -0.35484938                1.17282958               -0.02299155               -0.12168222                1.21309199
               2.35031337                1.52726009               27.27623632                1.00000000               -0.28263061               -0.27323405                0.91807416               -0.00530025               -0.11327283                0.11788637
               3.34781624                1.38528682               27.18726231                0.87107123               -0.22532271               -0.19204417                0.65432661                0.01028798                0.07327857               -0.56620332
               4.34580692                1.24364498               27.10185322                0.20414682               -0.46301040               -0.15302386                0.38475062                0.52694145                1.63351311               -1.14093431
               5.33855603                1.11218561               27.04399441                0.36585956               -0.46225085                0.05677370                0.14264887               -0.10086640                2.39714601                1.01199601
               6.33656190                0.98787967               26.97302894                0.46724007               -0.08429067                0.08143194               -0.10895844                0.10399039                1.52476943                0.43517168
               7.33687022                0.86508202               26.89751122                0.36407822                0.10302437                0.08771197               -0.36291740                0.15494720                1.43619407               -0.34969961
               8.33862239                0.74258041               26.82478120                0.49839218                0.22447419                0.18713093               -0.61228686                0.14642401                1.44367354                0.60419531
               9.34135970                0.61876823               26.74958688                1.00000000                0.29094649                0.26202312               -0.85854115                0.06651204                0.73488195                0.75662214
              10.34444132                0.49371246               26.66283197                1.00000000                0.34207603                0.33498785               -1.11923236                0.00476637                0.08962320                0.10824353
              11.34820122                0.36856034               26.57475441                1.00000000                0.37599024                0.41983748               -1.37948156               -0.00671892                0.02244292               -0.97640461
               1.49453634                2.66556276               27.33582860                1.00000000               -0.27983453               -0.32533857                1.05748673               -0.01566197                0.04477395                1.53951768
               2.49173800                2.52473398               27.24063355                1.00000000               -0.24572593               -0.23741262                0.79795075                0.00844959                0.21028221                0.09298688
               3.48962183                2.38360030               27.14869219                0.52825030               -0.16678631               -0.15544222                0.54678542                0.02676129                0.78571925               -1.34209038
               4.48840227                2.24226776               27.06497287                0.00010000               -1.26935848               -0.13388042                0.26260159                0.73991685                4.58916762               -2.03758079
               5.46423466                2.11390078               27.04906546                0.00010000               -1.34301008                0.11069838                0.06053549                1.34872528                5.29114666               -1.23199351
               6.46154207                1.98925663               26.97638282                0.00010000               -0.12137846               -0.07286305               -0.15984104                1.11488364                2.07543935               -0.28152063
               7.46180709                1.86585585               26.89610693                0.00010000                0.11219392               -0.12505864               -0.38840414                0.89920007                3.37735564                0.53017057
               8.46378595                1.74448604               26.84956404                0.00010000                0.22735460               -0.08700843               -0.63618304                0.59234867                3.97206014                1.08506122
               9.46635418                1.62131296               26.78186134                0.50657200                0.27289425                0.25070088               -0.82704234                0.08949265                1.97415781                1.52808451
              10.46924383                1.49699180               26.69562935                1.00000000                0.32665551                0.31660263               -1.07635411                0.00623928                0.70656710                0.68430585
              11.47288729                1.37272126               26.60256873                1.00000000                0.36434543                0.41677201               -1.34862724               -0.00715181                0.36422997               -0.99099116
               1.63481317                3.66242839               27.30643206                1.00000000               -0.23683399               -0.30207982                0.94057524               -0.01362369                0.08144423                1.47312644
               2.63244483                3.52251184               27.20387000                1.00000000               -0.19977405               -0.20554563                0.67562834                0.00771469                0.10445052               -0.03537384
               3.63081769                3.38217798               27.10170720                0.32116612               -0.10700292               -0.11521345                0.41729017               -0.01491931                1.05122212               -1.65761009
               4.63030477                3.24096738               27.01806438                0.00010000               -0.61380142               -0.08918192                0.15181289                0.72487653                4.93518002               -2.74179958
               5.61854166                3.11439957               26.99353518                0.00010000               -1.17001331                0.01136631               -0.00857284                1.91942054                7.44133965               -3.09050621
               6.60690451                2.98642241               26.95932150                0.00010000               -0.94584240               -0.08881516               -0.17889826                1.55540996                6.63018857               -0.96651995
               7.59962481                2.86258085               26.91764044                0.00010000               -0.59461285               -0.16699007               -0.36196399                1.25807736                6.17413903                1.21029118
               8.59501225                2.74084024               26.87381013                0.00010000               -0.44905115               -0.18021666               -0.55311407                0.97953586                5.82660900                1.51480475
               9.59064379                2.62378224               26.82471800                0.24060906               -0.09272227                0.15080924               -0.75874676                0.30300906                3.70381510                2.86605983
              10.59315780                2.50004451               26.73790574                1.00000000                0.29777360                0.28741659               -1.00418035               -0.02288992                0.91701396                1.08570297
              11.59659926                2.37689578               26.63302654                1.00000000                0.34414585                0.41730540               -1.30991465               -0.01012310                0.01357464               -0.68711110
               1.77409697                4.65952117               27.27559133                1.00000000               -0.19542704               -0.27346396                0.81474459               -0.02051755                0.11604021                1.30219707
               2.77214270                4.52062307               27.16566760                0.87826527               -0.16145363               -0.16557494                0.54453470               -0.00098003                0.16850482               -0.21418735
               3.77086790                4.38129603               27.05673452                0.19312220               -0.07322468               -0.06056144                0.28611929               -0.05735184                1.17931810               -1.60988421
               4.77067821                4.24048412               26.96701346                0.00010000               -0.68499324                0.05650941                0.01551924                0.53608051                6.36829362               -2.62905942
               5.75716804                4.11412811               26.96183632                0.00010000               -1.31046076                0.08000200               -0.09302598                1.03657682               10.23336418               -1.45273405
               6.74446899                3.98748033               26.94888664                0.00010000               -1.23086174                0.16840406               -0.20227791                0.89966621                9.56401537               -0.35144223
               7.73255080                3.86251605               26.92970629                0.00010000               -1.11468594                0.10706743               -0.33218564                0.75065517                9.11325985                0.85112308
               8.72217527                3.74088170               26.90691688                0.00010000               -0.96703562                0.07491475               -0.48316064                0.68860040                8.96390876                2.02959415
               9.71321009                3.62432915               26.88384885                0.21356967               -0.32513882                0.02314316               -0.66228533                0.28333841                4.90671656                3.46288937
              10.71567250                3.50274013               26.77882184                0.81357679                0.28861017                0.24588911               -0.95173824               -0.00084870                0.47276807                1.13823462
              11.71898229                3.38106737               26.66683891                1.00000000                0.33097933                0.42199532               -1.26123438               -0.02527483                0.12634404               -0.46706577
               1.91219901                5.65695911               27.24277365                1.00000000               -0.15486427               -0.23294224                0.68001652               -0.02516494                0.12755117                1.11129396
               2.91065037                5.51920034               27.12528159                0.70992814               -0.11947034               -0.11719348                0.39401235               -0.00806361                0.27244130               -0.44881481
               3.90980961                5.38096675               27.01062624                0.13076705               -0.12280323               -0.00372144                0.12360740               -0.01982511                1.72774337               -1.87486174
               4.90819430                5.24209756               26.92223072                0.00010000               -0.87663084                0.28006261               -0.18720556                0.31001962                8.31057719               -1.33838104
               5.89227699                5.11599961               26.93903115                0.00010000               -1.58422071                0.29704177               -0.17937512                0.73171066               13.01440527               -0.60971790
               6.87650989                4.98979049               26.94434943                0.00010000               -1.55202230                0.32480653               -0.22207308                0.48837352               12.20103127                0.16275358
               7.86123654                4.86472220               26.94425516                0.00010000               -1.47693661                0.29166626               -0.30033822                0.34612864               11.85517809                1.06322602
               8.84697116                4.74233854               26.94172306                0.00010000               -1.33922059                0.18023961               -0.40520606                0.33228921               11.79686625                2.07664590
               9.83445213                4.62424511               26.93927141                0.21982959               -0.52842758               -0.01252736               -0.53660894                0.14243576                6.14382276                3.11066315
              10.83640261                4.50496230               26.82225763                0.72121924                0.24935804                0.20678519               -0.84956041                0.02151958                0.25201619                1.22164402
              11.83943929                4.38533569               26.70168314                1.00000000                0.30366845                0.41950873               -1.19542522               -0.02303106                0.07842951               -0.41884270
               2.04911122                6.65486232               27.20810142                1.00000000               -0.11374262               -0.18479565                0.54015182               -0.02462873                0.06529529                0.95740795
               3.04797379                6.51827920               27.08232546                0.60604144               -0.07685219               -0.06910152                0.24389752               -0.00731184                0.25361735               -0.62314695
               4.04757417                6.38122160               26.96025340                0.09694765               -0.30640259                0.04943734               -0.04022017                0.11020890                3.38060549               -2.21069450
               5.04184574                6.24608537               26.89701408                0.00010000               -1.17324239                0.45007897               -0.34692956                0.20586461               10.86209361                0.11629627
               6.02410932                6.12006894               26.92422154                0.00010000               -1.81659297                0.50156475               -0.23925557                0.47307516               15.04414632                0.06846802
               7.00551388                5.99397646               26.94440032                0.00010000               -1.85919991                0.52043912               -0.23086643                0.20872347               14.54525585                0.51779829
               7.98692533                5.86834937               26.96091643                0.00010000               -1.81078631                0.44399785               -0.26313179               -0.01492464               14.35597727                1.18422834
               8.96929815                5.74448650               26.97622312                0.00010000               -1.67451408                0.25484592               -0.32174329               -0.09783907               14.38922233                1.99025839
               9.95343504                5.62407860               26.99204706                0.23885279               -0.71429217               -0.01735193               -0.39914625               -0.09658692                7.35115287                2.85055442
              10.95501231                5.50687584               26.86506131                0.66805410                0.21699211                0.17967352               -0.75298629                0.02057516                0.13903045                1.13103826
              11.95777489                5.38945755               26.73634573                1.00000000                0.27625780                0.39912444               -1.11725266               -0.01647212                0.05876861               -0.46346934
               2.18487268                7.65326320               27.17218274                1.00000000               -0.07278236               -0.13584626                0.40129904               -0.02337758                0.02643102                0.87452181
               3.18414485                7.51781831               27.03837972                0.55537767               -0.03325328               -0.02454707                0.09744939               -0.00331533                0.16601197               -0.67953125
               4.18420761                7.38195550               26.90730314                0.07633137               -0.53403005                0.09271676               -0.20259134                0.27265866                5.57106508               -2.37797339
               5.17346425                7.25109914               26.88159916                0.00010000               -1.51801050                0.53886923               -0.33692359                0.33992620               13.80763093                0.52604439
               6.15384740                7.12603091               26.91514802                0.00010000               -2.05301622                0.69446637               -0.26191558                0.38053463               16.71936917                0.42259889
               7.13240393                7.00019927               26.94725895                0.00010000               -2.17096951                0.74599861               -0.22712040                0.01323043               16.63998157                0.66371608
               8.11042801                6.87360216               26.97830583                0.00010000               -2.15593900                0.63629743               -0.22195146               -0.35935539               16.66951962                1.15393820
               9.08928515                6.74743546               27.00979573                0.00010000               -2.01484805                0.35985862               -0.23997534               -0.57637754               16.83466678                1.82433076
              10.07013105                6.62389807               27.04274322                0.26488010               -0.89249926               -0.01608097               -0.27459361               -0.38184513                8.53916920                2.62725738
              11.07143516                6.50855577               26.90684080                0.64183524                0.19076901                0.15917497               -0.65948016                0.00719898                0.07145012                1.01042601
              12.07394643                6.39331818               26.77012543                1.00000000                0.25112676                0.36982632               -1.04296548               -0.01041608                0.03876378               -0.55731802
               2.31953344                8.65214540               27.13581840                1.00000000               -0.03182584               -0.08916096                0.26476468               -0.02246565                0.00913361                0.85845598
               3.31921518                8.51778826               26.99422112                0.55295811                0.01065342                0.01809476               -0.04625766                0.00041084                0.05402795               -0.68392977
               4.31974651                8.38307593               26.85345329                0.05811542               -0.73231662                0.12875428               -0.35968734                0.45321793                7.71002779               -2.27895205
               5.30456885                8.25686276               26.86496677                0.00010000               -1.85633100                0.66412458               -0.30066458                0.62294010               16.88927711                0.40254110
               6.28261989                8.13395827               26.90777312                0.00010000               -2.31808055                0.91796615               -0.27021048                0.41100871               18.49503493                0.42947295
               7.25820724                8.00889643               26.95064670                0.00010000               -2.50589272                0.98498561               -0.22003799               -0.07174237               18.61829603                0.58502742
               8.23250203                7.88107532               26.99483392                0.00010000               -2.53662745                0.91614413               -0.17782072               -0.60158520               18.86289531                0.94069000
               9.20747469                7.75168367               27.04141477                0.01653689               -2.39121020                0.55185696               -0.16170980               -1.10330913               19.21135100                1.54319929
              10.18467783                7.62375698               27.09127073                0.29543768               -1.08692551               -0.00647688               -0.17305450               -0.72537391                9.74818139                2.32114305
              11.18573618                7.51005934               26.94729008                0.64032633                0.16819568                0.14574603               -0.57825092               -0.01158952                0.04265217                0.88804168
              12.18804174                7.39685407               26.80270968                1.00000000                0.23055645                0.33571098               -0.97966593               -0.00488986                0.02278810               -0.67591435
               2.45313764                9.65147998               27.09952929                1.00000000                0.00848946               -0.04570882                0.13076089               -0.02205526               -0.01096014                0.74290419
               3.45322253                9.51818020               26.95011599                0.57895203                0.05299181                0.06003341               -0.18782779                0.00157158                0.07591432               -0.58166070
               4.45419748                9.38453058               26.80236831                0.01972894               -0.90909066                0.16213407               -0.50323581                0.70155930                9.80260948               -1.55889027
               5.43504072                9.26438164               26.84747088                0.00010000               -2.20817873                0.99718989               -0.35692850                0.71922698               19.81353775                0.27540181
               6.41003390                9.14439023               26.89933066                0.00010000               -2.55943451                1.09957865               -0.29791074                0.36448867               20.26941745                0.24424042
               7.38385203                9.01989898               26.95241819                0.00010000               -2.72124146                1.15521542               -0.22372246               -0.04829652               20.53267919                0.33365275
               8.35560907                8.89192504               27.00844255                0.00010000               -2.96573615                1.16278874               -0.14235740               -0.54999904               20.98925268                0.53265417
               9.32453731                8.75847259               27.06970379                0.04410721               -2.91805829                1.05226390               -0.05161040               -1.22544051               21.53189708                0.96253028
              10.29724791                8.62376853               27.13581300                0.32822560               -1.32155125                0.02354293               -0.09833060               -1.13978998               11.06059509                1.51879659
              11.29810628                8.51147069               26.98655194                0.65868825                0.15056289                0.13949342               -0.51397365               -0.03036292                0.14079949                0.68847951
              12.30025916                8.40003240               26.83391031                0.98221668                0.21528813                0.30227616               -0.93081657               -0.00367025               -0.01546249               -0.65711378
               2.58569188               10.65123122               27.06078492                1.00000000                0.05041254               -0.02487554               -0.00195460                0.03119500                0.40818790                0.62456321
               3.58619601               10.51898893               26.90793866                0.82743460                0.09421899                0.08087258               -0.32536899                0.05171708                0.79984709               -0.48232586
               4.58757626               10.38631862               26.76285187                0.50912110               -1.35511340                0.17880340               -0.63403861                1.22875986               11.73249777               -0.97897449
               5.55909374               10.27680655               26.82864877                0.36674497               -2.65919742                1.24249186               -0.46534059                0.88686315               22.10920420                0.17683098
               6.53439231               10.15594984               26.88877266                0.35705435               -2.46936194                1.15596112               -0.35070679                0.19555056               22.00886345                0.11631630
               7.50970650               10.03200074               26.95120658                0.37323534               -2.57319354                1.21017570               -0.24914865                0.00450961               22.35255054                0.16948813
               8.48292844                9.90433110               27.01716562                0.41376612               -2.92920564                1.24060568               -0.13596750               -0.23165264               22.91310675                0.28222916
               9.45112239                9.77272895               27.09003092                0.53440231               -3.70222525                1.42563525                0.02098330               -1.34665488               23.52291715                0.56183010
              10.40888394                9.62422784               27.16804636                0.68373019               -2.11286664                0.04593083               -0.06374047               -1.83038400               12.62377510                0.92338583
              11.40886505                9.51284920               27.02279701                0.84993981                0.09804911                0.13785173               -0.46585123                0.00946498                0.93462312                0.55413413
              12.41084492                9.40289959               26.86665565                0.98617757                0.19798651                0.28671981               -0.88781513                0.06361459                0.40541398               -0.56787972
               1.29299456                0.71817904               28.41421434                1.00000000               -0.34462561               -0.37117875                1.29340889               -0.06325805               -0.87766740                0.90333283
               2.28954831                0.56792530               28.32287674                1.00000000               -0.29328079               -0.29239299                1.03864540               -0.04823618               -1.13365642                0.08934065
               3.28712895                0.41735408               28.22641019                1.00000000               -0.17593911               -0.21387485                0.77247572               -0.04258239               -1.09535682               -0.20998597
               4.28602952                0.26733398               28.13588610                0.62761083                0.21071577               -0.16639827                0.51461149                0.34471601               -0.21874587               -0.76288197
               5.29134326                0.12623515               28.05708155                0.71467926                0.35411927               -0.05992598                0.23170163               -0.07472599                0.17943697                0.23058121
               6.29311191               -0.00792740               27.97540097                0.79622216                0.14211021                0.02377839               -0.04330584               -0.01529382               -0.15301591                0.13479663
               7.29418547               -0.14054676               27.89018435                0.77304088                0.11719856                0.09739385               -0.31885196               -0.00040351               -0.37318257               -0.07396352
               8.29545588               -0.27288028               27.80405826                0.86518615                0.15018063                0.18270834               -0.60135858                0.00135648               -0.63370573                0.10434489
               9.29718908               -0.40624797               27.71335012                1.00000000                0.22777943                0.26759735               -0.88017092               -0.00508681               -0.95428304                0.52840811
              10.30001147               -0.54056549               27.62056063                1.00000000                0.32977618                0.34138915               -1.15055662               -0.03587635               -0.95270934                0.00627594
              11.30378460               -0.67504907               27.52980486                1.00000000                0.37731333                0.42399735               -1.41108326               -0.04639096               -0.85125407               -0.84876182
               1.44261572                1.71446725               28.37703939                1.00000000               -0.31372966               -0.35397498                1.16676676               -0.02224120               -0.12488407                1.22960562
               2.43947842                1.56500137               28.28539336                1.00000000               -0.28084697               -0.27183699                0.91336248               -0.00440345               -0.12111896                0.12447184
               3.43699878                1.41521533               28.19378604                0.88037979               -0.22211381               -0.19011458                0.65041798                0.00766922                0.05787714               -0.55964134
               4.43503615                1.26567000               28.10568052                0.20935018               -0.43860453               -0.15004791                0.38054872                0.49019976                1.63014754               -1.15655203
               5.42822669                1.12563589               28.04541768                0.36998350               -0.43431125                0.05127279                0.14369742               -0.09268151                2.40890119                1.02377279
               6.42634992                0.99231038               27.97194059                0.47244575               -0.07844090                0.07799771               -0.10788768                0.09422086                1.53224407                0.44825169
               7.42665787                0.86042718               27.89387794                0.37154549                0.09850637                0.09223089               -0.36379794                0.14387076                1.44469593               -0.34295048
               8.42832005                0.72894680               27.81864997                0.50255295                0.21614707                0.18900143               -0.61462014                0.13021726                1.45554344                0.59898150
               9.43098081                0.59642800               27.74100202                1.00000000                0.28666024                0.26110643               -0.85920180                0.05957412                0.74096579                0.77214051
              10.43405326                0.46284840               27.65164515                1.00000000                0.34117280                0.33483536               -1.11912734                0.00623403                0.08901245                0.11223749
              11.43780427                0.32919090               27.56097272                1.00000000                0.37510149                0.42236764               -1.37810169               -0.00458449                0.02257157               -1.00063901
               1.59148150                2.71109954               28.34636430                1.00000000               -0.27693434               -0.32513583                1.04982124               -0.01506338                0.04543579                1.56027233
               2.58871216                2.56248856               28.24858506                1.00000000               -0.24339000               -0.23594830                0.79215789                0.00864090                0.21515087                0.10045860
               3.58661370                2.41355178               28.15414193                0.54253400               -0.16495997               -0.15195340                0.54305613                0.02132001                0.77770021               -1.33999934
               4.58541296                2.26433302               28.06756999                0.00010000               -1.18822294               -0.12971670                0.25690226                0.68829398                4.60721852               -2.04182108
               5.56284924                2.12726060               28.04966854                0.00010000               -1.26039631                0.09564379                0.06322626                1.23961036                5.36262417               -1.21584093
               6.56020503                1.99363255               27.97478127                0.00010000               -0.12113886               -0.07329070               -0.16031127                1.01395161                2.13769294               -0.24839598
               7.56042647                1.86129786               27.89220551                0.00010000                0.09271844               -0.11619082               -0.39241576                0.81016374                3.42564189                0.57037312
               8.56205940                1.73089974               27.84315283                0.00010000                0.20262474               -0.07705885               -0.64795866                0.52984007                4.03786966                1.12857166
               9.56447896                1.59897416               27.77356739                0.50719005                0.26569241                0.24849955               -0.83282901                0.07098287                2.03819257                1.56597984
              10.56737325                1.46613121               27.68485932                1.00000000                0.32644717                0.31477031               -1.07925514                0.00385717                0.72979770                0.70894704
              11.57100790                1.33339828               27.58908949                1.00000000                0.36346542                0.42148037               -1.34942822               -0.00657198                0.37631810               -1.01008753
               1.73953641                3.70796453               28.31579265                1.00000000               -0.23374179               -0.30208778                0.93176939               -0.01367980                0.08568695                1.48875505
               2.73719900                3.56028240               28.21059572                1.00000000               -0.19778472               -0.20358541                0.66942252                0.00734776                0.11223866               -0.03335887
               3.73558072                3.41217626               28.10586955                0.32958588               -0.10528928               -0.11087713                0.41479372               -0.02203098                1.05905401               -1.66748045
               4.73509321                3.26307566               28.01958800                0.00010000               -0.59306774               -0.08351636                0.15208609                0.65800931                4.99089970               -2.75184282
               5.72371936                3.12754876               27.99343898                0.00010000               -1.12507555                0.00207704               -0.01091867                1.74579615                7.55111775               -3.07675949
               6.71259170                2.99084457               27.95750633                0.00010000               -0.90627031               -0.09230508               -0.18451907                1.40010229                6.73782061               -0.91982980
               7.70559396                2.85810336               27.91397248                0.00010000               -0.56755729               -0.16812577               -0.37220664                1.11670263                6.27839144                1.28108468
               8.70124055                2.72740562               27.86821737                0.00010000               -0.42124782               -0.17966614               -0.56623026                0.87818185                5.92656102                1.60953628
               9.69716900                2.60139799               27.81708764                0.23732002               -0.07671387                0.13239278               -0.76975256                0.26137077                3.78523738                2.93580427
              10.69970628                2.46914381               27.72786260                1.00000000                0.29848469                0.28230878               -1.00373099               -0.03033301                0.94910835                1.11562438
              11.70313870                2.33762051               27.61994493                1.00000000                0.34324200                0.41966944               -1.30396405               -0.00998986                0.01326708               -0.69435853
               1.88657217                4.70505778               28.28368840                1.00000000               -0.19247820               -0.27316826                0.80487841               -0.02086150                0.12404931                1.30877394
               2.88464739                4.55841685               28.17108003                0.86933779               -0.15961736               -0.16286793                0.53792598               -0.00196615                0.18247839               -0.22644234
               3.88337982                4.41133424               28.05958207                0.19664578               -0.07233726               -0.05594149                0.28304301               -0.06437986                1.19373482               -1.63668263
               4.88320064                4.26266269               27.96718345                0.00010000               -0.66917819                0.06051238                0.01642282                0.46952182                6.45418460               -2.67869568
               5.86999626                4.12730214               27.96090941                0.00010000               -1.27740820                0.08048990               -0.09272539                0.91202350               10.40561363               -1.44387468
               6.85765248                3.99178645               27.94683200                0.00010000               -1.18983956                0.15707548               -0.20942874                0.77437508                9.73449055               -0.30500986
               7.84619947                3.85793534               27.92631802                0.00010000               -1.06620350                0.09234429               -0.34621225                0.63160141                9.27397763                0.92472975
               8.83632841                3.72730642               27.90199566                0.00010000               -0.91156369                0.05579798               -0.50206187                0.57739953                9.11181620                2.11950222
               9.82796819                3.60162201               27.87713926                0.20915982               -0.28921670               -0.01126804               -0.68145151                0.23280205                5.00088889                3.55903852
              10.83054407                3.47177739               27.76928106                0.79394736                0.29432518                0.23649430               -0.95087252               -0.00445265                0.50225130                1.17987570
              11.83385470                3.34179167               27.65423860                1.00000000                0.33106226                0.42448144               -1.25397441               -0.02918832                0.14129274               -0.46348258
               2.03240105                5.70250117               28.24951846                1.00000000               -0.15178359               -0.23215970                0.66906750               -0.02541366                0.12833164                1.11050498
               3.03088321                5.55702504               28.12918432                0.70216868               -0.11768853               -0.11379509                0.38650096               -0.00903242                0.28116055               -0.47054491
               4.03004728                5.41105743               28.01184485                0.13250604               -0.11837341                0.00215310                0.11992433               -0.03032450                1.72902255               -1.91756973
               5.02851574                5.26428591               27.92045802                0.00010000               -0.86056017                0.27352398               -0.16791257                0.24182314                8.44292861               -1.38963337
               6.01283607                5.12915856               27.93727857                0.00010000               -1.55348722                0.29133679               -0.17155383                0.60442188               13.28314865               -0.58780150
               6.99744600                4.99398608               27.94210140                0.00010000               -1.50650285                0.31093483               -0.22837939                0.36819045               12.43964490                0.21498640
               7.98270602                4.85995025               27.94117074                0.00010000               -1.41720632                0.27055158               -0.31747546                0.22971886               12.07724347                1.13801053
               8.96910187                4.72852158               27.93755284                0.00010000               -1.26759718                0.15485284               -0.42955592                0.21394056               12.00627923                2.17057297
               9.95735407                4.60117263               27.93376088                0.21511375               -0.48271539               -0.04347878               -0.56543540                0.08692269                6.26613276                3.22493954
              10.95944757                4.47387369               27.81369723                0.70319548                0.25861466                0.19646583               -0.86194366                0.02364696                0.26997662                1.28295000
              11.96252637                4.34611014               27.68970789                1.00000000                0.30788014                0.42640535               -1.20016078               -0.02398268                0.07813300               -0.40268276
               2.17701615                6.70041459               28.21344241                1.00000000               -0.11056693               -0.18347779                0.52802152               -0.02464860                0.06427973                0.95418086
               3.17591048                6.55614095               28.08472632                0.59962645               -0.07518407               -0.06534197                0.23619052               -0.00798194                0.25876714               -0.64261477
               4.17551246                6.41137730               27.95983528                0.09735812               -0.29872515                0.05604850               -0.04346800                0.08850234                3.39296651               -2.25276370
               5.16993597                6.26813317               27.89379927                0.00010000               -1.15639695                0.43191935               -0.29487498                0.11796812               11.05554750                0.16817901
               6.15238453                6.13312888               27.92191476                0.00010000               -1.78556876                0.48649517               -0.22249911                0.34200866               15.39147049                0.11772316
               7.13422460                5.99800515               27.94206973                0.00010000               -1.80630917                0.50024209               -0.23620268                0.08391424               14.84285155                0.57755324
               8.11625834                5.86334638               27.95819066                0.00010000               -1.74198817                0.41930400               -0.28301234               -0.13417761               14.63820167                1.25979432
               9.09938483                5.73040348               27.97286134                0.00010000               -1.59519024                0.22956123               -0.35120831               -0.22162071               14.66514303                2.08292721
              10.08435454                5.60075244               27.98787824                0.23447261               -0.66526635               -0.03592115               -0.43456664               -0.15657171                7.49802967                2.96261617
              11.08607951                5.47570671               27.85742307                0.65113934                0.22738049                0.17413581               -0.77404572                0.02481987                0.14633119                1.18871252
              12.08890215                5.35031978               27.72511670                1.00000000                0.28226392                0.40867730               -1.12868668               -0.01669298                0.05939420               -0.44200472
               2.32045536                7.69883161               28.17613028                1.00000000               -0.06944991               -0.13382358                0.38803373               -0.02340105                0.02568263                0.87271611
               3.31976086                7.55571820               28.03931523                0.55020664               -0.03151287               -0.02080310                0.08947149               -0.00358922                0.16731850               -0.69567897
               4.31982510                7.41217840               27.90526478                0.07539456               -0.53186633                0.09904942               -0.20527537                0.23611459                5.67324834               -2.41624371
               5.30912353                7.27292430               27.87856458                0.00010000               -1.50104142                0.51675779               -0.26996881                0.23273501               14.08274829                0.65901740
               6.28980427                7.13888846               27.91263134                0.00010000               -2.01083714                0.67054164               -0.24243320                0.25443609               17.07267403                0.48832713
               7.26890679                7.00399092               27.94496165                0.00010000               -2.10900674                0.72040707               -0.23354070               -0.10747527               16.98299002                0.72500051
               8.24762414                6.86833633               27.97597904                0.00010000               -2.08216961                0.60944983               -0.24445773               -0.47669978               17.00627141                1.22843959
               9.22726340                6.73311281               28.00722966                0.00010000               -1.93523624                0.33832468               -0.27377834               -0.69791722               17.16893660                1.91120898
              10.20891941                6.60045421               28.03979044                0.26133915               -0.84433863               -0.02132811               -0.31554871               -0.44416290                8.70864964                2.71913948
              11.21037662                6.47735641               27.90009809                0.62541056                0.20234767                0.15936962               -0.68851339                0.00994072                0.07100372                1.05977948
              12.21296636                6.35428369               27.75960673                1.00000000                0.25897411                0.38025346               -1.06098065               -0.00955860                0.03888781               -0.54306412
               2.46277494                8.69773812               28.13839544                1.00000000               -0.02830382               -0.08619322                0.25031755               -0.02255658                0.00870106                0.85906491
               3.46249190                8.55572489               27.99371813                0.54869059                0.01268602                0.02160047               -0.05461028                0.00060219                0.05268124               -0.69756394
               4.46302866                8.41335829               27.84984814                0.05580613               -0.73056477                0.13364901               -0.36164472                0.40278518                7.90715563               -2.30755797
               5.44788061                8.27846833               27.86224749                0.00010000               -1.83110203                0.64343758               -0.24828143                0.52109382               17.25314850                0.48495016
               6.42640662                8.14653971               27.90513860                0.00010000               -2.26266906                0.88971383               -0.25866322                0.30839363               18.85197552                0.48378062
               7.40262723                8.01241329               27.94840281                0.00010000               -2.44020803                0.95900002               -0.23027433               -0.17122569               19.00559002                0.63579296
               8.37760246                7.87553537               27.99294510                0.00010000               -2.46593093                0.89189673               -0.20085170               -0.70320018               19.25200554                1.00695119
               9.35330861                7.73716997               28.03962077                0.01813816               -2.31873919                0.53265415               -0.19742905               -1.21450530               19.58932028                1.64505721
              10.33122768                7.60032588               28.08929127                0.29304223               -1.04298805                0.00035496               -0.22233617               -0.78379379                9.93381503                2.38599284
              11.33244885                7.47889410               27.94131291                0.62335866                0.18143706                0.15286356               -0.61725591               -0.01102373                0.03993612                0.92193842
              12.33485642                7.35792485               27.79278427                1.00000000                0.24075713                0.34647755               -1.00619941               -0.00321882                0.02272740               -0.67444684
               2.60403069                9.69710775               28.10076126                1.00000000                0.01220392               -0.04168635                0.11519065               -0.02223169               -0.01166471                0.74573799
               3.60415273                9.55615021               27.94819454                0.57415610                0.05533368                0.06326622               -0.19684585                0.00196160                0.07748973               -0.59218795
               4.60513736                9.41485138               27.79733435                0.01632754               -0.88943690                0.16506942               -0.50460781                0.63926192               10.04105862               -1.57447386
               5.58636399                9.28579305               27.84401538                0.00010000               -2.15550893                0.96948071               -0.33996159                0.64765239               20.24860183                0.27925693
               6.56202718                9.15668274               27.89635945                0.00010000               -2.49386867                1.07262707               -0.29902089                0.30318272               20.67819265                0.27130696
               7.53648661                9.02317092               27.95011110                0.00010000               -2.66118651                1.13401794               -0.23958353               -0.10602842               20.97289944                0.36211085
               8.50880345                8.88617426               28.00690925                0.00010000               -2.91519140                1.14784545               -0.16505141               -0.61542166               21.45720907                0.57331123
               9.47818279                8.74376589               28.06908809                0.04827023               -2.86420215                1.03941963               -0.06954177               -1.30082243               21.93963452                1.05828523
              10.45151941                8.60046131               28.13452172                0.32735499               -1.28128040                0.03983138               -0.15985671               -1.18352397               11.23250833                1.54951036
              11.45255718                8.48041368               27.98116245                0.63963841                0.16605419                0.15333899               -0.56464970               -0.03065845                0.14212952                0.70587928
              12.45484049                8.36121324               27.82442879                0.98152020                0.22833140                0.31399629               -0.96690341               -0.00174504               -0.01321065               -0.66529201
               2.74424538               10.69690439               28.06068676                1.00000000                0.05421254               -0.02033585               -0.01820691                0.03005133                0.40967319                0.62845499
               3.74478750               10.55699021               27.90463709                0.82481866                0.09628436                0.08399973               -0.33542718                0.05124244                0.80949439               -0.49068996
               4.74617107               10.41665968               27.75650445                0.50716684               -1.28926042                0.18083006               -0.63713904                1.14675724               11.98688974               -0.98793263
               5.71900230               10.29785794               27.82398578                0.36706520               -2.55393314                1.20648945               -0.47036194                0.83045948               22.60052607                0.15046573
               6.69509240               10.16799225               27.88522822                0.35723181               -2.39935797                1.13095125               -0.36120973                0.16830752               22.48590314                0.12661141
               7.67101514               10.03509365               27.94861348                0.37303532               -2.51966708                1.19227276               -0.27168042               -0.02214637               22.84623687                0.18183373
               8.64469906                9.89849228               28.01567810                0.41301608               -2.90050109                1.23180173               -0.16248292               -0.26720321               23.45512327                0.30297090
               9.61300511                9.75795836               28.09019261                0.53746232               -3.68948260                1.41924754                0.01460022               -1.38625601               23.95856291                0.63071391
              10.57090941                9.60112250               28.16704542                0.68409179               -2.09606807                0.06611939               -0.13733343               -1.86087414               12.79321705                0.93444248
              11.57108375                9.48196088               28.01783386                0.83952671                0.11564967                0.15472005               -0.52837347                0.00677096                0.95669020                0.56425439
              12.57322240                9.36420477               27.85755929                0.98591393                0.21386500                0.29915369               -0.93363699                0.06258052                0.42002480               -0.57789751
               1.37676790                0.76507632               29.42712523                1.00000000               -0.34412055               -0.36990032                1.28868449               -0.06287453               -0.88949237                0.91412605
               2.37332669                0.60695224               29.33324749                1.00000000               -0.29417169               -0.29110360                1.03545939               -0.04756337               -1.15060971                0.09411977
               3.37088446                0.44848976               29.23413219                1.00000000               -0.18053734               -0.21275029                0.77211407               -0.04330861               -1.11320720               -0.20918131
               4.36971595                0.29048176               29.14104175                0.62697886                0.18380348               -0.16516991                0.51758786                0.31697470               -0.24513552               -0.78115514
               5.37456053                0.14070468               29.05942780                0.71450181                0.32398080               -0.06306007                0.23726335               -0.07050911                0.13663599                0.24265648
               6.37619556               -0.00275532               28.97498645                0.79664657                0.13637034                0.02197186               -0.03968593               -0.01838014               -0.19600616                0.14240474
               7.37728794               -0.14476484               28.88700379                0.77330361                0.12541141                0.09666925               -0.31649733               -0.00320740               -0.41983849               -0.07593861
               8.37870379               -0.28635310               28.79805028                0.86269394                0.16400084                0.18185758               -0.59945290               -0.00437485               -0.68074151                0.10587922
               9.38056796               -0.42866313               28.70455752                1.00000000                0.23639544                0.26568921               -0.87786276               -0.00832993               -0.99385464                0.54018253
              10.38343170               -0.57175146               28.60907264                1.00000000                0.33179709                0.34099838               -1.14684885               -0.03424914               -0.98285794                0.00474027
              11.38720390               -0.71498644               28.51571690                1.00000000                0.37722004                0.42493681               -1.40665731               -0.04413689               -0.87654511               -0.87227922
               1.53426323                1.76137732               29.38867734                1.00000000               -0.31188919               -0.35306863                1.16102045               -0.02182909               -0.12819532                1.24517004
               2.53114434                1.60404120               29.29450357                1.00000000               -0.27883058               -0.27057253                0.90877475               -0.00391848               -0.12946679                0.13115372
               3.52868662                1.44636225               29.20027067                0.89131307               -0.21830537               -0.18864763                0.64639160                0.00476468                0.04128472               -0.55140629
               4.52677823                1.28883006               29.10946420                0.21317328               -0.41063205               -0.14789519                0.37751867                0.45079576                1.62884507               -1.16968733
               5.52047398                1.14007408               29.04686835                0.37422367               -0.40158564                0.04289930                0.14904029               -0.08251682                2.42466044                1.04034096
               6.51874652                0.99746440               28.97087118                0.47855678               -0.07096107                0.07391479               -0.10522698                0.08455830                1.53871682                0.46153499
               7.51905476                0.85620185               28.89023526                0.37974365                0.09313332                0.09668085               -0.36422599                0.13307527                1.45080149               -0.33732787
               8.52060919                0.71546548               28.81248879                0.50646126                0.20645416                0.19215835               -0.61803647                0.11347932                1.46650295                0.58882450
               9.52318384                0.57399377               28.73240284                1.00000000                0.28208398                0.26050297               -0.86127943                0.05183088                0.74684800                0.78593651
              10.52625087                0.43165852               28.64044942                1.00000000                0.34068353                0.33523775               -1.12077663                0.00775738                0.08791227                0.11513795
              11.52999751                0.28926293               28.54719237                1.00000000                0.37466460                0.42668738               -1.37884767               -0.00208912                0.02272305               -1.02566328
               1.69100354                2.75801495               29.35682503                1.00000000               -0.27401552               -0.32489646                1.04300087               -0.01453880                0.04542111                1.58025852
               2.68826338                2.60154079               29.25647671                1.00000000               -0.24063174               -0.23457585                0.78618060                0.00851137                0.21883014                0.10855083
               3.68619091                2.44471680               29.15955331                0.55810291               -0.16216733               -0.14870137                0.53766092                0.01514672                0.76660018               -1.33433287
               4.68502004                2.28752385               29.07011092                0.00010000               -1.09575263               -0.12565011                0.25075915                0.63104826                4.62714355               -2.03787292
               5.66427585                2.14156266               29.05032999                0.00010000               -1.16305426                0.07747154                0.07011669                1.11854203                5.43940215               -1.19683056
               6.66175895                1.99872298               28.97317660                0.00010000               -0.11637408               -0.07446597               -0.16266310                0.89935067                2.19730848               -0.21598574
               7.66194837                1.85716878               28.88825861                0.00010000                0.07112565               -0.10559048               -0.39599060                0.70969640                3.46789342                0.60753754
               8.66318147                1.71749007               28.83660486                0.00010000                0.17315808               -0.06386726               -0.66281351                0.45986362                4.10051799                1.16898454
               9.66541153                1.57654693               28.76520476                0.50692248                0.25681106                0.24663467               -0.84129327                0.04913483                2.10472455                1.60083863
              10.66831769                1.43495329               28.67404425                1.00000000                0.32708890                0.31383715               -1.08580008                0.00160975                0.75310264                0.73629263
              11.67195331                1.29354730               28.57558017                1.00000000                0.36356238                0.42982901               -1.35573387               -0.00547708                0.38890120               -1.02366938
               1.84692077                3.75487939               29.32506745                1.00000000               -0.23080601               -0.30220547                0.92373691               -0.01341195                0.08949670                1.50386550
               2.84461271                3.59934969               29.21725845                1.00000000               -0.19571385               -0.20175813                0.66327413                0.00720274                0.11982644               -0.03032919
               3.84300649                3.44338823               29.11000307                0.33724638               -0.10296854               -0.10648664                0.41105878               -0.02921787                1.06649299               -1.67433060
               4.84255334                3.28631706               29.02110610                0.00010000               -0.56803996               -0.07418328                0.14864583                0.58249032                5.03809260               -2.74645345
               5.83164569                3.14162351               28.99331680                0.00010000               -1.07129590               -0.00758238               -0.01463850                1.55069663                7.65233750               -3.06199962
               6.82112742                2.99597508               28.95563112                0.00010000               -0.85820481               -0.09689593               -0.19143850                1.22288918                6.83865397               -0.87395942
               7.81448160                2.85409004               28.91019631                0.00010000               -0.53495576               -0.16781993               -0.38392793                0.95656863                6.37605924                1.34905561
               8.81042830                2.71418813               28.86248552                0.00010000               -0.38891408               -0.17768926               -0.58043055                0.76226500                6.02137340                1.70382378
               9.80670331                2.57892646               28.80932295                0.23370971               -0.05728081                0.11448718               -0.78510682                0.21390319                3.86671107                3.00118503
              10.80928269                2.43793526               28.71783112                0.99463932                0.29983160                0.27748586               -1.00879902               -0.03832267                0.98636195                1.15103519
              11.81269995                2.29785951               28.60694726                1.00000000                0.34172583                0.42437262               -1.29934022               -0.01058810                0.01963958               -0.69092681
               2.00179470                4.75197084               29.29168890                1.00000000               -0.18961006               -0.27320931                0.79558939               -0.02086311                0.13205932                1.31466674
               2.99989860                4.59750563               29.17642612                0.86040290               -0.15777598               -0.16032674                0.53141055               -0.00246418                0.19645449               -0.23816156
               3.99863918                4.44258707               29.06239538                0.19926648               -0.07320179               -0.05130398                0.27946855               -0.06777877                1.20775997               -1.66196833
               4.99843456                4.28604019               28.96734191                0.00010000               -0.65037113                0.06860101                0.01634927                0.39448814                6.53468086               -2.70636806
               5.98563176                4.14141102               28.95998181                0.00010000               -1.23421806                0.08073612               -0.09388964                0.76978837               10.56974758               -1.42769844
               6.97375020                3.99678506               28.94469806                0.00010000               -1.13825317                0.14387028               -0.21871621                0.63422827                9.89380621               -0.25702127
               7.96286669                3.85381238               28.92278205                0.00010000               -1.00799251                0.07598588               -0.36220590                0.49997992                9.42473836                0.99746040
               8.95359035                3.71393628               28.89687564                0.00010000               -0.84621142                0.03480902               -0.52238775                0.45512951                9.25123044                2.20721170
               9.94594247                3.57883668               28.87021982                0.20442029               -0.24860823               -0.04607690               -0.70550545                0.17469001                5.09831122                3.65313945
              10.94861819                3.44050301               28.75980439                0.77439811                0.29753011                0.22720087               -0.94374097               -0.01147356                0.53874011                1.21821030
              11.95189307                3.30203476               28.64175942                1.00000000                0.32748808                0.42722142               -1.24585477               -0.03279045                0.15806896               -0.45667912
               2.15543393                5.74941520               29.25615500                1.00000000               -0.14867365               -0.23183602                0.65839538               -0.02549016                0.12888510                1.10874618
               3.15394719                5.59614315               29.13301161                0.69457284               -0.11587851               -0.11048166                0.37902670               -0.00976950                0.28986771               -0.49187691
               4.15311636                5.44236215               29.01302473                0.13349331               -0.11640171                0.00796618                0.11611592               -0.03663527                1.73988229               -1.95859646
               5.15161916                5.28768908               28.91887247                0.00010000               -0.84098854                0.26511012               -0.14714377                0.16593628                8.57724050               -1.40874833
               6.13629659                5.14323823               28.93560007                0.00010000               -1.51042664                0.28298119               -0.16482795                0.45999662               13.53515948               -0.55595736
               7.12141062                4.99885249               28.93978184                0.00010000               -1.44833068                0.29411041               -0.23688914                0.23581691               12.66120227                0.27022627
               8.10732997                4.85560976               28.93790565                0.00010000               -1.34520120                0.24622898               -0.33690241                0.10314380               12.28532999                1.21291259
               9.09450660                4.71488431               28.93313194                0.00010000               -1.18497912                0.12659654               -0.45578750                0.08591219               12.20410950                2.26380046
              10.08363039                4.57800492               28.92796270                0.20994494               -0.43257315               -0.07676524               -0.59418161                0.02432043                6.38788422                3.33831881
              11.08585514                4.44247928               28.80501875                0.68485363                0.26751272                0.18731093               -0.87495805                0.02406495                0.29265635                1.34101078
              12.08898064                4.30640393               28.67767992                1.00000000                0.31255079                0.43419254               -1.20772740               -0.02341217                0.07712203               -0.38620607
               2.30782899                6.74733412               29.21866185                1.00000000               -0.10727304               -0.18253537                0.51581898               -0.02468687                0.06332452                0.94979471
               3.30675626                6.59529599               29.08704927                0.59327520               -0.07342203               -0.06151172                0.22834095               -0.00890914                0.26403538               -0.66139311
               4.30636055                6.44274640               28.95938404                0.09708082               -0.29395281                0.06278075               -0.04674025                0.06766350                3.43144023               -2.29269624
               5.30087720                6.29134239               28.89111658                0.00010000               -1.13461375                0.40710992               -0.24004478                0.02288770               11.25482462                0.24488642
               6.28366828                6.14707064               28.91977156                0.00010000               -1.73910977                0.46676917               -0.20697473                0.19660551               15.70471931                0.17393682
               7.26609501                6.00266727               28.93967627                0.00010000               -1.73852654                0.47568569               -0.24402463               -0.05141375               15.11682079                0.63958896
               8.24889774                5.85873696               28.95525618                0.00010000               -1.65907865                0.39033735               -0.30541932               -0.26217975               14.90256983                1.33634173
               9.23291344                5.71646822               28.96919895                0.00010000               -1.50319197                0.20079451               -0.38229464               -0.35448508               14.92674261                2.17592592
              10.21883391                5.57730137               28.98335573                0.22953756               -0.61064820               -0.05685477               -0.47012480               -0.22068804                7.64111521                3.07549985
              11.22070047                5.44424923               28.84958039                0.63378765                0.23708077                0.16911182               -0.79271719                0.03005229                0.15665501                1.24697458
              12.22357552                5.31071861               28.71377200                1.00000000                0.28750485                0.41926939               -1.14001969               -0.01674868                0.06051917               -0.41627022
               2.45901643                7.74576449               29.17994342                1.00000000               -0.06597064               -0.13191966                0.37436165               -0.02350341                0.02495371                0.86975437
               3.45835673                7.59491292               29.04016915                0.54503547               -0.02966019               -0.01691612                0.08117374               -0.00434450                0.16863625               -0.71119355
               4.45842323                7.44361776               28.90319764                0.07384846               -0.53020318                0.10544044               -0.20808982                0.19590338                5.80766289               -2.45222675
               5.44775266                7.29583127               28.87619979                0.00010000               -1.47597075                0.48842847               -0.20401025                0.12100037               14.36393276                0.78906692
               6.42890381                7.15257361               28.91029936                0.00010000               -1.95183174                0.64175624               -0.22609800                0.11853666               17.38401246                0.55232796
               7.40871603                7.00836620               28.94258814                0.00010000               -2.03091921                0.68977883               -0.24307745               -0.23697898               17.29913834                0.78672018
               8.38828543                6.86341651               28.97341668                0.00010000               -1.99317720                0.57735866               -0.26968456               -0.60197826               17.32255941                1.30570686
               9.36885248                6.71890020               29.00432016                0.00010000               -1.84249079                0.31290864               -0.30908019               -0.82735971               17.48635535                2.00061113
              10.35143561                6.57686783               29.03643225                0.25727537               -0.79067703               -0.02779101               -0.35555171               -0.51052994                8.87093461                2.81143111
              11.35303894                6.44586152               28.89307053                0.60860967                0.21356483                0.15922605               -0.71650076                0.01314629                0.07120211                1.10847194
              12.35570691                6.31478932               28.74890582                1.00000000                0.26679672                0.39122342               -1.07999732               -0.00831716                0.03888321               -0.52616777
               2.60906207                8.74469572               29.14082475                1.00000000               -0.02459718               -0.08305399                0.23515803               -0.02273826                0.00827857                0.85865871
               3.60881610                8.59495767               28.99312891                0.54427981                0.01490948                0.02522825               -0.06345213                0.00009932                0.05143199               -0.71080716
               4.60936026                8.44485520               28.84622039                0.05297831               -0.72373705                0.13835169               -0.36399645                0.34639328                8.12608012               -2.33445128
               5.59434136                8.30111096               28.86000114                0.00010000               -1.79280911                0.61986034               -0.20822330                0.41427771               17.61983969                0.54049042
               6.57350408                8.15990577               28.90259986                0.00010000               -2.19144120                0.85765693               -0.25224479                0.19750567               19.17426939                0.53012387
               7.55051254                8.01646285               28.94604121                0.00010000               -2.35899506                0.92821634               -0.24443031               -0.27887199               19.36883440                0.68587502
               8.52632418                7.87028413               28.99081689                0.00010000               -2.37988050                0.86208778               -0.22654739               -0.81228128               19.62009885                1.07824068
               9.50291493                7.72272639               29.03746618                0.01955605               -2.23310933                0.50831304               -0.23441339               -1.33367695               19.94497631                1.76194218
              10.48166199                7.57674555               29.08682400                0.29031576               -0.99365121                0.00683824               -0.27030983               -0.84522699               10.10622694                2.44790613
              11.48304190                7.44743375               28.93494497                0.60618024                0.19457897                0.16029020               -0.65652281               -0.00998062                0.03581975                0.95372770
              12.48555357                7.31854308               28.78258569                1.00000000                0.25116699                0.35811065               -1.03503090               -0.00129957                0.02239350               -0.67149463
               2.75803777                9.74410341               29.10183310                1.00000000                0.01614603               -0.03732033                0.09863106               -0.02246253               -0.01245396                0.74800515
               3.75819923                9.59541748               28.94617907                0.56884432                0.05800179                0.06661816               -0.20648813                0.00167437                0.07914439               -0.60279196
               4.75919781                9.44638480               28.79227616                0.01331829               -0.86057879                0.16822829               -0.50845599                0.57080505               10.28328729               -1.59072626
               5.74098766                9.30822848               28.84067165                0.00010000               -2.08478836                0.93820561               -0.33562518                0.56905448               20.67767692                0.25829929
               6.71750204                9.16972675               28.89335024                0.00010000               -2.41137170                1.04193886               -0.30646852                0.23403243               21.06498138                0.29204431
               7.69276022                9.02693053               28.94762652                0.00010000               -2.58628888                1.10849021               -0.26021819               -0.16998360               21.39385209                0.39006033
               8.66577626                8.88065826               29.00514152                0.00010000               -2.85213475                1.12843387               -0.19047392               -0.68682323               21.91484877                0.61840133
               9.63571753                8.72906646               29.06831295                0.05257264               -2.79762749                1.02038970               -0.08494258               -1.38211361               22.31556303                1.17659522
              10.60982371                8.57700459               29.13261587                0.32657400               -1.23378605                0.05618695               -0.22070641               -1.22770551               11.37303501                1.57496780
              11.61104181                8.44906732               28.97525895                0.62066809                0.18192768                0.16788544               -0.61675575               -0.03049858                0.14149973                0.72049287
              12.61346227                8.32195153               28.81457224                1.00000000                0.24204606                0.32687775               -1.00647942                0.00047025               -0.01088645               -0.67204720
               2.90598468               10.74394932               29.06042078                1.00000000                0.05835223               -0.01540965               -0.03574551                0.02876279                0.41052510                0.63215243
               3.90656820               10.59629003               28.90123012                0.82170095                0.09903415                0.08725515               -0.34605969                0.05041988                0.81833303               -0.49955163
               4.90796537               10.44821977               28.75010909                0.50510318               -1.20938560                0.18349737               -0.64318228                1.05600755               12.23665769               -0.99948314
               5.88238049               10.31987507               28.81924153                0.36736152               -2.42413430                1.16465904               -0.48156534                0.76552220               23.07798814                0.10897914
               6.85948268               10.18074454               28.88154846                0.35740689               -2.30995698                1.10177895               -0.37871025                0.13594283               22.94451417                0.13382086
               7.83618135               10.03863265               28.94577298                0.37282733               -2.45154503                1.17021212               -0.29974079               -0.05247365               23.32194054                0.19475939
               8.81045178                9.89285281               29.01391596                0.41224316               -2.86275124                1.21945456               -0.19239418               -0.30737190               23.99536065                0.32775850
               9.77892633                9.74313418               29.09032293                0.54067023               -3.66723774                1.40677174                0.01223697               -1.42829597               24.35624210                0.72030005
              10.73710702                9.57786929               29.16529969                0.68459429               -2.07206715                0.08647001               -0.21221337               -1.88880515               12.91622357                0.93988232
              11.73748498                9.45079146               29.01222954                0.82926192                0.13437642                0.17241361               -0.59412271                0.00488491                0.97581556                0.57146877
              12.73979455                9.32508063               28.84798291                0.98560174                0.23095672                0.31290967               -0.98452744                0.06214576                0.43477133               -0.58617155
               1.46296018                0.81335734               30.43998803                1.00000000               -0.34310315               -0.36864868                1.28363229               -0.06226316               -0.90119083                0.92518803
               2.45952915                0.64729554               30.34358593                1.00000000               -0.29448210               -0.29003186                1.03203801               -0.04653328               -1.16644273                0.09876559
               3.45707054                0.48089347               30.24185247                1.00000000               -0.18489745               -0.21273951                0.77103979               -0.04214705               -1.12825512               -0.20934617
               4.45583120                0.31486599               30.14623786                0.62607574                0.15303714               -0.16589046                0.51814070                0.28410069               -0.26974057               -0.79948302
               5.46013129                0.15620716               30.06182682                0.71572129                0.28922917               -0.06666447                0.24029863               -0.06757562                0.09206345                0.25551396
               6.46161579                0.00315122               29.97460725                0.79860183                0.12967874                0.01997116               -0.03609049               -0.02262483               -0.23862070                0.14891253
               7.46272486               -0.14852847               29.88385441                0.77470791                0.13357705                0.09542721               -0.31175473               -0.00640368               -0.46520692               -0.07767351
               8.46428733               -0.29963972               29.79206921                0.86004118                0.17823836                0.18084278               -0.59508115               -0.01080555               -0.72740462                0.10616084
               9.46628963               -0.45113498               29.69579287                1.00000000                0.24537966                0.26344674               -0.87368794               -0.01247469               -1.03267738                0.55185164
              10.46919492               -0.60322425               29.59762366                1.00000000                0.33377744                0.34037976               -1.14205998               -0.03282546               -1.01249064                0.00258856
              11.47296518               -0.75544559               29.50167171                1.00000000                0.37702548                0.42599626               -1.40206095               -0.04136854               -0.90206382               -0.89599128
               1.62839935                1.80967085               30.40025980                1.00000000               -0.31035993               -0.35213703                1.15543467               -0.02124472               -0.13156189                1.26102235
               2.62529575                1.64439522               30.30356885                1.00000000               -0.27677515               -0.26954242                0.90475323               -0.00367231               -0.13804295                0.13722200
               3.62286385                1.47876608               30.20671387                0.90289868               -0.21401916               -0.18803727                0.64317426                0.00264092                0.02440070               -0.54283882
               4.62101537                1.31320708               30.11323089                0.21638788               -0.37754684               -0.14661647                0.38148430                0.40611904                1.62909435               -1.17771255
               5.61531291                1.15554051               30.04839849                0.38042025               -0.36290086                0.03341915                0.15790389               -0.07079135                2.44158966                1.05622358
               6.61375735                1.00335093               29.96983605                0.48618771               -0.06283088                0.07008399               -0.10177765                0.07460413                1.53975160                0.46987890
               7.61405629                0.85242580               29.88659342                0.38879142                0.08625879                0.10080145               -0.36290293                0.12244918                1.45165625               -0.33177377
               8.61548253                0.70216871               29.80628924                0.51009451                0.19504256                0.19612130               -0.62196501                0.09549861                1.47553897                0.57407251
               9.61795715                0.55149949               29.72377643                1.00000000                0.27697230                0.26029022               -0.86454279                0.04276390                0.75300349                0.79836446
              10.62102197                0.40017955               29.62922961                1.00000000                0.34078441                0.33498086               -1.12406064                0.00899265                0.08680885                0.11734887
              11.62477283                0.24881437               29.53339576                1.00000000                0.37508597                0.43078005               -1.38208143                0.00092800                0.02317778               -1.05167205
               1.79308655                2.80631460               30.36722432                1.00000000               -0.27260719               -0.32464396                1.03708424               -0.01374124                0.04498077                1.59989940
               2.79036048                2.64190469               30.26430867                1.00000000               -0.23875256               -0.23344045                0.78181784                0.00911395                0.22103476                0.11645793
               3.78831150                2.47713273               30.16489515                0.57230702               -0.15906642               -0.14592531                0.52760616                0.01140236                0.75104725               -1.32532377
               4.78717915                2.31193366               30.07258517                0.00010000               -0.98699463               -0.11457426                0.24153556                0.56343859                4.64199984               -2.01909370
               5.76857161                2.15687554               30.05107087                0.00010000               -1.04782859                0.05582152                0.07237212                0.97737129                5.51506693               -1.18417084
               6.76622258                2.00455290               29.97152801                0.00010000               -0.11077692               -0.07535084               -0.16935856                0.76699702                2.24613919               -0.18986264
               7.76635607                1.85348756               29.88428570                0.00010000                0.04505180               -0.09323822               -0.39646740                0.59671276                3.49679957                0.64126248
               8.76712361                1.70428271               29.82989656                0.00010000                0.13889982               -0.04786955               -0.67912366                0.38210608                4.15601804                1.20759609
               9.76913407                1.55407083               29.75674153                0.50580405                0.24681390                0.24535732               -0.85348202                0.01965699                2.17353085                1.63364577
              10.77205989                1.40347537               29.66314332                1.00000000                0.32900130                0.31124121               -1.09624534               -0.00567917                0.77513797                0.76517512
              11.77571409                1.25317001               29.56197482                1.00000000                0.36541985                0.44041755               -1.36675055               -0.00421669                0.39896410               -1.03037407
               1.95694434                3.80317797               30.33426739                1.00000000               -0.22844393               -0.30255193                0.91668913               -0.01253792                0.09364552                1.51778965
               2.95465990                3.63972641               30.22386121                1.00000000               -0.19407048               -0.20021150                0.65762804                0.00895562                0.12755465               -0.02675179
               3.95306293                3.47584757               30.11409072                0.34283096               -0.10592855               -0.10297562                0.40697551               -0.02515449                1.07205597               -1.67782647
               4.95254133                3.31091560               30.02256092                0.00010000               -0.54109182               -0.05823470                0.14767126                0.49690239                5.07952080               -2.72681817
               5.94224109                3.15665694               29.99314621                0.00010000               -1.00280284               -0.02053171               -0.02202563                1.31958871                7.74914333               -3.05262110
               6.93248527                3.00184392               29.95367756                0.00010000               -0.79901746               -0.10287988               -0.20091707                1.02049434                6.93265357               -0.82976957
               7.92626074                2.85056104               29.90629392                0.00010000               -0.49719441               -0.16561740               -0.39824610                0.77639928                6.46717011                1.41192280
               8.92254138                2.70121132               29.85660876                0.00010000               -0.35515603               -0.17392377               -0.59639601                0.63186144                6.11103202                1.79838489
               9.91915762                2.55640664               29.80138551                0.22989297               -0.03660883                0.09871115               -0.80081754                0.15323329                3.94746521                3.06315155
              10.92180921                2.40640437               29.70768662                0.97156257                0.30707967                0.27392972               -1.03390282               -0.05322662                1.02976127                1.20431699
              11.92529922                2.25762272               29.59395812                1.00000000                0.34900097                0.43777060               -1.31746634               -0.00856926                0.03750296               -0.67609618
               2.11973891                4.80026356               30.29960019                1.00000000               -0.18689221               -0.27374152                0.78679530               -0.02024953                0.14056642                1.31911911
               3.11786999                4.63790046               30.18170824                0.85168657               -0.15598439               -0.15810290                0.52519508               -0.00197007                0.21112281               -0.24985579
               4.11661922                4.47507322               30.06517145                0.20082112               -0.07810815               -0.04753635                0.27586059               -0.06051824                1.22348452               -1.68576607
               5.11630783                4.31076896               29.96751043                0.00010000               -0.62920817                0.07103418                0.02233043                0.31677867                6.61645268               -2.72069599
               6.10403506                4.15646491               29.95903162                0.00010000               -1.17897292                0.07963614               -0.09774900                0.60575680               10.72730865               -1.40649221
               7.09272837                4.00249530               29.94245768                0.00010000               -1.07592040                0.12842408               -0.23122862                0.47947516               10.04290151               -0.20788059
               8.08251665                3.85017521               29.91907390                0.00010000               -0.94065611                0.05866625               -0.38148416                0.35553507                9.56716621                1.06924221
               9.07391525                3.70080423               29.89154791                0.00010000               -0.77554892                0.01314828               -0.54514671                0.32277323                9.38261177                2.29223355
              10.06700568                3.55604505               29.86302915                0.19936344               -0.20679867               -0.08017695               -0.72906350                0.11085288                5.20408748                3.74541823
              11.06977927                3.40895396               29.75040624                0.75461854                0.30501660                0.22567621               -0.95638165               -0.01726813                0.58994728                1.26804219
              12.07310601                3.26192542               29.62932150                1.00000000                0.33267335                0.43753593               -1.26613663               -0.03049141                0.17544142               -0.44698398
               2.28126554                5.79770314               30.26268637                1.00000000               -0.14547028               -0.23207455                0.64781003               -0.02543477                0.12951947                1.10537647
               3.27981084                5.63656435               30.13676485                0.68713268               -0.11407405               -0.10724606                0.37170121               -0.01036466                0.29899318               -0.51303868
               4.27898406                5.47489685               30.01416717                0.13375004               -0.11628145                0.01386287                0.11269688               -0.03866687                1.76278350               -1.99808458
               5.27748521                5.31233628               29.91751515                0.00010000               -0.81770872                0.24673095               -0.12218275                0.08449674                8.71671160               -1.40590334
               6.26262989                5.15824967               29.93398201                0.00010000               -1.45603717                0.27217114               -0.15978333                0.29801381               13.76841945               -0.51497410
               7.24836447                5.00441240               29.93736361                0.00010000               -1.37836852                0.27476643               -0.24873718                0.09163607               12.86570932                0.32892416
               8.23506252                4.85173437               29.93443269                0.00010000               -1.26187285                0.21934832               -0.36006829               -0.03338556               12.48055439                1.28848039
               9.22312701                4.70147428               29.92843709                0.00010000               -1.09187842                0.09647749               -0.48504155               -0.05131870               12.39363739                2.35608509
              10.21322495                4.55480310               29.92187725                0.20423356               -0.37717697               -0.11260814               -0.62583177               -0.03833317                6.51222187                3.45280329
              11.21558347                4.41091790               29.79619807                0.66567362                0.27607606                0.18202272               -0.88631865                0.02937063                0.32287414                1.39606732
              12.21874647                4.26637344               29.66555334                1.00000000                0.31629984                0.44215285               -1.21492276               -0.02327958                0.07840129               -0.36543492
               2.44150779                6.79562207               30.22375879                1.00000000               -0.10387992               -0.18196723                0.50338143               -0.02478187                0.06247450                0.94383973
               3.44046899                6.63575554               30.08929314                0.58698806               -0.07169157               -0.05748332                0.22037555               -0.01015344                0.26955972               -0.67947052
               4.44007396                6.47535047               29.95890048                0.09612228               -0.29120257                0.07003320               -0.04990853                0.04558513                3.49765601               -2.33010087
               5.43464494                6.31570358               29.88899838                0.00010000               -1.10773707                0.37423961               -0.18348610               -0.08134469               11.45901330                0.34068341
               6.41791922                6.16190833               29.91777527                0.00010000               -1.67842748                0.44285303               -0.19406848                0.03766649               15.98066162                0.23539410
               7.40107639                6.00799063               29.93718924                0.00010000               -1.65660811                0.44739914               -0.25576010               -0.19691922               15.36669005                0.70424147
               8.38478706                5.85456218               29.95208228                0.00010000               -1.56281256                0.35776971               -0.33185821               -0.39880319               15.15036641                1.41463606
               9.36982014                5.70273378               29.96521545                0.00010000               -1.39958300                0.16917555               -0.41662627               -0.49606854               15.17693591                2.27035633
              10.35679540                5.55379289               29.97847574                0.22392355               -0.55118994               -0.07942692               -0.50687090               -0.28882921                7.78563093                3.18981367
              11.35879634                5.41259442               29.84156873                0.61568802                0.24669652                0.16216881               -0.80900440                0.03596097                0.17308402                1.30621752
              12.36172933                5.27076848               29.70231631                1.00000000                0.29329858                0.42865947               -1.15228097               -0.01624416                0.06197203               -0.38493211
               2.60050296                7.79406380               30.18361752                1.00000000               -0.06235960               -0.13002289                0.36015627               -0.02369125                0.02425690                0.86540927
               3.59987937                7.63541469               30.04093871                0.53978647               -0.02776197               -0.01283589                0.07259513               -0.00551898                0.17007317               -0.72591713
               4.59994772                7.47629751               29.90110299                0.07170245               -0.52894518                0.11201357               -0.21078316                0.15052318                5.97319569               -2.48524116
               5.58930046                7.31982107               29.87448438                0.00010000               -1.44257776                0.45513465               -0.14204496                0.00311063               14.64985292                0.90757602
               6.57109617                7.16710673               29.90810938                0.00010000               -1.87641144                0.60914907               -0.21506147               -0.02639873               17.65218474                0.61296768
               7.55177223                7.01336038               29.94010010                0.00010000               -1.93764310                0.65508890               -0.25745876               -0.37532385               17.58874461                0.84902237
               8.53234331                6.85888976               29.97058535                0.00010000               -1.88986502                0.54065814               -0.29929851               -0.73550888               17.61994945                1.38667167
               9.51397493                6.70485779               30.00104806                0.00010000               -1.73777882                0.28411195               -0.34725500               -0.96471594               17.79066775                2.09390934
              10.49758773                6.55321456               30.03267940                0.25254465               -0.73239170               -0.03462546               -0.39535193               -0.58092413                9.02986009                2.90652488
              11.49932710                6.41416127               29.88576808                0.59134006                0.22428676                0.15929100               -0.74444936                0.01696412                0.07317033                1.15564188
              12.50207346                6.27494663               29.73800678                1.00000000                0.27463648                0.40300273               -1.10214885               -0.00678902                0.03873954               -0.50719984
               2.75833219                8.79302161               30.14309860                1.00000000               -0.02072855               -0.07959902                0.21920689               -0.02294396                0.00785045                0.85704117
               3.75812490                8.63549882               29.99244909                0.53969220                0.01729267                0.02892409               -0.07272227               -0.00088377                0.05021391               -0.72335998
               4.75867804                8.47759075               29.84256821                0.04988916               -0.71134817                0.14253250               -0.36683803                0.28351300                8.35942065               -2.35967007
               5.74389794                8.32480628               29.85808302                0.00010000               -1.74130515                0.59487863               -0.18380810                0.30217739               17.98490312                0.56455546
               6.72385194                8.17409131               29.90009370                0.00010000               -2.10555271                0.82341474               -0.25318064                0.07809527               19.46541789                0.56797824
               7.70178688                8.02109241               29.94351420                0.00010000               -2.26362348                0.89399917               -0.26448842               -0.39579163               19.70887944                0.73525388
               8.67857947                7.86537534               29.98841416                0.00010000               -2.27929302                0.82767287               -0.25713595               -0.93028514               19.96907450                1.15535057
               9.65620102                7.70841602               30.03493251                0.02064676               -2.13530158                0.47916291               -0.27445787               -1.46150992               20.28248177                1.89659851
              10.63587344                7.55310038               30.08388508                0.28712764               -0.93987351                0.01352091               -0.31667020               -0.90946993               10.26865887                2.50914245
              11.63740355                7.41578024               29.92818246                0.58876386                0.20746992                0.16888431               -0.69667800               -0.00840685                0.03059371                0.98426307
              12.64002283                7.27882853               29.77208365                0.99553325                0.26192811                0.37142213               -1.06804324                0.00096579                0.02186289               -0.66628534
               2.91508966                9.79247182               30.10273388                1.00000000                0.02028971               -0.03247698                0.08095734               -0.02261338               -0.01340669                0.74934815
               3.91529256                9.63599317               29.94406478                0.56419758                0.06104356                0.06991341               -0.21649253                0.00086516                0.07931063               -0.61284324
               4.91631053                9.47914816               29.78716523                0.01142675               -0.82245553                0.17067057               -0.51463663                0.49701228               10.52175414               -1.60675686
               5.89884344                9.33171865               29.83730288                0.00010000               -1.99692961                0.90457469               -0.34432105                0.48258035               21.09573569                0.21737514
               6.87637194                9.18357502               29.89023008                0.00010000               -2.31355376                1.00904542               -0.32211066                0.15605102               21.43180890                0.30609185
               7.85257237                9.03124037               29.94490673                0.00010000               -2.49789722                1.08017577               -0.28788912               -0.24161212               21.79623808                0.41731892
               8.82641399                8.87544322               30.00309977                0.00010000               -2.77763350                1.10616135               -0.22185543               -0.76612268               22.36562801                0.66832461
               9.79701970                8.71444105               30.06738924                0.05688664               -2.71899398                0.99642013               -0.10237380               -1.47065168               22.66402270                1.32060483
              10.77203411                8.55348498               30.13010759                0.32576896               -1.17944464                0.07260646               -0.27991854               -1.27241315               11.48356109                1.59636420
              11.77343081                8.41753896               29.96882733                0.60179313                0.19810372                0.18344158               -0.67029676               -0.02983062                0.13890973                0.73312891
              12.77599619                8.28237507               29.80429920                0.97871867                0.25653811                0.34157281               -1.05083615                0.00302402               -0.00854631               -0.67645089
               3.07083721               10.79237207               30.05997185                1.00000000                0.06286478               -0.00997461               -0.05486822                0.02725741                0.41072427                0.63513036
               4.07146586               10.63689709               29.89771590                0.81963951                0.10277983                0.09039210               -0.35665491                0.04893479                0.82447386               -0.50799259
               5.07289281               10.48100416               29.74364080                0.50337032               -1.11715890                0.18559966               -0.65025765                0.95826188               12.47673119               -1.01158104
               6.04912268               10.34289777               29.81435448                0.36764854               -2.27207857                1.11791239               -0.49863184                0.69132688               23.53709052                0.05993748
               7.02745124               10.19427222               29.87765401                0.35757381               -2.20181183                1.06971974               -0.40498823                0.09783786               23.38266680                0.13730329
               8.00508645               10.04269593               29.94261866                0.37262137               -2.36974561                1.14555614               -0.33584988               -0.08727487               23.77974838                0.20804485
               8.98005633                9.88749857               30.01183022                0.41145484               -2.81701085                1.20553526               -0.22961988               -0.35334191               24.53728749                0.35688324
               9.94874623                9.72834442               30.09043735                0.54397261               -3.63645304                1.39033704                0.00646347               -1.47465019               24.71946143                0.83319504
              10.90732726                9.55455251               30.16280115                0.68521432               -2.04146925                0.10675300               -0.28728901               -1.91545257               12.99320158                0.94004238
              11.90791684                9.41944907               30.00595141                0.81917894                0.15419115                0.19101088               -0.66298433                0.00397785                0.99221271                0.57612467
              12.91041109                9.28565999               29.83786875                0.98528119                0.24942438                0.32849165               -1.04164075                0.06258207                0.44969072               -0.59210149
               1.55154830                0.86303655               31.45279787                1.00000000               -0.34148966               -0.36750734                1.27837201               -0.06092645               -0.91461524                0.93781637
               2.54813340                0.68896170               31.35388825                1.00000000               -0.29404322               -0.28988023                1.02900815               -0.04322584               -1.18500298                0.10351142
               3.54566743                0.51458003               31.24955298                1.00000000               -0.18933073               -0.21172290                0.76800906               -0.03826758               -1.14895565               -0.21419067
               4.54434679                0.34050602               31.15140457                0.62476770                0.11824863               -0.15775303                0.51279857                0.23745223               -0.29906176               -0.81769592
               5.54803241                0.17267163               31.06423377                0.71823307                0.25243876               -0.07171289                0.24013557               -0.07021394                0.05146279                0.26613038
               6.54939556                0.00976534               30.97426464                0.80127433                0.12447224                0.01758895               -0.03166376               -0.02829317               -0.27499245                0.15334207
               7.55052185               -0.15179634               30.88076870                0.77749064                0.14108395                0.09314237               -0.30331101               -0.01047988               -0.50583907               -0.07764232
               8.55221724               -0.31266995               30.78614866                0.85802344                0.19190545                0.17895307               -0.58643843               -0.01787154               -0.77240218                0.10560577
               9.55435996               -0.47359322               30.68708376                1.00000000                0.25429003                0.26056092               -0.86541696               -0.01772472               -1.07035243                0.56333137
              10.55730304               -0.63491160               30.58623144                1.00000000                0.33532781                0.33974390               -1.13469615               -0.03159141               -1.04159744               -0.00029791
              11.56106652               -0.79635437               30.48767568                1.00000000                0.37634748                0.42807527               -1.39652544               -0.03805167               -0.92790069               -0.92060475
               1.72501388                1.85936148               31.41178603                1.00000000               -0.30844807               -0.35156057                1.14972045               -0.02055068               -0.13441857                1.27830516
               2.72192940                1.68606290               31.31259863                1.00000000               -0.27506449               -0.26920529                0.90114578               -0.00094164               -0.14605367                0.14404230
               3.71951259                1.51246280               31.21313416                0.89592437               -0.21269477               -0.18732743                0.64503505                0.00667589                0.01292137               -0.54420437
               4.71767551                1.33892849               31.11709388                0.22098914               -0.34059921               -0.13470363                0.39572946                0.34146139                1.63452453               -1.20399701
               5.71270061                1.17195450               31.05002643                0.38882877               -0.31644473                0.02299491                0.16193096               -0.06926629                2.45092413                1.05961622
               6.71134661                1.00994122               30.96883563                0.49432233               -0.05329579                0.06594449               -0.09924258                0.06259639                1.53265286                0.46959779
               7.71163469                0.84913508               30.88297720                0.39829434                0.07951744                0.10449370               -0.35954352                0.10861605                1.44653249               -0.32338359
               8.71293696                0.68911958               30.80004949                0.51323317                0.18344219                0.19962120               -0.62522201                0.07530361                1.48193824                0.55636225
               9.71530354                0.52901239               30.71511199                1.00000000                0.27153714                0.26019925               -0.86893618                0.03208396                0.76031278                0.80943107
              10.71836771                0.36848583               30.61796821                1.00000000                0.34126148                0.33556994               -1.12918175                0.00990507                0.08627130                0.11981359
              11.72212877                0.20792638               30.51955074                1.00000000                0.37610626                0.43659204               -1.38902565                0.00420886                0.02366341               -1.07686776
               1.89773445                2.85600534               31.37756671                1.00000000               -0.27211983               -0.32510863                1.03085819               -0.01316644                0.04727782                1.61989353
               2.89501325                2.68357759               31.27211307                1.00000000               -0.23995455               -0.23239090                0.77902499                0.01196020                0.22192252                0.12354973
               3.89293535                2.51083348               31.17010543                0.58124577               -0.16644664               -0.14536984                0.52051936                0.02348307                0.73583359               -1.32182283
               4.89168431                2.33781195               31.07494163                0.00010000               -0.86505025               -0.10365346                0.24203452                0.48554042                4.66990416               -2.02452306
               5.87563435                2.17313153               31.05177743                0.00010000               -0.91087045                0.03279196                0.05636916                0.80417919                5.57573172               -1.19306255
               6.87346690                2.01108422               30.96978943                0.00010000               -0.10592663               -0.07455995               -0.17800900                0.62240868                2.28131441               -0.17464270
               7.87351582                1.85029353               30.88032926                0.00010000                0.01895488               -0.07973889               -0.39641155                0.47486731                3.50998230                0.67098441
               8.87384600                1.69132247               30.82302239                0.00010000                0.10597833               -0.03075486               -0.69548756                0.29688151                4.20081999                1.24604164
               9.87563538                1.53161077               30.74813512                0.50388235                0.23705769                0.24447348               -0.86992408               -0.01257260                2.24423820                1.66926557
              10.87858716                1.37179979               30.65211934                1.00000000                0.33171103                0.31364255               -1.11277428               -0.01478541                0.79844774                0.78841331
              11.88226960                1.21237747               30.54824516                1.00000000                0.36824474                0.45322574               -1.38511429               -0.00332131                0.40928573               -1.03998123
               2.06960605                3.85285931               31.34340123                1.00000000               -0.22655802               -0.30355502                0.90949984               -0.01164885                0.09893152                1.53033635
               3.06734047                3.68141508               31.23041101                1.00000000               -0.19290751               -0.19863662                0.65261087                0.01163248                0.13762304               -0.02516978
               4.06574790                3.50955540               31.11814258                0.34641737               -0.11260989               -0.10190881                0.40413677               -0.00941653                1.08308818               -1.67926076
               5.06508827                3.33685542               31.02405953                0.00010000               -0.51179886               -0.05699557                0.15452445                0.41370319                5.12960737               -2.72661195
               6.05551192                3.17261034               30.99287629                0.00010000               -0.92277452               -0.03430804               -0.03266327                1.05954700                7.84296718               -3.04723073
               7.04663278                3.00845003               30.95161278                0.00010000               -0.73090639               -0.10714164               -0.21520582                0.80145077                7.01968712               -0.78777162
               8.04089379                2.84754031               30.90223139                0.00010000               -0.45377115               -0.16175414               -0.41714903                0.58292144                6.55042804                1.46712265
               9.03755736                2.68850448               30.85055760                0.00010000               -0.31595144               -0.16849210               -0.61712505                0.49014425                6.19896675                1.89381505
              10.03457476                2.53390186               30.79330660                0.22578420               -0.01260292                0.08212630               -0.81578449                0.08923496                4.01916988                3.12742861
              11.03730530                2.37475869               30.69715306                0.94998811                0.31661158                0.27763018               -1.06792811               -0.06866720                1.06590744                1.26119518
              12.04090700                2.21699089               30.58059793                1.00000000                0.36016973                0.45611961               -1.35233124               -0.01169090                0.05501327               -0.66433680
               2.24038992                4.84993424               31.30742480                1.00000000               -0.18401210               -0.27475884                0.77770353               -0.01987305                0.15013819                1.32142282
               3.23854980                4.67960486               31.18693002                0.84355961               -0.15416212               -0.15587983                0.51898307               -0.00165763                0.22708223               -0.26224651
               4.23730668                4.50879530               31.06791259                0.20163680               -0.08231789               -0.04419891                0.27257076               -0.05294922                1.24619681               -1.70924770
               5.23690344                4.33667204               30.96778852                0.00010000               -0.60379951                0.06138217                0.03395326                0.23501674                6.71074112               -2.75527454
               6.22523069                4.17244537               30.95802683                0.00010000               -1.11687443                0.07923801               -0.10371280                0.42869682               10.87344748               -1.37801783
               7.21456595                4.00894139               30.94007349                0.00010000               -1.00554496                0.11246934               -0.24780491                0.31272187               10.18151941               -0.15647073
               8.20511979                3.84705845               30.91515236                0.00010000               -0.86393117                0.04153420               -0.40664691                0.19925159                9.70088817                1.14123348
               9.19728733                3.68795263               30.88597271                0.00010000               -0.69769552               -0.00830055               -0.57340925                0.17861365                9.51329614                2.37548847
              10.19116588                3.53325330               30.85563855                0.19386373               -0.15812746               -0.11437333               -0.75258574                0.04694222                5.31193038                3.82971349
              11.19412478                3.37735240               30.74067675                0.73327335                0.32027452                0.22397267               -0.98625491               -0.02111017                0.63646627                1.34177381
              12.19757137                3.22149986               30.61643669                1.00000000                0.34465880                0.45547704               -1.30024560               -0.03869688                0.18067394               -0.41618802
               2.40986734                5.84736413               31.26911121                1.00000000               -0.14210921               -0.23272390                0.63677763               -0.02567144                0.13042936                1.10005487
               3.40844625                5.67829748               31.14044563                0.67993205               -0.11228044               -0.10360660                0.36437268               -0.01183678                0.30875129               -0.53409562
               4.40762174                5.50867142               31.01527867                0.13325543               -0.11538543                0.02066293                0.10959443               -0.04563295                1.79948159               -2.03574372
               5.40613854                5.33808307               30.91642881                0.00010000               -0.79026148                0.22573924               -0.10062030               -0.00985452                8.85750883               -1.39212327
               6.39181651                5.17419510               30.93240441                0.00010000               -1.39322055                0.26028968               -0.15740908                0.12381516               13.97796575               -0.46488628
               7.37827413                5.01069941               30.93480710                0.00010000               -1.29744596                0.25371092               -0.26540274               -0.06341300               13.05170814                0.39228264
               8.36586759                4.84837099               30.93070428                0.00010000               -1.16696732                0.19092865               -0.38938461               -0.18009357               12.66354407                1.36630146
               9.35493479                4.68833847               30.92343111                0.00010000               -0.98768727                0.06558702               -0.52062813               -0.19926177               12.57639867                2.44842282
              10.34611384                4.53161440               30.91544607                0.19785984               -0.31491276               -0.14789002               -0.66362293               -0.10364838                6.64632767                3.56198639
              11.34863653                4.37923814               30.78729238                0.64478657                0.28621471                0.17255885               -0.89568627                0.03414240                0.36726465                1.46114187
              12.35183814                4.22610043               30.65338147                1.00000000                0.32016047                0.45333311               -1.22278670               -0.02634830                0.08407816               -0.32547793
               2.57800978                6.84527976               31.22872947                1.00000000               -0.10040152               -0.18156287                0.49043054               -0.02511088                0.06167959                0.93626431
               3.57700577                6.67753273               31.09145678                0.58065474               -0.07006748               -0.05294283                0.21225240               -0.01223644                0.27526564               -0.69679517
               4.57660843                6.50920856               30.95838587                0.09450622               -0.29115457                0.07868894               -0.05295858                0.01869170                3.59156553               -2.36496066
               5.57118268                6.34118683               30.88744685                0.00010000               -1.07588936                0.34075392               -0.12839990               -0.19763083               11.66675612                0.45028338
               6.55509065                6.17765116               30.91589019                0.00010000               -1.60304373                0.41597172               -0.18603945               -0.13279676               16.21651126                0.30065763
               7.53912180                6.01401561               30.93456107                0.00010000               -1.56058939                0.41611363               -0.27331403               -0.35166581               15.59171183                0.77222221
               8.52387886                5.85087702               30.94861902                0.00010000               -1.45315573                0.32235370               -0.36474967               -0.54411808               15.38246675                1.49632202
               9.51005869                5.68926437               30.96086642                0.00010000               -1.28428081                0.13614318               -0.45730893               -0.64722643               15.41896899                2.36816132
              10.49819324                5.53029549               30.97321831                0.21749264               -0.48685487               -0.10127030               -0.54861102               -0.36309193                7.93729239                3.30957193
              11.50032159                5.38080358               30.83340031                0.59658007                0.25632844                0.15612459               -0.82723052                0.04047327                0.19871075                1.36296366
              12.50331981                5.23056652               30.69072638                1.00000000                0.29982212                0.43887707               -1.17013819               -0.01539770                0.06283790               -0.35371005
               2.74485919                7.84373287               31.18714654                1.00000000               -0.05864683               -0.12797883                0.34533469               -0.02400877                0.02356459                0.85969223
               3.74427272                7.67723863               31.04162106                0.53423995               -0.02588585               -0.00841657                0.06368595               -0.00713371                0.17163540               -0.73973938
               4.74434147                7.51024520               30.89898197                0.06909009               -0.52646964                0.11954962               -0.21365850                0.09829127                6.16682283               -2.51581376
               5.73374333                7.34489815               30.87335889                0.00010000               -1.40048444                0.41983704               -0.08807838               -0.11997090               14.93741805                1.00692831
               6.71633179                7.18251453               30.90599813                0.00010000               -1.78641892                0.57467327               -0.21142326               -0.17929249               17.87714958                0.66930137
               7.69801495                7.01902169               30.93743896                0.00010000               -1.82976604                0.61728416               -0.27886058               -0.52242993               17.85232041                0.91246656
               8.67973646                6.85481806               30.96743071                0.00010000               -1.77215826                0.49998474               -0.33576064               -0.87759229               17.90024639                1.47262695
               9.66257179                6.69106133               30.99737506                0.00010000               -1.62118329                0.25264051               -0.39088255               -1.10970602               18.08619753                2.19335819
              10.64731280                6.52958899               31.02852521                0.24697792               -0.66984087               -0.03976435               -0.43745487               -0.65543638                9.19025825                3.00908585
              11.64917497                6.38236063               30.87818155                0.57350007                0.23457449                0.16280906               -0.77540725                0.02112962                0.07863699                1.20278269
              12.65200429                6.23487798               30.72686284                0.99392805                0.28293192                0.41792159               -1.13171368               -0.00483442                0.03874564               -0.48539006
               2.91051810                8.84272019               31.14520889                1.00000000               -0.01673364               -0.07578742                0.20251977               -0.02314662                0.00737047                0.85407950
               3.91035076                8.67736440               30.99167447                0.53506424                0.01983202                0.03275909               -0.08246187               -0.00196318                0.04860720               -0.73488224
               4.91091474                8.51159955               30.83888363                0.04684508               -0.69184166                0.14659320               -0.37145797                0.21362426                8.59860091               -2.38411939
               5.89651393                8.34958357               30.85632498                0.00010000               -1.67667403                0.57031921               -0.17659796                0.18196300               18.34381397                0.55555273
               6.87738126                8.18914462               30.89753625                0.00010000               -2.00721280                0.78868746               -0.26330469               -0.05098457               19.72946837                0.59732000
               7.85636967                8.02636129               30.94075144                0.00010000               -2.15469475                0.85753806               -0.29285644               -0.52337814               20.02675392                0.78426311
               8.83428736                7.86087672               30.98567417                0.00010000               -2.16380164                0.78953146               -0.29583337               -1.05871278               20.30127701                1.23881783
               9.81309364                7.69431718               31.03197703                0.02122287               -2.02510725                0.44561927               -0.32048184               -1.59790683               20.60799020                2.05026642
              10.79378522                7.52950021               31.08049060                0.28332237               -0.88192218                0.02134031               -0.36202083               -0.97566919               10.42617744                2.57382969
              11.79545520                7.38405976               30.92101141                0.57106003                0.22016069                0.18001589               -0.73896966               -0.00609142                0.02481570                1.01610765
              12.79818843                7.23892495               30.76122483                0.97994899                0.27332357                0.38797248               -1.10758728                0.00368549                0.02130675               -0.65644118
               3.07510783                9.84221712               31.10345225                1.00000000                0.02462569               -0.02721017                0.06228858               -0.02268294               -0.01451428                0.74927841
               4.07535409                9.67789381               30.94184922                0.56123453                0.06434795                0.07317757               -0.22677048               -0.00010464                0.07677185               -0.62150941
               5.07639479                9.51317707               30.78198342                0.01021229               -0.77582847                0.17187263               -0.52076349                0.41786968               10.74914938               -1.62029764
               6.05983752                9.35630453               30.83378523                0.00010000               -1.89302129                0.86935318               -0.36449665                0.38531895               21.49700877                0.16318143
               7.03853437                9.19828828               30.88690802                0.00010000               -2.20111126                0.97490623               -0.34756536                0.06792421               21.77975442                0.31363894
               8.01581530                9.03617245               30.94186874                0.00010000               -2.39640223                1.05041968               -0.32524151               -0.32245746               22.18046444                0.44387490
               8.99060632                8.87060869               31.00070441                0.00010000               -2.69125670                1.08264311               -0.26378118               -0.85536231               22.81199287                0.72301930
               9.96199016                8.69997372               31.06626548                0.06104141               -2.62747409                0.96923385               -0.13006128               -1.56709570               22.99288303                1.49035382
              10.93805684                8.53001580               31.12701750                0.32481345               -1.11808830                0.08914050               -0.33668578               -1.31704980               11.56968306                1.61562453
              11.93962839                8.38596095               30.96185301                0.58303067                0.21453824                0.20030203               -0.72529148               -0.02859605                0.13453869                0.74547010
              12.94234760                8.24263743               30.79355551                0.96451650                0.27192092                0.35872779               -1.10095939                0.00591071               -0.00628300               -0.67665821
               3.23871107               10.84217598               31.05932342                1.00000000                0.06776552               -0.00411413               -0.07534196                0.02552057                0.41036713                0.63660206
               4.23938873               10.67882795               30.89409702                0.81878965                0.10751699                0.09341416               -0.36727829                0.04651491                0.82697613               -0.51466833
               5.24086141               10.51503701               30.73710393                0.50213543               -1.01398162                0.18599402               -0.65537169                0.85379587               12.70039852               -1.01834452
               6.21910909               10.36697063               30.80926889                0.36791169               -2.09947915                1.06660986               -0.52172934                0.60744444               23.97228865                0.01049364
               7.19887183               10.20864275               30.87344870                0.35773973               -2.07544899                1.03544672               -0.44136457                0.05369905               23.79772877                0.13694831
               8.17760011               10.04736969               30.93905598                0.37240592               -2.27464918                1.11972409               -0.38291905               -0.12717655               24.21905671                0.22148691
               9.15337884                9.88252958               31.00932357                0.41065091               -2.76277456                1.19208883               -0.27962683               -0.40613919               25.08175366                0.39017864
              10.12234462                9.71370186               31.09045219                0.54728291               -3.59609248                1.37281380               -0.01550032               -1.52688201               25.05596330                0.96898196
              11.08145699                9.53128302               31.15955391                0.68587192               -2.00414879                0.12672209               -0.36122698               -1.94178756               13.03078669                0.93571153
              12.08226165                9.38806580               30.99896986                0.80928632                0.17483490                0.21048485               -0.73426590                0.00414976                1.00625707                0.57894362
              13.08495369                9.24609951               30.82715010                0.98129662                0.26920456                0.34620833               -1.10527083                0.06398003                0.46475032               -0.59473670
               1.64248712                0.91413735               32.46555547                1.00000000               -0.34131361               -0.36692340                1.27425257               -0.05936907               -0.92950496                0.95166730
               2.63907398                0.73194501               32.36416609                1.00000000               -0.29560023               -0.28937564                1.02746723               -0.03924563               -1.20846657                0.10701236
               3.63657512                0.54944731               32.25721265                1.00000000               -0.19524009               -0.21177649                0.76664703               -0.03538746               -1.17958591               -0.21594443
               4.63516918                0.36713344               32.15649383                0.62440957                0.08626763               -0.15433578                0.51246377                0.18929685               -0.33356092               -0.82629636
               5.63830047                0.18994444               32.06662953                0.71892040                0.22059120               -0.07552618                0.23919508               -0.07395028                0.01994156                0.27077012
               6.63958101                0.01707608               31.97397398                0.80314564                0.12117937                0.01420234               -0.02540551               -0.03427493               -0.30154603                0.15701369
               7.64072406               -0.15449832               31.87778819                0.78146640                0.14716102                0.08958910               -0.29096606               -0.01536470               -0.53840231               -0.07539539
               8.64252423               -0.32532927               31.78034044                0.85833665                0.20378705                0.17514920               -0.57143864               -0.02509652               -0.81267751                0.10494127
               9.64479980               -0.49592481               31.67848453                1.00000000                0.26234085                0.25615635               -0.84972091               -0.02423497               -1.10586805                0.57323115
              10.64777104               -0.66670374               31.57492973                1.00000000                0.33594403                0.33916609               -1.12248675               -0.03038933               -1.07031780               -0.00426764
              11.65151868               -0.83760780               31.47374120                1.00000000                0.37476335                0.43153456               -1.38835897               -0.03417038               -0.95420349               -0.94688760
               1.82408577                1.91046812               32.42325421                1.00000000               -0.30592239               -0.35200410                1.14418256               -0.01907321               -0.13812373                1.29629474
               2.82102655                1.72905125               32.32159177                1.00000000               -0.27293737               -0.26908497                0.89790738                0.00238244               -0.15189430                0.15155687
               3.81862703                1.54732954               32.21961458                0.88845951               -0.21064820               -0.18797288                0.64850535                0.00816615                0.00968120               -0.55154098
               4.81681359                1.36559008               32.12114548                0.22916536               -0.30186908               -0.13279417                0.40222787                0.27978426                1.63947529               -1.24557754
               5.81258965                1.18918918               32.05163710                0.39532689               -0.26769744                0.01099965                0.15298896               -0.07170008                2.45013586                1.04548629
               6.81145964                1.01721810               31.96785120                0.50130022               -0.04082816                0.06034106               -0.10069551                0.04622098                1.52631239                0.46552669
               7.81177308                0.84639757               31.87940255                0.40757628                0.07634350                0.10756935               -0.35594141                0.09014090                1.43912839               -0.31235632
               8.81298651                0.67642222               31.79378480                0.51574761                0.17358010                0.20123501               -0.62529613                0.05245572                1.48598735                0.53759983
               9.81524468                0.50663675               31.70639770                1.00000000                0.26610689                0.25931716               -0.87372931                0.01938872                0.76870128                0.81879202
              10.81830865                0.33668792               31.60664598                1.00000000                0.34181755                0.33812608               -1.13612465                0.01092787                0.08666415                0.12054281
              11.82208104                0.16670754               31.50561525                1.00000000                0.37723898                0.44655009               -1.40040678                0.00843734                0.02441161               -1.10482790
               2.00493939                2.90709727               32.38784148                1.00000000               -0.26791815               -0.32707547                1.02372592               -0.01251464                0.05097949                1.64011823
               3.00226021                2.72656331               32.27988917                1.00000000               -0.23698894               -0.23225919                0.77449823                0.01175192                0.22441855                0.13129277
               4.00019961                2.54568785               32.17530554                0.58875077               -0.16774867               -0.14371736                0.52558811                0.01816988                0.73240302               -1.32825577
               4.99890524                2.36447755               32.07742586                0.00010000               -0.74805834               -0.10268065                0.25900717                0.40313799                4.70500010               -2.07228011
               5.98523844                2.19016443               32.05219825                0.00010000               -0.78041007                0.01368750                0.02209470                0.63814414                5.61892427               -1.20630995
               6.98329703                2.01828290               31.96796783                0.00010000               -0.09578466               -0.07068398               -0.18995902                0.47764570                2.32173072               -0.16443442
               7.98332275                1.84765306               31.87635747                0.00010000                0.00185632               -0.06585877               -0.40277728                0.34819681                3.51454540                0.69654307
               8.98333416                1.67869543               31.81598680                0.00010000                0.07995623               -0.01424618               -0.70996811                0.20337340                4.23786923                1.28508968
               9.98492188                1.50926153               31.73934305                0.49899609                0.22923240                0.24075151               -0.89260148               -0.04678894                2.31488778                1.71190859
              10.98791881                1.34005878               31.64088784                1.00000000                0.33631507                0.31914743               -1.13756249               -0.02054752                0.82250200                0.81227372
              11.99164818                1.17132320               31.53427253                1.00000000                0.37293693                0.47184571               -1.41569913               -0.00212217                0.42104169               -1.04918731
               2.18490340                3.90392661               32.35245739                1.00000000               -0.22323965               -0.30576145                0.90083722               -0.01246152                0.10492703                1.54251776
               3.18267101                3.72440607               32.23691342                1.00000000               -0.19136130               -0.19711981                0.64760124                0.00961108                0.14913923               -0.02470259
               4.18107618                3.54445519               32.12217346                0.35128294               -0.11356214               -0.09678364                0.40257673               -0.01922774                1.10033181               -1.68300001
               5.18039977                3.36353647               32.02565141                0.00010000               -0.47644985               -0.05916840                0.15731243                0.32554526                5.18750276               -2.75624918
               6.17154718                3.18946293               31.99249294                0.00010000               -0.84379241               -0.03939969               -0.04302614                0.81242778                7.92362587               -3.02601964
               7.16352392                3.01580442               31.94937344                0.00010000               -0.66113486               -0.10556649               -0.23581613                0.57768308                7.09688220               -0.74555919
               8.15832448                2.84508039               31.89795094                0.00010000               -0.40392036               -0.15630380               -0.44250611                0.38226630                6.62464087                1.51757452
               9.15544551                2.67613730               31.84426626                0.00010000               -0.26894638               -0.16274720               -0.64707250                0.33661071                6.28324820                1.98943803
              10.15294556                2.51145178               31.78506982                0.22091309                0.01952571                0.06191608               -0.83107412                0.02759657                4.08329862                3.19253755
              11.15583602                2.34307087               31.68632805                0.92759589                0.32820979                0.27956715               -1.09716332               -0.07578355                1.09713841                1.32254466
              12.15950975                2.17614446               31.56691150                1.00000000                0.36737286                0.47474620               -1.38480766               -0.01506912                0.07324652               -0.63883367
               2.36373124                4.90098204               32.31515426                1.00000000               -0.18073992               -0.27635202                0.76759918               -0.02101930                0.15991832                1.32263802
               3.36192384                4.72262091               32.19208791                0.83582062               -0.15232922               -0.15251920                0.51230735               -0.00412340                0.24338807               -0.27483891
               4.36068466                4.54375218               32.07062286                0.20198785               -0.07577165               -0.03732476                0.26921446               -0.07061965                1.27508396               -1.73191425
               5.36040841                4.36329418               31.96818950                0.00010000               -0.57328069                0.06495095                0.03615351                0.13670721                6.79511007               -2.78979807
               6.34921904                4.18937644               31.95695736                0.00010000               -1.05875911                0.08128294               -0.11111187                0.25705592               10.99914845               -1.34016427
               7.33923323                4.01617157               31.93750158                0.00010000               -0.92919229                0.09830268               -0.26957208                0.13626941               10.30469334               -0.09939760
               8.33063520                3.84452699               31.91094096                0.00010000               -0.77691204                0.02566735               -0.44016604                0.03269107                9.82328756                1.21658084
               9.32369499                3.67544049               31.88007972                0.00010000               -0.60474794               -0.02941382               -0.61288881                0.02202777                9.64095675                2.46063559
              10.31854024                3.51049985               31.84797744                0.18757391               -0.09922640               -0.14943595               -0.78262074               -0.02228432                5.42378297                3.89946202
              11.32171046                3.34565012               31.73068114                0.70727020                0.33296885                0.21731564               -1.00376087               -0.02621935                0.68532261                1.42710421
              12.32519962                3.18081812               31.60331659                1.00000000                0.34891573                0.47148682               -1.31594064               -0.04619455                0.18483448               -0.36424432
               2.54120528                5.89839957               32.27542192                1.00000000               -0.13868729               -0.23350123                0.62497133               -0.02661182                0.13131519                1.09357669
               3.53981840                5.72135568               32.14405231                0.67282738               -0.11073822               -0.09883489                0.35682089               -0.01483983                0.31855204               -0.55441614
               4.53899051                5.54370870               32.01635906                0.13209569               -0.11543769                0.02978900                0.10634257               -0.06448300                1.84365957               -2.07088226
               5.53750965                5.36483548               31.91550274                0.00010000               -0.75897982                0.22424956               -0.08919425               -0.12763934                8.99658232               -1.35463872
               6.52381092                5.19108858               31.93083383                0.00010000               -1.32054483                0.24756613               -0.15949776               -0.05744102               14.16481536               -0.40541156
               7.51109875                5.01777048               31.93205556                0.00010000               -1.20507646                0.23158222               -0.28868145               -0.22731353               13.21603363                0.46142573
               8.49970939                4.84559374               31.92664500                0.00010000               -1.05927755                0.16176030               -0.42791743               -0.33628072               12.83209881                1.44965513
               9.48991320                4.67554902               31.91802452                0.00010000               -0.87095755                0.03562868               -0.56804361               -0.36127188               12.75338861                2.54476883
              10.48229024                4.50846306               31.90860479                0.19061728               -0.24599191               -0.17973352               -0.71351146               -0.18323592                6.79475080                3.66985609
              11.48499336                4.34741718               31.77828435                0.62143071                0.29798125                0.16572006               -0.91086401                0.03315833                0.42449694                1.53580286
              12.48824986                4.18557419               31.64109760                1.00000000                0.32564962                0.46973910               -1.24302823               -0.02758224                0.08955718               -0.27681732
               2.71728678                6.89631202               32.23356740                1.00000000               -0.09688615               -0.18106685                0.47689982               -0.02578252                0.06083460                0.92764964
               3.71631791                6.72064421               32.09353819                0.57420929               -0.06857896               -0.04767351                0.20384313               -0.01529083                0.28097439               -0.71313923
               4.71591520                6.54434796               31.95784131                0.09222209               -0.29210874                0.08873853               -0.05611611               -0.01546017                3.71125680               -2.39703825
               5.71047574                6.36777918               31.88643038                0.00010000               -1.03899818                0.31230166               -0.07660070               -0.32485910               11.87443462                0.57827609
               6.69513523                6.19432776               31.91405448                0.00010000               -1.51469687                0.38790588               -0.18492890               -0.31138981               16.41049974                0.37025914
               7.68018180                6.02080321               31.93172296                0.00010000               -1.45020991                0.38244303               -0.29892341               -0.51391283               15.79095300                0.84467449
               8.66613103                5.84776219               31.94478728                0.00010000               -1.32907866                0.28467032               -0.40718046               -0.69736998               15.59838041                1.58404424
               9.65360023                5.67615306               31.95606927                0.00010000               -1.15618355                0.10326660               -0.50877826               -0.80829168               15.65391726                2.47422108
              10.64300736                5.50690518               31.96750352                0.21012177               -0.41688679               -0.11695363               -0.60181776               -0.44461832                8.10049649                3.44168925
              11.64526249                5.34896452               31.82502412                0.57638036                0.26632913                0.15943233               -0.85547287                0.04382861                0.23698825                1.42352063
              12.64833395                5.19021291               31.67891354                0.99532525                0.30714537                0.45830914               -1.20309443               -0.01336529                0.06405690               -0.31891435
               2.89202523                7.89477823               32.19052421                1.00000000               -0.05485846               -0.12572583                0.33001602               -0.02451888                0.02282153                0.85294930
               3.89147665                7.72040221               32.04221243                0.52854309               -0.02394421               -0.00356012                0.05429715               -0.00951873                0.17309015               -0.75254257
               4.89154635                7.54548347               31.89682982                0.06614803               -0.52219901                0.12794747               -0.21769752                0.03818285                6.38343198               -2.54455820
               5.88103267                7.37108152               31.87272281                0.00010000               -1.34936321                0.38559074               -0.04580309               -0.24954523               15.22259404                1.08158706
               6.86455908                7.19884670               31.90388091                0.00010000               -1.68233022                0.54000287               -0.21705786               -0.33912890               18.05989656                0.72178353
               7.84738606                7.02541934               31.93452289                0.00010000               -1.70734718                0.57723433               -0.30958511               -0.67786610               18.09038155                0.97815431
               8.83041214                6.85128715               31.96387013                0.00010000               -1.63908395                0.45578999               -0.38207562               -1.02782950               18.16478919                1.56534210
               9.81460438                6.67761436               31.99323041                0.00010000               -1.49128660                0.21889342               -0.44364829               -1.26094937               18.37697756                2.30252866
              10.80058641                6.50612399               32.02393030                0.24045693               -0.60210856               -0.04102487               -0.48584891               -0.73266434                9.35713615                3.12748657
              11.80256221                6.35060583               31.87025993                0.55518385                0.24496926                0.17331994               -0.81279591                0.02597663                0.08969811                1.25607494
              12.80548579                6.19474038               31.71537251                0.97600415                0.29235807                0.43970647               -1.17270100               -0.00213628                0.03931404               -0.45548583
               3.06554843                8.89379750               32.14714899                1.00000000               -0.01261344               -0.07176884                0.18534092               -0.02343940                0.00673093                0.84986170
               4.06542230                8.72057301               31.99079985                0.53105054                0.02255573                0.03691091               -0.09278660               -0.00352124                0.04532193               -0.74505432
               5.06599955                8.54690691               31.83513905                0.04406008               -0.66503481                0.15192175               -0.37815376                0.13645724                8.83478536               -2.40549658
               6.05212160                8.37549099               31.85455106                0.00010000               -1.59923559                0.54784216               -0.18678458                0.05236319               18.69130956                0.51435934
               7.03401484                8.20512782               31.89482761                0.00010000               -1.89687840                0.75443230               -0.28418588               -0.19093287               19.97057424                0.61878541
               8.01418403                8.03234790               31.93765707                0.00010000               -2.03177062                0.81969966               -0.33189566               -0.66253081               20.32315651                0.83361145
               8.99337942                7.85687799               31.98249749                0.00010000               -2.03198182                0.74835309               -0.34657891               -1.19859991               20.61913511                1.32885634
               9.97354440                7.68053093               32.02852287                0.02109058               -1.90084096                0.40793028               -0.37618527               -1.74167090               20.92921802                2.22131670
              10.95536260                7.50608468               32.07664466                0.27868854               -0.81893810                0.03050836               -0.40797329               -1.04230875               10.58548719                2.64815486
              11.95716564                7.35243092               31.91340306                0.55319041                0.23297590                0.19420428               -0.78432419               -0.00281463                0.01927581                1.05381955
              12.96002212                7.19900704               31.74993191                0.96451304                0.28564862                0.40881320               -1.15472825                0.00659800                0.02077813               -0.63694106
               3.23800542                9.89334285               32.10397965                1.00000000                0.02913954               -0.02178660                0.04305087               -0.02279626               -0.01565194                0.74771576
               4.23829681                9.72114043               31.93952937                0.55884901                0.06760464                0.07675607               -0.23758563               -0.00091903                0.07247508               -0.62838659
               5.23935751                9.54852191               31.77674996                0.00959450               -0.72188973                0.17446700               -0.52529516                0.33136445               10.96024685               -1.62777866
               6.22385902                9.38203836               31.83001295                0.00010000               -1.77369981                0.83246635               -0.39446304                0.27577650               21.87536506                0.10200940
               7.20388352                9.21393535               31.88327878                0.00010000               -2.07368760                0.94010105               -0.38406899               -0.03105718               22.10931632                0.31537195
               8.18238527                9.04181333               31.93840190                0.00010000               -2.28132025                1.02016418               -0.37481344               -0.41362316               22.54620309                0.47000241
               9.15825711                8.86625421               31.99782415                0.00010000               -2.59104962                1.05929224               -0.32178937               -0.95623043               23.25386901                0.78190542
              10.13056428                8.68577296               32.06478801                0.06479638               -2.52084358                0.94098494               -0.17966411               -1.67146507               23.31440357                1.68038974
              11.10784024                8.50673416               32.12337388                0.32348540               -1.04903543                0.10546153               -0.39068518               -1.36101574               11.64275038                1.63570789
              12.10958357                8.35448991               31.95432150                0.56439514                0.23126446                0.21816678               -0.78143092               -0.02686760                0.12847604                0.75991464
              13.11246553                8.20291664               31.78228001                0.95036532                0.28819614                0.37845262               -1.15671485                0.00884702               -0.00434244               -0.66999863
               3.40949735               10.89336177               32.05846501                1.00000000                0.07275125                0.00189134               -0.09641090                0.02383010                0.40952340                0.63643528
               4.41022487               10.72210813               31.89037033                0.81808747                0.11157764                0.09677019               -0.37874672                0.04452923                0.82745768               -0.51922263
               5.41172891               10.55039625               31.73053337                0.50117763               -0.90005881                0.18743409               -0.65955109                0.73874884               12.90457104               -1.01736008
               6.39222369               10.39214032               31.80391989                0.36814745               -1.90550913                1.01019572               -0.55125583                0.51314666               24.37783599               -0.03445916
               7.37361872               10.22392984               31.86882672                0.35789965               -1.93154896                0.99944897               -0.48844848                0.00406424               24.18734079                0.13338240
               8.35359271               10.05275118               31.93496028                0.37219987               -2.16617712                1.09378552               -0.44374903               -0.17255553               24.63805125                0.23497704
               9.33029518                9.87806384               32.00623768                0.40982518               -2.69787810                1.18096310               -0.34891422               -0.46622054               25.62487253                0.42678501
              10.29963515                9.69935063               32.09012734                0.55048642               -3.54349221                1.35776675               -0.07114235               -1.58640882               25.37955015                1.12228732
              11.25942534                9.50819391               32.15557661                0.68647955               -1.95946751                0.14597584               -0.43263001               -1.96930858               13.04476382                0.92806085
              12.26044580                9.35679426               31.99126609                0.79960447                0.19601353                0.23043454               -0.80656031                0.00533197                1.01845144                0.58111468
              13.26334561                9.20657609               31.81576333                0.97439630                0.28998094                0.36594471               -1.17448714                0.06619095                0.47981192               -0.59287330
               1.73573697                0.96667243               33.47828292                1.00000000               -0.34300773               -0.36710672                1.27282194               -0.05825235               -0.94393751                0.96412793
               2.73230689                0.77625059               33.37443760                1.00000000               -0.29944954               -0.28796380                1.02718489               -0.03833103               -1.23084441                0.11041677
               3.72974798                0.58545730               33.26488592                1.00000000               -0.20241008               -0.21181995                0.76904773               -0.03823712               -1.20524985               -0.21246062
               4.72825869                0.39467679               33.16165384                0.62547816                0.06015543               -0.15918779                0.51974103                0.14910913               -0.36747002               -0.83431281
               5.73095109                0.20807189               33.06901767                0.71764147                0.19736482               -0.07763823                0.23720221               -0.07162930               -0.01256156                0.27423292
               6.73220598                0.02515116               32.97375653                0.80245182                0.12181298                0.01067452               -0.01894806               -0.04010040               -0.31894582                0.16015539
               7.73338734               -0.15653298               32.87494938                0.78515948                0.15306829                0.08516522               -0.27672705               -0.02091897               -0.56018417               -0.07173471
               8.73526735               -0.33745985               32.77471989                0.86264430                0.21329784                0.16850630               -0.54841990               -0.03167745               -0.84199362                0.10492595
               9.73765330               -0.51795495               32.67008934                1.00000000                0.26863288                0.24846610               -0.82427176               -0.03217115               -1.13617281                0.57952147
              10.74064001               -0.69842945               32.56378171                1.00000000                0.33531039                0.33680357               -1.10321835               -0.02992065               -1.09749067               -0.00888907
              11.74435951               -0.87904022               32.45990851                1.00000000                0.37195009                0.43387153               -1.37485168               -0.02918282               -0.97915972               -0.97393176
               1.92557629                1.96300137               33.43466968                1.00000000               -0.30451381               -0.35339546                1.13991854               -0.01695710               -0.14292080                1.31293111
               2.92253115                1.77337095               33.33055678                1.00000000               -0.27118907               -0.26843980                0.89573515                0.00342006               -0.15889461                0.15783503
               3.92015251                1.58333910               33.22610427                0.90365645               -0.20443320               -0.18739070                0.64354399                0.00063556                0.00032246               -0.54599433
               4.91844248                1.39308491               33.12513844                0.23817226               -0.25774496               -0.14081834                0.38621068                0.22946590                1.63016709               -1.25780147
               5.91499761                1.20729550               33.05308621                0.40011654               -0.21675358                0.00388027                0.13380020               -0.06536137                2.45005098                1.02367532
               6.91410741                1.02525791               32.96682172                0.50590367               -0.02569717                0.05610686               -0.10967886                0.02797435                1.53081343                0.46201393
               7.91448366                0.84431867               32.87585838                0.41555050                0.07770732                0.11044951               -0.35601527                0.06838537                1.43658905               -0.30071648
               8.91566156                0.66422521               32.78754357                0.51809638                0.16663618                0.20013309               -0.62034956                0.02807524                1.48852660                0.52005391
               9.91781639                0.48452972               32.69763740                1.00000000                0.26109403                0.25658871               -0.87616141                0.00460927                0.77623007                0.82537933
              10.92088344                0.30493859               32.59524572                1.00000000                0.34310352                0.33963209               -1.14374257                0.01182400                0.08742506                0.11984058
              11.92467846                0.12529849               32.49154261                1.00000000                0.37950165                0.45688496               -1.41430708                0.01406737                0.02531883               -1.13629871
               2.11465865                2.95960452               33.39804123                1.00000000               -0.26210914               -0.33022423                1.01667657               -0.01146147                0.05110376                1.65973073
               3.11203756                2.77088179               33.28760303                1.00000000               -0.23059624               -0.23243287                0.76920321                0.00904946                0.22808370                0.14014596
               4.11004673                2.58170948               33.18061719                0.60325796               -0.15729812               -0.13805080                0.53089727               -0.00786631                0.72903251               -1.32498434
               5.10889160                2.39186042               33.08012177                0.00010000               -0.62879327               -0.10590562                0.26183384                0.32581839                4.68996334               -2.07509558
               6.09747086                2.20814949               33.05221932                0.00010000               -0.65746487                0.00176669               -0.01741700                0.48388379                5.64768889               -1.20199135
               7.09574230                2.02627330               32.96599025                0.00010000               -0.08415563               -0.06264066               -0.21208156                0.32657681                2.37904538               -0.14926055
               8.09578775                1.84567601               32.87227372                0.00010000               -0.00622441               -0.05051822               -0.42092761                0.21398180                3.52063048                0.72073928
               9.09561781                1.66654281               32.80882303                0.00010000                0.06221784               -0.00124409               -0.72003042                0.09713503                4.26511694                1.32122207
              10.09703211                1.48717683               32.73028309                0.48734119                0.22449485                0.22942526               -0.92408364               -0.09085277                2.38168096                1.76905461
              11.10010771                1.30836320               32.62936809                1.00000000                0.34444710                0.32388418               -1.17058318               -0.02782022                0.84751047                0.84072090
              12.10392105                1.13009748               32.51993118                1.00000000                0.38133382                0.49358330               -1.45759806               -0.00024253                0.43303766               -1.05605703
               2.30279252                3.95639688               33.36141797                1.00000000               -0.21853361               -0.30910290                0.89165811               -0.01434135                0.10979752                1.55513716
               3.30060718                3.76872229               33.24336304                1.00000000               -0.18879835               -0.19562979                0.64217136                0.00462993                0.15827616               -0.02108160
               4.29901655                3.58057808               33.12619412                0.35650957               -0.10441690               -0.08690310                0.40214704               -0.05477304                1.11189618               -1.68678240
               5.29851884                3.39096680               33.02720577                0.00010000               -0.43770721               -0.04178380                0.15368972                0.21661492                5.22024427               -2.75352124
               6.29026241                3.20733084               32.99201577                0.00010000               -0.77032071               -0.04241506               -0.05565715                0.57345053                7.98346604               -2.98113318
               7.28311243                3.02400509               32.94689646                0.00010000               -0.58843080               -0.10009891               -0.26237206                0.34556973                7.16004173               -0.69611954
               8.27849379                2.84330831               32.89338127                0.00010000               -0.35044930               -0.14900024               -0.47377129                0.17074410                6.68985583                1.56829974
               9.27610344                2.66420033               32.83761615                0.00010000               -0.21574232               -0.15678646               -0.68744076                0.16310418                6.36348763                2.08948082
              10.27417894                2.48911822               32.77668511                0.21392191                0.06514722                0.02653652               -0.84299077               -0.03880231                4.11607832                3.23927950
              11.27740639                2.31141627               32.67520980                0.89383405                0.35130493                0.27874971               -1.14235861               -0.07818462                1.12177268                1.40478676
              12.28120504                2.13517016               32.55290178                1.00000000                0.37986553                0.49656936               -1.43125991               -0.02080582                0.10324240               -0.58977571
               2.48972100                4.95342247               33.32277679                1.00000000               -0.17720370               -0.27871792                0.75704694               -0.02330889                0.16839624                1.32463511
               3.48794896                4.76696920               33.19717617                0.82833337               -0.15071182               -0.14817081                0.50540730               -0.00890362                0.25792650               -0.28572675
               4.48670676                4.57997142               33.07329688                0.20193940               -0.07389108               -0.02713725                0.26516827               -0.09582529                1.29846296               -1.75165006
               5.48647114                4.39102475               32.96851159                0.00010000               -0.54025917                0.08913085                0.02763253                0.02031717                6.85883400               -2.78201765
               6.47590158                4.20730119               32.95580460                0.00010000               -0.98974579                0.08294567               -0.12320819                0.07720805               11.10848716               -1.29212931
               7.46667622                4.02427132               32.93468205                0.00010000               -0.84470904                0.08507281               -0.29781011               -0.04669864               10.40781566               -0.03494411
               8.45900740                3.84269601               32.90634904                0.00010000               -0.68031196                0.01047293               -0.48342106               -0.14087171                9.92922272                1.29749851
               9.45306999                3.66340708               32.87371493                0.00010000               -0.49836415               -0.04780155               -0.66804581               -0.15245629                9.76584767                2.55570858
              10.44904012                3.48770756               32.83998613                0.18001956               -0.02889530               -0.18163933               -0.84358701               -0.09493990                5.55312382                3.96358746
              11.45249208                3.31393819               32.72060154                0.67466649                0.34785220                0.20974732               -1.01235925               -0.02257121                0.74538094                1.53032331
              12.45599716                3.14002886               32.59011787                1.00000000                0.35050800                0.48984901               -1.33191881               -0.05104652                0.19723639               -0.29084953
               2.67523287                5.95082252               33.28161063                1.00000000               -0.13527192               -0.23460005                0.61288312               -0.02816913                0.13174928                1.08730347
               3.67388016                5.76575888               33.14758205                0.66570872               -0.10941896               -0.09296859                0.34904674               -0.01923987                0.32773448               -0.57326490
               4.67304450                5.58003533               33.01740552                0.13023419               -0.11423698                0.04128109                0.10287272               -0.08874224                1.89016992               -2.10248369
               5.67159542                5.39274942               32.91464493                0.00010000               -0.72422512                0.22537645               -0.08054616               -0.25292654                9.12829417               -1.27142616
               6.65855999                5.20898975               32.92921445                0.00010000               -1.24058885                0.23540365               -0.16764804               -0.24681911               14.32973895               -0.33515126
               7.64678364                5.02570655               32.92903347                0.00010000               -1.10096977                0.20852238               -0.32036447               -0.39700740               13.35577953                0.53699917
               8.63654060                4.84351777               32.92214594                0.00010000               -0.93704373                0.13183832               -0.47851850               -0.49847501               12.98166942                1.54084663
               9.62804276                4.66324430               32.91207024                0.00010000               -0.73957814                0.00679156               -0.63320061               -0.53407625               12.91956380                2.65333921
              10.62174903                4.48548543               32.90117584                0.18236573               -0.17045535               -0.19518950               -0.78436161               -0.27124344                6.96131867                3.78691765
              11.62463366                4.31561122               32.76907510                0.59610124                0.31268637                0.16801069               -0.94552747                0.03204816                0.50116066                1.62449385
              12.62800276                4.14496714               32.62852090                0.99885355                0.33691051                0.49422330               -1.29176664               -0.02316060                0.09351030               -0.21876140
               2.85928490                6.94873047               33.23826747                1.00000000               -0.09335519               -0.18061279                0.46321164               -0.02674808                0.05982388                0.91881204
               3.85835135                6.76510983               33.09553364                0.56741061               -0.06717625               -0.04163835                0.19494906               -0.01923292                0.28649355               -0.72836275
               4.85794138                6.58079704               32.95726354                0.08930536               -0.29465794                0.10104785               -0.06008390               -0.05611579                3.85477555               -2.42602869
               5.85245819                6.39553228               32.88591484                0.00010000               -0.99666581                0.28298924               -0.02648136               -0.46195404               12.07672116                0.72646782
               6.83800806                6.21200926               32.91219161                0.00010000               -1.41250674                0.35936616               -0.19234459               -0.49604326               16.56041644                0.44497990
               7.82420806                6.02844177               32.92858260                0.00010000               -1.32539560                0.34720521               -0.33457435               -0.68133840               15.96289652                0.92274202
               8.81150015                5.84533277               32.94047541                0.00010000               -1.18936327                0.24484669               -0.46232394               -0.85573621               15.79566746                1.68084995
               9.80042079                5.66354291               32.95069086                0.00010000               -1.01259139                0.07070069               -0.57621632               -0.97602998               15.88000226                2.59527446
              10.79124832                5.48380377               32.96118196                0.20176867               -0.33847285               -0.12439239               -0.67498031               -0.52837722                8.27843971                3.59838891
              11.79365134                5.31729840               32.81629085                0.55548346                0.27868914                0.17459841               -0.89861484                0.05013148                0.29094917                1.50091887
              12.79682211                5.14991333               32.66666449                0.97410549                0.31707699                0.48913767               -1.25613770               -0.01037482                0.06625220               -0.26632585
               3.04193919                7.94721027               33.19374686                1.00000000               -0.05102689               -0.12342421                0.31460547               -0.02511073                0.02191758                0.84566073
               4.04142892                7.76492611               33.04270700                0.52259823               -0.02197300                0.00182706                0.04421321               -0.01190941                0.17379637               -0.76429291
               5.04149973                7.58205629               32.89462802                0.06303991               -0.51424038                0.13862172               -0.22415802               -0.02995285                6.61678362               -2.57136766
               6.03114411                7.39840920               32.87244283                0.00010000               -1.28850474                0.35241698               -0.01830588               -0.38429248               15.50186666                1.12681263
               7.01572964                7.21617707               32.90165697                0.00010000               -1.56553766                0.50566035               -0.23323265               -0.50399381               18.20267372                0.77074062
               7.99983336                7.03265065               32.93124726                0.00010000               -1.57024517                0.53563711               -0.35166866               -0.84037524               18.30281555                1.04761251
               8.98432473                6.84841470               32.95978920                0.00010000               -1.48910959                0.40835293               -0.44142644               -1.18441129               18.41376313                1.66657190
               9.97005117                6.66465831               32.98850209                0.00010000               -1.34493674                0.18215012               -0.50994263               -1.41535395               18.66566053                2.42585190
              10.95742600                6.48299759               33.01880823                0.23287694               -0.52622216               -0.03920190               -0.54573271               -0.80943389                9.53587709                3.27120760
              11.95952673                6.31910319               32.86192563                0.53651032                0.25697075                0.18880870               -0.85751189                0.03272168                0.10941191                1.32515982
              12.96256541                6.15474989               32.70340882                0.95862103                0.30386869                0.46826500               -1.22464751                0.00088039                0.04079230               -0.40603368
               3.22335100                8.94626198               33.14891570                1.00000000               -0.00838611               -0.06774232                0.16809768               -0.02375329                0.00590377                0.84472548
               4.22326714                8.76514637               32.98981873                0.52720271                0.02541159                0.04147418               -0.10388328               -0.00440749                0.04011199               -0.75386401
               5.22385923                8.58356948               32.83132056                0.04169305               -0.63077888                0.15854428               -0.38600436                0.05253354                9.06012560               -2.42258304
               6.21065156                8.40258062               32.85258928                0.00010000               -1.50862491                0.52833464               -0.21393082               -0.08875555               19.02451130                0.44423699
               7.19368673                8.22212247               32.89185253                0.00010000               -1.77443179                0.72097687               -0.31609537               -0.34120021               20.19219777                0.63331268
               8.17516293                8.03915451               32.93411353                0.00010000               -1.89412326                0.78093155               -0.38371743               -0.81310074               20.59795415                0.88445880
               9.15580427                7.85349983               32.97874259                0.00010000               -1.88160483                0.70459526               -0.41351697               -1.34978679               20.92449799                1.42495158
              10.13753083                7.66718591               33.02445332                0.02003267               -1.75947503                0.36593665               -0.44563529               -1.89013827               21.25472289                2.40402865
              11.12061477                7.48301973               33.07233113                0.27305932               -0.74886832                0.04002072               -0.45675402               -1.10794887               10.75466649                2.73884652
              12.12255346                7.32107458               32.90532492                0.53518108                0.24657673                0.20965135               -0.83288605                0.00119780                0.01532038                1.10208946
              13.12554630                7.15927863               32.73813026                0.94935672                0.29928398                0.43280704               -1.20821928                0.00932142                0.02029117               -0.60250279
               3.40369535                9.94585542               33.10431326                1.00000000                0.03379263               -0.01640064                0.02380559               -0.02298788               -0.01675953                0.74508922
               4.40403328                9.76575560               32.93709751                0.55641502                0.07104010                0.08076046               -0.24941321               -0.00129325                0.06774609               -0.63381136
               5.40511615                9.58522718               32.77147752                0.00922349               -0.66086342                0.17767587               -0.53073104                0.23821701               11.15205031               -1.63075958
               6.39081601                9.40897589               32.82589597                0.00010000               -1.63922082                0.79434735               -0.43364998                0.15451666               22.22874910                0.03918708
               7.37233174                9.23059661               32.87922664                0.00010000               -1.93110124                0.90460187               -0.43131413               -0.14075470               22.41986296                0.31294307
               8.35219398                9.04826928               32.93437247                0.00010000               -2.15170709                0.98989792               -0.43881065               -0.51513766               22.89174606                0.49610512
               9.32929759                8.86250661               32.99426863                0.00010000               -2.47327401                1.03691912               -0.40150848               -1.06936378               23.68693624                0.84365130
              10.30272850                8.67197704               33.06267220                0.06788163               -2.39596197                0.91415145               -0.26475964               -1.78213705               23.64420151                1.87812647
              11.28137836                8.48379800               33.11920380                0.32153617               -0.97183609                0.12095160               -0.44218907               -1.40410384               11.72065425                1.66005554
              12.28329178                8.32329621               32.94622440                0.54590439                0.24826898                0.23621675               -0.83800999               -0.02507352                0.12098426                0.77862789
              13.28634373                8.16340603               32.77042122                0.93635509                0.30519528                0.39983891               -1.21674693                0.01143944               -0.00291529               -0.65478271
               3.58309089               10.94593397               33.05739520                1.00000000                0.07786238                0.00785473               -0.11744494                0.02231528                0.40802786                0.63519162
               4.58386952               10.76676158               32.88652208                0.81755834                0.11561896                0.10059818               -0.39170207                0.04307539                0.82645019               -0.52246218
               5.58540327               10.58712299               32.72391291                0.50031140               -0.77485285                0.18958158               -0.66647341                0.61401143               13.09025038               -1.01429168
               6.56837246               10.41846756               32.79824377                0.36836651               -1.69125123                0.94916688               -0.58645186                0.41022101               24.74959400               -0.07218796
               7.55157825               10.24021451               32.86367973                0.35805612               -1.77111421                0.96178960               -0.54639998               -0.05110337               24.54867888                0.12824808
               8.53295018               10.05895247               32.93018100                0.37196894               -2.04345070                1.06831840               -0.52050736               -0.22319529               25.03294935                0.24821646
               9.51070924                9.87423821               33.00234528                0.40897417               -2.61767414                1.17316070               -0.44404098               -0.53301228               26.15598974                0.46500556
              10.48059669                9.68546894               33.08902935                0.55341593               -3.47478573                1.34918983               -0.17989967               -1.65315342               25.70906092                1.28155793
              11.44121352                9.48543876               33.15090131                0.68689948               -1.90763675                0.16407625               -0.50035537               -1.99998487               13.06140016                0.91880028
              12.44244396                9.32579891               32.98283865                0.79007537                0.21709664                0.25026981               -0.87785780                0.00705008                1.02945682                0.58380321
              13.44555545                9.16727541               32.80366036                0.96756621                0.31114938                0.38693749               -1.24714269                0.06882150                0.49468968               -0.58624673
               1.83129903                1.02064640               34.49101191                1.00000000               -0.34449270               -0.36779609                1.27394472               -0.05772860               -0.95689837                0.97418958
               2.82785410                0.82191497               34.38470979                1.00000000               -0.30225752               -0.28724607                1.02728339               -0.03825183               -1.24888890                0.11623046
               3.82525387                0.62276141               34.27259361                1.00000000               -0.20830314               -0.20830235                0.76917929               -0.04205534               -1.22225639               -0.21108900
               4.82368804                0.42347798               34.16688865                0.62692737                0.03463380               -0.15118662                0.51929236                0.10122491               -0.39842584               -0.85167911
               5.82594655                0.22729201               34.07137358                0.71481377                0.17911732               -0.08309851                0.23171530               -0.07037595               -0.04529023                0.28008587
               6.82727038                0.03414880               33.97359502                0.79809185                0.13052310                0.00758620               -0.01684420               -0.04881517               -0.32614514                0.16272216
               7.82855701               -0.15775101               33.87225365                0.78544400                0.16370062                0.08099100               -0.26596335               -0.02874554               -0.56639528               -0.06772625
               8.83054439               -0.34887811               33.76937204                0.86776019                0.22287543                0.15982755               -0.52140086               -0.04061319               -0.85261558                0.10571788
               9.83301452               -0.53943051               33.66199909                1.00000000                0.27288348                0.23810980               -0.79410905               -0.04130961               -1.15633442                0.58329968
              10.83600206               -0.72980954               33.55286537                1.00000000                0.33336830                0.33078858               -1.07782500               -0.03121873               -1.11925138               -0.01075209
              11.83968189               -0.92035464               33.44624417                1.00000000                0.36798235                0.43135406               -1.35537187               -0.02333577               -0.99806850               -0.99419145
               2.02945316                2.01696843               34.44605258                1.00000000               -0.30390860               -0.35514021                1.13803742               -0.01565053               -0.14741526                1.32731866
               3.02641407                1.81904251               34.33950647                1.00000000               -0.27006714               -0.26775020                0.89366733                0.00508846               -0.17050495                0.16537568
               4.02405182                1.62067838               34.23248545                0.91731671               -0.19895456               -0.18315478                0.63426448               -0.00343748               -0.02184289               -0.53094285
               5.02243498                1.42196612               34.12886969                0.24727770               -0.20722169               -0.12848384                0.36655060                0.15984890                1.61028174               -1.25432651
               6.01990738                1.22646103               34.05431311                0.40408092               -0.15656203               -0.00484833                0.11059018               -0.06821288                2.45489897                1.00362209
               7.01930374                1.03422466               33.96565762                0.50787158               -0.00621847                0.05370759               -0.12694779                0.00755184                1.54665956                0.46005844
               8.01978301                0.84305890               33.87228225                0.42031315                0.08371352                0.11479852               -0.36464640                0.04205333                1.44729216               -0.28967735
               9.02097801                0.65272016               33.78137781                0.51831483                0.16420626                0.19627036               -0.61572832               -0.00127891                1.49534492                0.50801689
              10.02306714                0.46295059               33.68887448                1.00000000                0.25869643                0.25127105               -0.87504456               -0.01129547                0.78231226                0.83027720
              11.02615194                0.27349835               33.58377113                1.00000000                0.34632454                0.33593291               -1.15056849                0.01135901                0.08799933                0.12254993
              12.02999363                0.08395890               33.47732911                1.00000000                0.38416888                0.45987660               -1.42684660                0.02109946                0.02673187               -1.16336678
               2.22683786                3.01354359               34.40817501                1.00000000               -0.25919379               -0.33373202                1.01163800               -0.01055854                0.04962450                1.67822848
               3.22424592                2.81655997               34.29527324                1.00000000               -0.22881668               -0.23156061                0.76545914                0.01005180                0.22958343                0.15040715
               4.22226152                2.61909831               34.18592348                0.61823060               -0.15717734               -0.13192637                0.52715350               -0.01160583                0.71275225               -1.30690264
               5.22110237                2.42090831               34.08266254                0.00010000               -0.49688866               -0.09449483                0.24549920                0.23223741                4.64016900               -2.03720017
               6.21232375                2.22719504               34.05184991                0.00010000               -0.51394119               -0.01030188               -0.05428912                0.29665403                5.66290197               -1.18385875
               7.21082355                2.03522295               33.96372620                0.00010000               -0.07105851               -0.05172164               -0.24411685                0.17027129                2.44437270               -0.12500055
               8.21090258                1.84454496               33.86793892                0.00010000               -0.00982095               -0.03439179               -0.45208683                0.07216185                3.53906601                0.74986519
               9.21062713                1.65504729               33.80158620                0.00010000                0.05539252                0.01574251               -0.73312959               -0.02583237                4.28381355                1.35362497
              10.21201043                1.46559491               33.72086137                0.45628958                0.22969012                0.17918701               -0.96219394               -0.17659197                2.44140580                1.85751027
              11.21522093                1.27690912               33.61747617                1.00000000                0.35861692                0.32174088               -1.21055759               -0.04245710                0.87272907                0.87447048
              12.21918277                1.08884289               33.50512057                1.00000000                0.39618370                0.51016724               -1.50216998                0.00322812                0.44005040               -1.05839070
               2.42320923                4.01029379               34.37029055                1.00000000               -0.21488410               -0.31307532                0.88428426               -0.01512172                0.11299558                1.56809277
               3.42106039                3.81441130               34.24975685                1.00000000               -0.18689326               -0.19363038                0.63689460                0.00312099                0.16590295               -0.01495489
               4.41947136                3.61803986               34.13021640                0.36066045               -0.10386955               -0.07952697                0.40133141               -0.06390566                1.11843005               -1.68598918
               5.41898300                3.42007622               34.02872520                0.00010000               -0.39727729               -0.03468145                0.15184891                0.10950687                5.22992026               -2.71885100
               6.41152582                3.22625499               33.99137980                0.00010000               -0.68118719               -0.04299383               -0.07686678                0.30042953                8.02491406               -2.91549095
               7.40535925                3.03319023               33.94412600                0.00010000               -0.50619554               -0.09436393               -0.29500155                0.10688103                7.21300171               -0.63613309
               8.40140191                2.84237106               33.88847551                0.00010000               -0.29739199               -0.14163342               -0.51202363               -0.04355134                6.75134149                1.62443185
               9.39941141                2.65303501               33.83051745                0.00010000               -0.18642162               -0.14733621               -0.73034814               -0.05445065                6.47122420                2.17971138
              10.39767348                2.46653433               33.76821000                0.20332287                0.13217013               -0.01570153               -0.93429088               -0.11980829                4.20296928                3.36278456
              11.40205482                2.27993316               33.66348088                0.83211840                0.42585846                0.27410852               -1.23800476               -0.05533382                1.13084605                1.53609309
              12.40619065                2.09416224               33.53828630                1.00000000                0.41358281                0.52695580               -1.52029808               -0.03064694                0.15034037               -0.50988777
               2.61830041                5.00728208               34.33029520                1.00000000               -0.17381308               -0.28194211                0.74770304               -0.02506236                0.17551719                1.32745828
               3.61656227                4.81268736               34.20219605                0.82102378               -0.14909577               -0.14391962                0.49876879               -0.01282477                0.27017410               -0.29455792
               4.61531849                4.61750777               34.07592623                0.20107133               -0.07424492               -0.01737457                0.26018806               -0.11065095                1.31600796               -1.76883607
               5.61507738                4.42021468               33.96874215                0.00010000               -0.50500794                0.09637465                0.02286487               -0.09445003                6.91672394               -2.75499347
               6.60521833                4.22633517               33.95449320                0.00010000               -0.91161410                0.08717766               -0.14205586               -0.11938361               11.20299513               -1.23150708
               7.59684509                4.03333567               33.93154538                0.00010000               -0.75157817                0.07098398               -0.33377084               -0.23496366               10.49205883                0.03617974
               8.59018677                3.84171229               33.90127254                0.00010000               -0.57351216               -0.00433781               -0.53690662               -0.31655027               10.01839773                1.37966575
               9.58537485                3.65210057               33.86671880                0.00010000               -0.37353274               -0.06975655               -0.74266787               -0.32841246                9.86647678                2.65671027
              10.58271611                3.46528088               33.83110570                0.17092894                0.05557422               -0.17643680               -0.94002534               -0.14355037                5.69522502                4.05754771
              11.58648634                3.28239129               33.71043396                0.63872296                0.36977760                0.21422910               -1.05565606               -0.01410881                0.84509200                1.67433012
              12.59011167                3.09938201               33.57667822                1.00000000                0.36253295                0.52450542               -1.40039311               -0.04903723                0.22185043               -0.18925355
               2.81189743                6.00465495               34.28767958                1.00000000               -0.13192203               -0.23650305                0.60160671               -0.02967895                0.13153962                1.08163558
               3.81057821                5.81153291               34.15103324                0.65766816               -0.10831973               -0.08676767                0.34120576               -0.02365751                0.33633009               -0.59087795
               4.80973103                5.61769237               34.01841651                0.12752665               -0.11558021                0.05485540                0.09899704               -0.11090889                1.94165573               -2.13154644
               5.80826660                5.42200371               33.91389182                0.00010000               -0.68569400                0.21479787               -0.06927458               -0.38445536                9.25021710               -1.15036748
               6.79601715                5.22799854               33.92748087                0.00010000               -1.14918710                0.22248336               -0.18225778               -0.44681668               14.46827592               -0.25417900
               7.78528286                5.03460991               33.92564827                0.00010000               -0.98555727                0.18542953               -0.36173699               -0.57016975               13.46903542                0.61823704
               8.77630601                4.84228431               33.91707463                0.00010000               -0.80041414                0.10118207               -0.54320686               -0.66103362               13.10635247                1.63890206
               9.76927458                4.65163988               33.90536051                0.00010000               -0.58971280               -0.02369354               -0.72020286               -0.70799203               13.06596560                2.77855384
              10.76451175                4.46300559               33.89291756                0.17314120               -0.08015322               -0.20201577               -0.88859482               -0.35810409                7.14757300                3.94055579
              11.76767151                4.28421774               33.75937380                0.57013776                0.33583559                0.18705430               -1.01064707                0.03796858                0.60326495                1.73623804
              12.77122846                4.10465235               33.61526227                0.97329645                0.35569496                0.53082327               -1.37128703               -0.01653681                0.09491865               -0.13685433
               3.00395091                7.00255202               34.24283163                1.00000000               -0.08992002               -0.18058702                0.45012318               -0.02770704                0.05841885                0.91016640
               4.00305171                6.81095201               34.09743717                0.55967303               -0.06607015               -0.03508243                0.18540830               -0.02269664                0.29169976               -0.74282607
               5.00262951                6.61860488               33.95663963                0.08581940               -0.29848092                0.11533700               -0.06588903               -0.10131078                4.02378982               -2.45556363
               5.99708209                6.42451063               33.88590075                0.00010000               -0.94768526                0.24698059                0.02099262               -0.60227993               12.27552438                0.88405348
               6.98367580                6.23078484               33.91020759                0.00010000               -1.29630785                0.33010292               -0.20901815               -0.68377016               16.66270923                0.52352548
               7.97115594                6.03704426               33.92503147                0.00010000               -1.18698403                0.31153726               -0.38167995               -0.85108084               16.10553531                1.00666248
               8.95993612                5.84373593               33.93554081                0.00010000               -1.03311045                0.20335473               -0.53303539               -1.01455002               15.96960592                1.78835854
               9.95049373                5.65162670               33.94454495                0.00010000               -0.84799772                0.03645253               -0.66524236               -1.14356939               16.09111041                2.73665580
              10.94297617                5.46124056               33.95400392                0.19240990               -0.24473910               -0.13033136               -0.77825493               -0.60628307                8.47474100                3.78805620
              11.94559894                5.28613237               33.80705182                0.53425284                0.29677721                0.19286030               -0.95281699                0.06181303                0.36790923                1.60753054
              12.94891171                5.10999847               33.65379079                0.95425456                0.33127678                0.52507868               -1.32067912               -0.00805041                0.07045935               -0.17655857
               3.19454331                8.00104321               34.19681632                1.00000000               -0.04718974               -0.12132066                0.29970508               -0.02571822                0.02077071                0.83814497
               4.19407142                7.81083126               34.04309669                0.51651598               -0.01985614                0.00766051                0.03319872               -0.01380650                0.17309001               -0.77516937
               5.19414619                7.61999911               33.89234666                0.05986294               -0.50151841                0.15004330               -0.23389483               -0.10429669                6.86020936               -2.59769593
               6.18404105                7.42694333               33.87235669                0.00010000               -1.21690354                0.32059776               -0.00965620               -0.52003698               15.77382070                1.13622757
               7.16980812                7.23460060               33.89921626                0.00010000               -1.43654504                0.47197813               -0.26022261               -0.67219648               18.30839904                0.81777431
               8.15531015                7.04084065               33.92748952                0.00010000               -1.41877749                0.49338033               -0.40689022               -1.00760420               18.48845991                1.12175799
               9.14143257                6.84635140               33.95504161                0.00010000               -1.32057950                0.35808322               -0.51687240               -1.34391256               18.64546353                1.77717912
              10.12889856                6.65236893               33.98303155                0.00010000               -1.17760783                0.14073513               -0.59471995               -1.56979242               18.95221099                2.56727899
              11.11788041                6.46039896               34.01301565                0.22407260               -0.43743469               -0.03872562               -0.62401982               -0.88429080                9.73242234                3.45088318
              12.12014986                6.28807495               33.85310969                0.51767525                0.27274214                0.20207859               -0.90832634                0.04144661                0.14256953                1.41466265
              13.12333526                6.11515393               33.69087956                0.94202321                0.31853931                0.49730548               -1.28208626                0.00317508                0.04249636               -0.33049307
               3.38386045                9.00012561               34.15051095                1.00000000               -0.00407608               -0.06390343                0.15132671               -0.02411805                0.00496363                0.83898922
               4.38381969                8.81110522               33.98872218                0.52332151                0.02855310                0.04647969               -0.11605322               -0.00519010                0.03357878               -0.76153804
               5.38443151                8.62160575               33.82741897                0.04104503               -0.58699147                0.16576264               -0.39570119               -0.03643804                9.26797217               -2.43632043
               6.37207986                8.43092259               33.85027245                0.00010000               -1.40484822                0.51121441               -0.25227520               -0.23687597               19.33439592                0.34992596
               7.35633455                8.24022440               33.88850570                0.00010000               -1.64134030                0.68832037               -0.35939570               -0.50072840               20.39557849                0.64348848
               8.33925305                8.04691187               33.92998272                0.00010000               -1.74024764                0.74136554               -0.45020610               -0.97293722               20.84921199                0.93783261
               9.32152959                7.85089760               33.97422715                0.00010000               -1.71013679                0.65865723               -0.50033687               -1.51034653               21.21816133                1.52583853
              10.30505032                7.65444140               34.01961016                0.01779145               -1.59726297                0.31952666               -0.53270926               -2.04084831               21.59269138                2.58810789
              11.28958433                7.46046605               34.06750958                0.26618085               -0.66887013                0.04830628               -0.51223655               -1.17233727               10.94191136                2.85391385
              12.29167291                7.29017395               33.89674534                0.51708578                0.26164645                0.22368972               -0.88427620                0.00572496                0.01433788                1.16307034
              13.29481726                7.11994458               33.72576752                0.93459235                0.31443491                0.45684847               -1.26491882                0.01097978                0.01972048               -0.55211998
               3.57210173                9.99976514               34.10445576                1.00000000                0.03857443               -0.01119428                0.00502649               -0.02324404               -0.01787231                0.74168526
               4.57248748                9.81176085               33.93454111                0.55422144                0.07491631                0.08522603               -0.26260460               -0.00171567                0.06240318               -0.63812084
               5.57360006                9.62331436               33.76613534                0.00885935               -0.59013004                0.18169414               -0.53957111                0.13937369               11.32170868               -1.63081321
               6.56068488                9.43716761               33.82133995                0.00010000               -1.48978939                0.75391779               -0.47825026                0.02107729               22.55001807               -0.01928939
               7.54380427                9.24836701               33.87465249                0.00010000               -1.77533359                0.86821162               -0.48898844               -0.25895586               22.70945146                0.30691826
               8.52517821                9.05566796               33.92962569                0.00010000               -2.00540819                0.95932931               -0.51885598               -0.62546850               23.21316184                0.52296917
               9.50369611                8.85952455               33.98979398                0.00010000               -2.33325346                1.01565224               -0.50732729               -1.19357323               24.10192133                0.90637806
              10.47851314                8.65875947               34.05949282                0.06993985               -2.24974921                0.89130416               -0.39788680               -1.89747170               24.00020321                2.06399695
              11.45870112                8.46136509               34.11453010                0.31861652               -0.88636526                0.13544193               -0.49214621               -1.44755070               11.82748090                1.69276692
              12.46078583                8.29254875               33.93756130                0.52755474                0.26562277                0.25339354               -0.89438502               -0.02356070                0.11220308                0.80318080
              13.46401358                8.12429090               33.75794507                0.92250122                0.32277482                0.42141474               -1.27918055                0.01315145               -0.00234760               -0.63169904
               3.75940414               10.99990172               34.05611611                1.00000000                0.08320149                0.01365821               -0.13811994                0.02104254                0.40589645                0.63311729
               4.76023616               10.81280974               33.88253629                0.81718303                0.12040407                0.10488860               -0.40621978                0.04176325                0.82365216               -0.52473233
               5.76181222               10.62523963               33.71720390                0.49947125               -0.63937023                0.19252713               -0.67675248                0.48077673               13.25633756               -1.00958787
               6.74744875               10.44600095               33.79219085                0.36855752               -1.45785735                0.88333320               -0.62768191                0.29383768               25.08660555               -0.09881093
               7.73265508               10.25758863               33.85789872                0.35820164               -1.59313046                0.92216225               -0.61497226               -0.11004392               24.87799716                0.12054518
               8.71558614               10.06609846               33.92455013                0.37176279               -1.90442254                1.04304919               -0.61458713               -0.27810559               25.39818335                0.26124226
               9.69456663                9.87121064               33.99735686                0.40811742               -2.51629030                1.16860954               -0.56988724               -0.60449671               26.65715033                0.50230759
              10.66526034                9.67226748               34.08652935                0.55587363               -3.38612937                1.35080192               -0.35873725               -1.72706736               26.06760370                1.42956638
              11.62684404                9.46317489               34.14556951                0.68690287               -1.84922232                0.18098004               -0.56417178               -2.03699184               13.11726460                0.91015845
              12.62827589                9.29524182               33.97370893                0.78071939                0.23759750                0.26930712               -0.94605303                0.00890546                1.04043757                0.58824188
              13.63159599                9.12837288               33.79082048                0.96074943                0.33200978                0.40819808               -1.32057061                0.07134708                0.50950681               -0.57581753
               1.92920325                1.07607490               35.50376182                1.00000000               -0.34558342               -0.36902572                1.27679823               -0.05761214               -0.96891420                0.98360637
               2.92574742                0.86898183               35.39498326                1.00000000               -0.30396317               -0.28668156                1.02723447               -0.03707837               -1.26664489                0.12291504
               3.92312399                0.66145182               35.28026951                1.00000000               -0.21186070               -0.20614565                0.76466908               -0.04219231               -1.24064565               -0.20937485
               4.92151020                0.45368111               35.17203969                0.62790782                0.01074616               -0.14566200                0.50941749                0.04816215               -0.42794615               -0.86803848
               5.92333891                0.24779454               35.07365198                0.71030640                0.16464044               -0.09029305                0.22031400               -0.07316181               -0.06749859                0.28470969
               6.92480301                0.04428039               34.97341964                0.79005680                0.14717528                0.00475045               -0.02423325               -0.06011684               -0.31994741                0.16531095
               7.92628242               -0.15794471               34.86963011                0.78039326                0.18332913                0.07845597               -0.26601886               -0.03918102               -0.55136422               -0.06359546
               8.92846959               -0.35935704               34.76429187                0.86677606                0.23754343                0.15284283               -0.50372046               -0.05408699               -0.84162724                0.10663230
               9.93103328               -0.56003972               34.65420716                1.00000000                0.27701542                0.23126973               -0.77155023               -0.05134564               -1.16192223                0.59122907
              10.93400990               -0.76045601               34.54222521                1.00000000                0.33036255                0.32347915               -1.05211962               -0.03482175               -1.12907561               -0.00714368
              11.93764054               -0.96109393               34.43280107                1.00000000                0.36306332                0.42486889               -1.33409949               -0.01813282               -1.00548586               -0.99878772
               2.13572019                2.07238464               35.45743043                1.00000000               -0.30320227               -0.35718876                1.13844752               -0.01439007               -0.15254381                1.34084469
               3.13268817                1.86611502               35.34843013                1.00000000               -0.26838853               -0.26711373                0.89114360                0.00695337               -0.18392675                0.17500202
               4.13035242                1.65939036               35.23878956                0.92975239               -0.19338529               -0.18056683                0.62688242               -0.00510179               -0.04689434               -0.51493481
               5.12882047                1.45222449               35.13246945                0.25505453               -0.15223842               -0.12101009                0.35503879                0.08797940                1.58570797               -1.25638537
               6.12730765                1.24689161               35.05529801                0.40649275               -0.08745002               -0.01944559                0.08586607               -0.07851363                2.45772932                0.98617541
               7.12707147                1.04432789               34.96428277                0.50692012                0.02008325                0.05122623               -0.15141122               -0.01570075                1.57248651                0.46105654
               8.12770932                0.84283985               34.86856545                0.42155004                0.09523827                0.12123789               -0.38400354                0.01350762                1.47612029               -0.27862068
               9.12897623                0.64217139               34.77522900                0.51259892                0.16799970                0.19163554               -0.62173168               -0.03324189                1.51897502                0.50179961
              10.13106931                0.44227298               34.68013651                1.00000000                0.26062805                0.25156139               -0.87597474               -0.02278235                0.79360333                0.83592727
              11.13418879                0.24277878               34.57223435                1.00000000                0.35139083                0.32994305               -1.15677965                0.00874852                0.08987214                0.13276779
              12.13809713                0.04315476               34.46300568                1.00000000                0.39083390                0.45332038               -1.43665200                0.02723379                0.02935287               -1.17082816
               2.34145470                3.06893112               35.41827399                1.00000000               -0.25739354               -0.33730448                1.00959423               -0.00917474                0.04830470                1.69584642
               3.33888076                2.86363956               35.30291222                1.00000000               -0.22711107               -0.23073171                0.76219095                0.01102901                0.23046769                0.16262757
               4.33691247                2.65784048               35.19116026                0.63420188               -0.15561062               -0.12674053                0.51918754               -0.01571345                0.69412782               -1.28527902
               5.33576855                2.45126091               35.08503176                0.00010000               -0.36236178               -0.08571650                0.22935657                0.13492630                4.58890803               -2.00870144
               6.32966524                2.24740563               35.05113354                0.00010000               -0.36138986               -0.02569372               -0.08800914                0.10481187                5.67036075               -1.15331222
               7.32854075                2.04530491               34.96110791                0.00010000               -0.04780829               -0.04323197               -0.28113215                0.01398552                2.51562780               -0.09027537
               8.32870907                1.84448005               34.86323198                0.00010000               -0.00845595               -0.01882629               -0.49163655               -0.07046942                3.57750265                0.78326170
               9.32837163                1.64447567               34.79416044                0.00010000                0.06305867                0.02452784               -0.76266483               -0.13356676                4.32415675                1.40047587
              10.32997025                1.44499151               34.71103921                0.43087430                0.24657315                0.19283037               -0.99650197               -0.20636210                2.49470810                1.89561061
              11.33330309                1.24614285               34.60515694                1.00000000                0.37315085                0.32007835               -1.25164487               -0.06304069                0.89662332                0.89573838
              12.33743326                1.04797248               34.48988778                1.00000000                0.41301685                0.51300001               -1.53887961                0.00815671                0.44173916               -1.05762629
               2.54611983                4.06563855               35.37910366                1.00000000               -0.21204373               -0.31742621                0.87991643               -0.01506950                0.11580357                1.58054442
               3.54399939                3.86150038               35.25610093                1.00000000               -0.18515135               -0.19189551                0.63204992                0.00288307                0.17448061               -0.00805339
               4.54241680                3.65685555               35.13422074                0.36399417               -0.10227699               -0.07229496                0.39797340               -0.07109350                1.12663510               -1.68253619
               5.54195385                3.45051016               35.03024275                0.00010000               -0.35284546               -0.02513244                0.14674100               -0.00038615                5.23559844               -2.69272906
               6.53535989                3.24637773               34.99047843                0.00010000               -0.58385497               -0.04178255               -0.10481960                0.02230540                8.05191579               -2.83300477
               7.53027675                3.04346325               34.94099643                0.00010000               -0.41153586               -0.09161349               -0.33455409               -0.13585464                7.26203460               -0.56703082
               8.52712917                2.84246333               34.88314079                0.00010000               -0.22416561               -0.13949235               -0.55916611               -0.26542275                6.81973930                1.68481492
               9.52579344                2.64266195               34.82300919                0.00010000               -0.09271400               -0.13887276               -0.78628723               -0.20695065                6.54628299                2.25397757
              10.52527489                2.44612959               34.75799930                0.18935026                0.20767865               -0.04202778               -1.10508369               -0.21111910                4.32179688                3.55626561
              11.52994701                2.24918035               34.65044970                0.75218699                0.46630620                0.26945122               -1.37595042               -0.10982608                1.17855131                1.71329594
              12.53460102                2.05341476               34.52249581                1.00000000                0.46540064                0.56476717               -1.64342485               -0.05093984                0.20169161               -0.41388320
               2.74942964                5.06258260               35.33773085                1.00000000               -0.17082221               -0.28598747                0.74090359               -0.02626883                0.18213616                1.32989600
               3.74772142                4.85980165               35.20715154                0.81423163               -0.14744091               -0.14000898                0.49237625               -0.01587869                0.28134002               -0.30231548
               4.74648082                4.65639458               35.07850065                0.19932814               -0.07413864               -0.00822742                0.25355414               -0.12205731                1.33425383               -1.78393393
               5.74623865                4.45075826               34.96896889                0.00010000               -0.46612830                0.10366517                0.01952549               -0.21215297                6.96781887               -2.72786488
               6.73715826                4.24656997               34.95296348                0.00010000               -0.82502913                0.09070242               -0.16637977               -0.32382257               11.27833716               -1.15941365
               7.72973806                4.04347264               34.92800663                0.00010000               -0.64781655                0.05609719               -0.37840695               -0.42929650               10.55912277                0.11203669
               8.72420192                3.84169020               34.89561091                0.00010000               -0.45858513               -0.02178930               -0.60136653               -0.49740975               10.08800375                1.45838099
               9.72056636                3.64169822               34.85886158                0.00010000               -0.24862317               -0.08363575               -0.83757710               -0.49067722                9.94686071                2.74635952
              10.71922946                3.44415095               34.82118563                0.16020276                0.16275206               -0.23656274               -1.05320752               -0.23770124                5.84259792                4.22035692
              11.72382140                3.25153188               34.69948841                0.60251679                0.43580946                0.22688824               -1.19605179               -0.02379501                0.95841587                1.91037489
              12.72794565                3.05926782               34.56211001                0.97567831                0.41242496                0.58513620               -1.56129415               -0.05024731                0.23539342               -0.03274661
               2.95115635                6.05991880               35.29364277                1.00000000               -0.12865210               -0.23927702                0.59224892               -0.03123109                0.13103611                1.07582045
               3.94986983                5.85870020               35.15440616                0.64945408               -0.10686560               -0.08058951                0.33300228               -0.02859294                0.34496958               -0.60770624
               4.94901904                5.65669100               35.01938546                0.12417043               -0.11672143                0.06805212                0.09346620               -0.13219815                2.00050780               -2.15810981
               5.94753540                5.45258347               34.91325944                0.00010000               -0.64249896                0.19951029               -0.05904190               -0.51685747                9.36596521               -1.00683018
               6.93616906                5.24819178               34.92556930                0.00010000               -1.04824045                0.20872047               -0.20346435               -0.65124978               14.57684849               -0.16580445
               7.92657059                5.04458520               34.92179873                0.00010000               -0.86068264                0.16305628               -0.41354880               -0.74583766               13.55335945                0.70304337
               8.91895541                4.84202754               34.91128180                0.00010000               -0.65257230                0.07213810               -0.62311790               -0.82095489               13.20104156                1.73921355
               9.91351914                4.64098923               34.89766618                0.00010000               -0.41340977               -0.05466170               -0.83143124               -0.87078403               13.17889015                2.91443513
              10.91068721                4.44139833               34.88340394                0.16297588                0.04175501               -0.23420747               -1.04465940               -0.41321572                7.34241581                4.11803928
              11.91435424                4.25371811               34.74886216                0.54373420                0.37184880                0.20906209               -1.09475002                0.05601999                0.73638985                1.88925306
              12.91812419                4.06511748               34.60109516                0.95029405                0.37699410                0.57485263               -1.45461360               -0.01967760                0.10294386                0.00068468
               3.15124221                7.05779706               35.24726993                1.00000000               -0.08648585               -0.18124725                0.43854720               -0.02884422                0.05654178                0.90154294
               4.15037735                6.85818986               35.09924181                0.55142651               -0.06443097               -0.02812474                0.17491740               -0.02754356                0.29645550               -0.75680656
               5.14995359                6.65775563               34.95594576                0.08210206               -0.29883176                0.13160148               -0.07519926               -0.15082544                4.21711223               -2.48476800
               6.14440072                6.45474847               34.88633469                0.00010000               -0.89110322                0.20892940                0.06009996               -0.73978592               12.46816226                1.03764714
               7.13213153                6.25074438               34.90801125                0.00010000               -1.17075853                0.30213320               -0.23505874               -0.87094829               16.71488277                0.60375418
               8.12098555                6.04673377               34.92094900                0.00010000               -1.03763682                0.27746800               -0.44134425               -1.02023979               16.21575614                1.09480635
               9.11137879                5.84313297               34.92981470                0.00010000               -0.86028295                0.16221993               -0.62155343               -1.16961128               16.11330994                1.90503317
              10.10377989                5.64060498               34.93738601                0.00010000               -0.65712641               -0.00252803               -0.78187310               -1.30319811               16.27415288                2.89856700
              11.09823627                5.43946680               34.94561686                0.18205444               -0.12786197               -0.14443714               -0.92215572               -0.67913851                8.69287997                4.01602957
              12.10122265                5.25571312               34.79723451                0.51279753                0.32585499                0.19924039               -1.01589141                0.07290147                0.47982307                1.74620586
              13.10475336                5.07076487               34.64025091                0.93584171                0.35307144                0.55229074               -1.38508797               -0.00725359                0.07399636               -0.04842689
               3.34979386                8.05629386               35.19974097                1.00000000               -0.04334765               -0.11973660                0.28602729               -0.02633562                0.01933515                0.83046138
               4.34936039                7.85813771               35.04337097                0.50995416               -0.01749737                0.01406669                0.02101858               -0.01587403                0.17060467               -0.78535920
               5.34944392                7.65932303               34.88995012                0.05661748               -0.48047317                0.16493764               -0.24735945               -0.18304164                7.10529503               -2.62228832
               6.33975092                7.45676206               34.87224970                0.00010000               -1.13395625                0.29237054               -0.02120810               -0.66182831               16.03318466                1.10919465
               7.32676479                7.25423444               34.89645252                0.00010000               -1.29868555                0.44058104               -0.29889756               -0.84354995               18.38190901                0.86169223
               8.31377721                7.05013456               34.92310946                0.00010000               -1.25364125                0.45206102               -0.47655963               -1.17611663               18.64492599                1.20014407
               9.30169197                6.84527194               34.94945175                0.00010000               -1.13279337                0.30656310               -0.61109315               -1.50173116               18.85560167                1.89672362
              10.29112135                6.64093867               34.97660769                0.00010000               -0.98478305                0.09409121               -0.70363849               -1.72200070               19.23149041                2.73060101
              11.28199631                6.43850959               35.00632784                0.21398313               -0.33035694               -0.04416214               -0.73022675               -0.95770988                9.95116594                3.67652700
              12.28451421                6.25770292               34.84375910                0.49861635                0.29396511                0.20856288               -0.96408139                0.05066671                0.19596221                1.52174265
              13.28787561                6.07616330               34.67776709                0.92629101                0.33614010                0.52029227               -1.33816295                0.00318668                0.04426544               -0.23428903
               3.54702780                9.05540232               35.15194224                1.00000000                0.00028997               -0.06049472                0.13554654               -0.02444584                0.00397660                0.83268892
               4.54703070                8.85847119               34.98749767                0.51922442                0.03203089                0.05206825               -0.12963516               -0.00532864                0.02604792               -0.76824351
               5.54766841                8.66105438               34.82340653                0.04024690               -0.53889762                0.17514712               -0.40902602               -0.12838703                9.45820956               -2.44639576
               6.53625274                8.46059588               34.84754378                0.00010000               -1.28901929                0.49548234               -0.29423431               -0.39750393               19.61787242                0.24131796
               7.52188803                8.25955600               34.88466461                0.00010000               -1.49135108                0.65537564               -0.41618410               -0.66753288               20.57970466                0.64992136
               8.50642572                8.05577499               34.92510941                0.00010000               -1.56739855                0.70133496               -0.53240273               -1.13766270               21.07501724                0.99467847
               9.49054006                7.84926423               34.96873586                0.00010000               -1.51617467                0.61162567               -0.60948852               -1.67556273               21.49954114                1.63000035
              10.47610223                7.64248681               35.01379914                0.01421185               -1.41111197                0.26995632               -0.64091572               -2.19027806               21.94832914                2.76081856
              11.46231782                7.43858356               35.06208640                0.25779445               -0.57599755                0.05419117               -0.58058392               -1.23696244               11.15438092                3.00392795
              12.46458228                7.25988438               34.88763940                0.49885422                0.27892665                0.23466578               -0.93874594                0.00969083                0.01921089                1.23626847
              13.46789635                7.08117072               34.71283189                0.92030991                0.33140736                0.47779024               -1.32193582                0.01131573                0.01917718               -0.49138671
               3.74316721               10.05508396               35.10441379                1.00000000                0.04345459               -0.00633544               -0.01293688               -0.02345532               -0.01895795                0.73747958
               4.74360176                9.85917907               34.93184542                0.55199511                0.07921364                0.09026868               -0.27734600               -0.00169546                0.05640943               -0.64136664
               5.74475149                9.66282598               34.76068610                0.00837637               -0.51512701                0.18698689               -0.55260415                0.03498400               11.47119223               -1.62776248
               6.73329922                9.46667170               34.81633096                0.00010000               -1.32582316                0.70968279               -0.52351500               -0.11635045               22.83918614               -0.07304284
               7.71823502                9.26734196               34.86944688                0.00010000               -1.59917421                0.82884744               -0.55784336               -0.38097816               22.97485093                0.29956351
               8.70131574                9.06416126               34.92399535                0.00010000               -1.83830643                0.92767167               -0.61542226               -0.74037609               23.50676485                0.55184581
               9.68146889                8.85750445               34.98412208                0.00010000               -2.16596420                0.99471846               -0.64079811               -1.32452433               24.48521672                0.96839505
              10.65799645                8.64633780               35.05471446                0.07057631               -2.08047030                0.87501999               -0.58580604               -2.01385717               24.40008781                2.21385777
              11.63985949                8.43959341               35.10936087                0.31432860               -0.79377921                0.14897755               -0.54265339               -1.49400759               11.99134824                1.74002117
              12.64212087                8.26239624               34.92833669                0.50930435                0.28348756                0.26920539               -0.95062374               -0.02274224                0.10239594                0.83423175
              13.64552924                8.08571910               34.74483761                0.90888568                0.34083727                0.44187681               -1.34262058                0.01359423               -0.00287509               -0.60505573
               3.93836847               11.05527562               35.05463280                1.00000000                0.08863053                0.01916548               -0.15808184                0.02022004                0.40320463                0.63015078
               4.93925477               10.86027656               34.87839769                0.81688478                0.12534994                0.10974916               -0.42226774                0.04122617                0.81937854               -0.52600462
               5.94087546               10.66479412               34.71037786                0.49858049               -0.49225089                0.19681405               -0.69084724                0.33804634               13.40174172               -1.00207588
               6.92940975               10.47478954               34.78569014                0.36873275               -1.20482774                0.81178337               -0.67603470                0.17799518               25.38769480               -0.11904781
               7.91677891               10.27613295               34.85138028                0.35834782               -1.39770246                0.87909961               -0.69382497               -0.16866698               25.17398338                0.11205384
               8.90145570               10.07432842               34.91788926                0.37153549               -1.74529398                1.01671665               -0.72599741               -0.33472097               25.72807401                0.27435029
               9.88187303                9.86915860               34.99094754                0.40725161               -2.38597887                1.16541441               -0.72743131               -0.67664731               27.10497540                0.53594983
              10.85373613                9.65998721               35.08185460                0.55759217               -3.27469017                1.36494094               -0.61565431               -1.80580677               26.47944609                1.54503842
              11.81637923                9.44156311               35.13961788                0.68626188               -1.78671918                0.19697006               -0.62532139               -2.08396245               13.25638800                0.90521991
              12.81800174                9.26526848               34.96391759                0.77147638                0.25716413                0.28722459               -1.00990346                0.01034460                1.05359386                0.59584197
              13.82152251                9.09000825               34.77724894                0.95398408                0.35207663                0.42891522               -1.39292064                0.07330385                0.52496826               -0.56434266
               2.02947785                1.13298130               36.51654788                1.00000000               -0.34643382               -0.37081428                1.28162065               -0.05767103               -0.98198698                0.99337006
               3.02601351                0.91747955               36.40525448                1.00000000               -0.30466556               -0.28659484                1.02731179               -0.03608399               -1.28670021                0.12984003
               4.02338454                0.70153382               36.28788699                1.00000000               -0.21334331               -0.20448840                0.75808389               -0.04208637               -1.26242354               -0.20832537
               5.02174665                0.48525769               36.17707700                0.62892201               -0.00839573               -0.14113463                0.49668758               -0.00258074               -0.45971087               -0.88466846
               6.02321662                0.26969413               36.07577986                0.70512813                0.15733267               -0.09911585                0.19937434               -0.07324234               -0.08260720                0.28685287
               7.02489330                0.05572878               35.97311035                0.77995521                0.17204390                0.00287509               -0.04633118               -0.07011190               -0.30074460                0.16675510
               8.02665750               -0.15689359               35.86693327                0.77170375                0.21207522                0.07782075               -0.28294888               -0.04725753               -0.51521177               -0.06005157
               9.02913480               -0.36861973               35.75929763                0.86057350                0.25926194                0.15073223               -0.50672227               -0.06338760               -0.80954117                0.10722829
              10.03184274               -0.57946464               35.64656809                1.00000000                0.28459191                0.23017170               -0.76419261               -0.05843576               -1.14789175                0.60553524
              11.03482664               -0.78997069               35.53182298                1.00000000                0.32888542                0.31926593               -1.03467552               -0.03839076               -1.12186018                0.00072706
              12.03842045               -1.00073961               35.41956218                1.00000000                0.35938076                0.41952390               -1.31851557               -0.01513357               -0.99956383               -0.98622433
               2.24440289                2.12927316               36.46882153                1.00000000               -0.30264756               -0.35970052                1.14095890               -0.01347330               -0.15851348                1.35467274
               3.24137641                1.91461360               36.35732934                1.00000000               -0.26641415               -0.26689149                0.88908237                0.00856303               -0.19888641                0.18530235
               4.23907461                1.69948893               36.24502310                0.94167401               -0.18678654               -0.17861369                0.61913089               -0.00636304               -0.07322098               -0.49924750
               5.23764068                1.48384634               36.13597047                0.26190352               -0.09129749               -0.11483554                0.34366738                0.01873221                1.55559411               -1.26083930
               6.23724866                1.26870297               36.05603043                0.40738966               -0.00773214               -0.03728725                0.05840303               -0.08253133                2.45637479                0.96795476
               7.23748604                1.05575753               35.96262940                0.50383248                0.05552625                0.04875032               -0.18290789               -0.03369949                1.60643905                0.46333673
               8.23835918                0.84388461               35.86460218                0.42057796                0.11502046                0.12642198               -0.41232857               -0.00636674                1.52163934               -0.26823876
               9.23978645                0.63288759               35.76894318                0.50802897                0.17873409                0.19481804               -0.63815915               -0.04396513                1.56298167                0.49357717
              10.24193386                0.42283708               35.67135498                1.00000000                0.26468853                0.25544866               -0.88302378               -0.03001390                0.81633862                0.84520874
              11.24508022                0.21322197               35.56063554                1.00000000                0.35520836                0.32896113               -1.16312214                0.00483699                0.09588038                0.14856464
              12.24903803                0.00345563               35.44859607                1.00000000                0.39578103                0.44699185               -1.44452694                0.03013804                0.03338984               -1.15395590
               2.45852749                3.12578729               36.42836690                1.00000000               -0.25584973               -0.34126665                1.01033292               -0.00816326                0.04694267                1.71347606
               3.45596900                2.91214172               36.31051706                1.00000000               -0.22514781               -0.23013468                0.75894036                0.01153774                0.23023032                0.17579769
               4.45402454                2.69796154               36.19630723                0.65093768               -0.15308719               -0.12200904                0.50968445               -0.01965536                0.67240870               -1.26033351
               5.45290725                2.48296098               36.08724967                0.00010000               -0.21848634               -0.07809177                0.21388573                0.03917174                4.52794674               -1.97696297
               6.44965481                2.26894838               36.05008973                0.00010000               -0.19347950               -0.04690064               -0.12369026               -0.08476949                5.67974361               -1.11221617
               7.44903766                2.05670378               35.95810356                0.00010000               -0.01273534               -0.04033184               -0.32088167               -0.14309952                2.59538890               -0.04975935
               8.44940010                1.84563485               35.85810619                0.00010000                0.01326858               -0.00980912               -0.53297482               -0.20012012                3.63053910                0.81569790
               9.44930304                1.63527663               35.78633290                0.00010000                0.07539902                0.02629180               -0.78993930               -0.21491942                4.38638599                1.44294147
              10.45090809                1.42564433               35.70093133                0.41986799                0.25008980                0.23380718               -1.01869512               -0.19665311                2.54335064                1.87182601
              11.45430483                1.21660853               35.59244328                1.00000000                0.38238994                0.33228219               -1.28656831               -0.06975007                0.91279080                0.88878079
              12.45855588                1.00820023               35.47434298                1.00000000                0.42510529                0.51033576               -1.56665603                0.01388098                0.44119634               -1.05660443
               2.67153076                4.12244782               36.38788888                1.00000000               -0.20978469               -0.32231959                0.87866607               -0.01497945                0.11868607                1.59241007
               3.66943292                3.91001091               36.26239785                1.00000000               -0.18342600               -0.19029518                0.62749051                0.00256034                0.18408488               -0.00048713
               4.66786224                3.69704875               36.13817587                0.36677934               -0.09978189               -0.06485818                0.39136893               -0.07823612                1.13414422               -1.67600398
               5.66743728                3.48228451               36.03166002                0.00010000               -0.30258910               -0.01601407                0.13374731               -0.11100653                5.22985365               -2.65879590
               6.66181046                3.26776496               35.98928341                0.00010000               -0.47498461               -0.04461741               -0.13650706               -0.26205468                8.06603472               -2.74131309
               7.65793759                3.05495089               35.93743492                0.00010000               -0.30132636               -0.09648406               -0.38027921               -0.38670345                7.30647958               -0.49297288
               8.65578393                2.84368843               35.87729219                0.00010000               -0.12295073               -0.14479699               -0.61457277               -0.49228354                6.88066591                1.74085951
               9.65547857                2.63341342               35.81479170                0.00010000                0.04424827               -0.14529318               -0.86241359               -0.33704464                6.56654435                2.32042599
              10.65666890                2.42751322               35.74610833                0.17359939                0.28253777               -0.06804807               -1.21957152               -0.27563337                4.34875521                3.65354956
              11.66112933                2.21986761               35.63596187                0.69503913                0.47316778                0.27889003               -1.47963601               -0.17127216                1.23179368                1.84596225
              12.66613225                2.01366234               35.50541780                1.00000000                0.50029279                0.59637503               -1.73069136               -0.06950394                0.23231870               -0.34433361
               2.88310174                5.11934090               36.34511327                1.00000000               -0.16824607               -0.29077757                0.73720512               -0.02747873                0.18879806                1.33136314
               3.88141928                4.90833582               36.21204358                0.80770874               -0.14577596               -0.13611946                0.48602223               -0.01872661                0.29223067               -0.30955571
               4.88018622                4.69666438               36.08099731                0.19679197               -0.07241790                0.00181494                0.24499041               -0.13347248                1.35312489               -1.79634507
               5.87997092                4.48264070               35.96913266                0.00010000               -0.42194424                0.11084009                0.00951798               -0.33217763                7.00938473               -2.68864043
               6.87174733                4.26805603               35.95116560                0.00010000               -0.72954001                0.09348635               -0.19680046               -0.53311143               11.33496511               -1.08015489
               7.86538012                4.05477410               35.92397724                0.00010000               -0.53277172                0.03887588               -0.43148339               -0.63085839               10.60688815                0.18916100
               8.86109190                3.84273891               35.88924521                0.00010000               -0.33213840               -0.04118226               -0.67765453               -0.68639425               10.13268332                1.52972943
               9.85873735                3.63237076               35.84996726                0.00010000               -0.10753332               -0.10046390               -0.94480908               -0.66019331               10.00819440                2.82038899
              10.85894123                3.42428337               35.81004155                0.14793218                0.29964579               -0.32890394               -1.21637892               -0.33446205                5.97053265                4.37567046
              11.86473027                3.22218633               35.68651292                0.56416772                0.53175521                0.21945505               -1.38677565               -0.02884423                1.02668800                2.20859833
              12.86957634                3.02012773               35.54545233                0.94756101                0.48460705                0.64314049               -1.72450061               -0.07140634                0.20815589                0.17501182
               3.09299135                6.11663227               36.29952456                1.00000000               -0.12564472               -0.24281078                0.58580130               -0.03256227                0.13027118                1.06920023
               4.09173490                5.90728852               36.15769329                0.63976706               -0.10517176               -0.07423733                0.32369793               -0.03307541                0.35407761               -0.62419711
               5.09088792                5.69708505               36.02028584                0.12022883               -0.11664163                0.08402386                0.08408842               -0.15472811                2.06697314               -2.18080288
               6.08940207                5.48450131               35.91271098                0.00010000               -0.59365444                0.18163085               -0.05280700               -0.65207182                9.47237926               -0.84031332
               7.07901483                5.26963468               35.92341158                0.00010000               -0.93822623                0.19603305               -0.23282311               -0.85805410               14.65379894               -0.07342195
               8.07063755                5.05572841               35.91737729                0.00010000               -0.72777203                0.14277815               -0.47608049               -0.92412041               13.60596427                0.78843416
               9.06445939                4.84286479               35.90461227                0.00010000               -0.49536544                0.04638688               -0.71789666               -0.98254259               13.25989534                1.83619919
              10.06073024                4.63140415               35.88873189                0.00010000               -0.21476469               -0.08571179               -0.96933291               -1.02461822               13.23688615                3.04467578
              11.06016409                4.42093514               35.87202437                0.15171028                0.19889255               -0.28230576               -1.26013399               -0.45516991                7.54054595                4.29348814
              12.06470809                4.22425671               35.73747880                0.51671092                0.43286204                0.19866091               -1.19700137                0.07105509                0.91262036                2.11848903
              13.06882133                4.02652515               35.58617000                0.92952281                0.41132445                0.61151376               -1.53689764               -0.03403020                0.11444037                0.21288836
               3.30113800                7.11448468               36.25160258                1.00000000               -0.08330086               -0.18260692                0.42936664               -0.02942861                0.05400324                0.89250722
               4.30030499                6.90685107               36.10093552                0.54179945               -0.06295662               -0.02101526                0.16324815               -0.03001896                0.30041694               -0.77047481
               5.29987887                6.69834486               35.95513564                0.07809522               -0.29625705                0.15037599               -0.08958908               -0.20461557                4.43253237               -2.51345631
               6.29437985                6.48627331               35.88710275                0.00010000               -0.82598580                0.17084113                0.08977192               -0.87839430               12.65033035                1.17994611
               7.28335915                6.27197669               35.90550641                0.00010000               -1.03561219                0.27732001               -0.27199774               -1.05359651               16.71709780                0.68193402
               8.27366761                6.05762966               35.91620458                0.00010000               -0.87969217                0.24773587               -0.51409670               -1.18690796               16.29032972                1.18458851
               9.26576531                5.84366664               35.92310974                0.00010000               -0.67464892                0.12499666               -0.72900533               -1.31930773               16.21755059                2.02676206
              10.26017463                5.63065653               35.92890748                0.00010000               -0.43900188               -0.04181593               -0.93026562               -1.45536721               16.40936858                3.07654777
              11.25698527                5.41863726               35.93556080                0.17055505                0.01933650               -0.17375928               -1.12117438               -0.74543732                8.92973644                4.29218207
              12.26056136                5.22615955               35.78673400                0.49095407                0.36867883                0.19241018               -1.08882602                0.08212532                0.63776942                1.90808268
              13.26435885                5.03235800               35.62608903                0.91882696                0.37974888                0.56810048               -1.44137595               -0.01099214                0.07531083                0.09614125
               3.50767000                8.11298013               36.20253687                1.00000000               -0.03956519               -0.11890600                0.27425470               -0.02663627                0.01767185                0.82225492
               4.50727435                7.90686821               36.04351706                0.50282143               -0.01483204                0.02074173                0.00756062               -0.01581024                0.16654858               -0.79505986
               5.50737336                7.70009257               35.88739947                0.05295539               -0.45360023                0.17985011               -0.26499024               -0.26396806                7.34639352               -2.64646095
               6.49820235                7.48791813               35.87193253                0.00010000               -1.03934087                0.26971888               -0.05212763               -0.80560567               16.28041157                1.04932932
               7.48658654                7.27518108               35.89323831                0.00010000               -1.14964540                0.41258877               -0.34978187               -1.01155730               18.42775700                0.89888392
               8.47520944                7.06068313               35.91795833                0.00010000               -1.07700886                0.41449419               -0.56122415               -1.34009082               18.76983870                1.28164580
               9.46504637                6.84536472               35.94281974                0.00010000               -0.92785799                0.25803135               -0.72586023               -1.65249587               19.03666246                2.02369456
              10.45665228                6.63056783               35.96895878                0.00010000               -0.76470208                0.04472396               -0.84240197               -1.87065188               19.49092264                2.92014336
              11.44975233                6.41745996               35.99841111                0.20248951               -0.20112138               -0.05628421               -0.87805163               -1.03082475               10.19406564                3.96183485
              12.45262985                6.22810491               35.83382807                0.47932960                0.32261275                0.20810868               -1.02568710                0.05887462                0.27934133                1.64370463
              13.45620458                6.03788716               35.66411630                0.91138471                0.35747302                0.53441666               -1.38974064                0.00107388                0.04611313               -0.13057446
               3.71282912                9.11210656               36.15322188                1.00000000                0.00472353               -0.05779813                0.12119081               -0.02459968                0.00303010                0.82550093
               4.71287635                8.90726591               35.98612948                0.51487328                0.03602372                0.05826450               -0.14495062               -0.00478472                0.01759508               -0.77418934
               5.71354959                8.70194186               35.81923845                0.03912649               -0.48485633                0.18476043               -0.42685465               -0.22166084                9.63363229               -2.45460741
               6.70317923                8.49166769               35.84438776                0.00010000               -1.15932900                0.48211361               -0.34543328               -0.56039559               19.88640609                0.12686458
               7.69036301                8.28022847               35.88018202                0.00010000               -1.32485356                0.62307628               -0.48498392               -0.83488917               20.74358025                0.65351981
               8.67668215                8.06591955               35.91933467                0.00010000               -1.37661613                0.66209545               -0.63037920               -1.29861707               21.27385645                1.05559548
               9.66283069                7.84882727               35.96203738                0.00010000               -1.30079010                0.56580228               -0.74132347               -1.83667877               21.76570716                1.73668048
              10.65066635                7.63155101               36.00679185                0.00905924               -1.19994992                0.22066632               -0.77339475               -2.33459360               22.32197959                2.91205534
              11.63883169                7.41751157               36.05589790                0.24761243               -0.46773530                0.05870403               -0.67042174               -1.30378789               11.39715476                3.20432174
              12.64131165                7.23032172               35.87797042                0.48049812                0.29920688                0.24251380               -0.99768093                0.01309637                0.03420352                1.31962167
              13.64481583                7.04304634               35.69932881                0.90647080                0.35041814                0.49427817               -1.37808095                0.00994518                0.01869923               -0.43147560
               3.91685932               10.11182417               36.10419702                1.00000000                0.04840367               -0.00199198               -0.03003097               -0.02359952               -0.01988370                0.73206757
               4.91734336                9.90803350               35.92899419                0.54978525                0.08395181                0.09596012               -0.29373774               -0.00170387                0.04981764               -0.64337855
               5.91853836                9.70378778               35.75508326                0.00766149               -0.43177690                0.19363627               -0.57065427               -0.07340403               11.60418529               -1.62264835
               6.90870782                9.49756040               35.81086965                0.00010000               -1.14507286                0.66169764               -0.57127206               -0.25620836               23.10103798               -0.12430654
               7.89563690                9.28764261               35.86349563                0.00010000               -1.40347632                0.78672107               -0.63766684               -0.50313767               23.21412243                0.29492003
               8.88063830                9.07392503               35.91731724                0.00010000               -1.64777853                0.89390515               -0.72756103               -0.85318135               23.76973552                0.58411689
               9.86268133                8.85668076               35.97697802                0.00010000               -1.96810970                0.97257276               -0.79899418               -1.45368901               24.82189721                1.02916026
              10.84127610                8.63498115               36.04777670                0.06933268               -1.88877394                0.86684801               -0.82402672               -2.12670782               24.85781436                2.30503775
              11.82490585                8.41863404               36.10367703                0.30815106               -0.69595430                0.16268525               -0.59767300               -1.54744201               12.23970011                1.81097739
              12.82735702                8.23295519               35.91854883                0.49103992                0.30242011                0.28375737               -1.00816986               -0.02281279                0.09211688                0.87249468
              13.83095426                8.04777273               35.73109266                0.89542734                0.35972398                0.46085069               -1.40726220                0.01259455               -0.00461256               -0.58165930
               4.11993846               11.11206672               36.05295447                1.00000000                0.09402059                0.02425507               -0.17688976                0.01975224                0.39948872                0.62583698
               5.12087867               10.90918511               35.87409094                0.81678510                0.13080750                0.11516031               -0.43993429                0.04092374                0.81315509               -0.52570791
               6.12255461               10.70581458               35.70338696                0.49760108               -0.33392196                0.20268048               -0.71056025                0.18745193               13.52740297               -0.99284635
               7.11420023               10.50490164               35.77867016                0.36889857               -0.93094932                0.73412402               -0.73148448                0.05665598               25.65285466               -0.13889174
               8.10393563               10.29596289               35.84402222                0.35849569               -1.18099290                0.83202831               -0.78278515               -0.22532733               25.43678165                0.10545751
               9.09058037               10.08379765               35.91003019                0.37131642               -1.56174189                0.98726166               -0.85279925               -0.39000084               26.01873015                0.28833328
              10.07270079                9.86827873               35.98280824                0.40634667               -2.22007245                1.15979609               -0.91100504               -0.74353865               27.47565118                0.56398233
              11.04617892                9.64888797               36.07421626                0.55826389               -3.13959869                1.39068129               -0.94234915               -1.88539038               26.96453442                1.60578331
              12.00990881                9.42076528               36.13306308                0.68463583               -1.72311096                0.21312404               -0.68716639               -2.14425890               13.52340661                0.90841821
              13.01171670                9.23599687               35.95351087                0.76231526                0.27619160                0.30416787               -1.07027429                0.01087214                1.07252162                0.60867380
              14.01543265                9.05226335               35.76296206                0.94724504                0.37159435                0.44906231               -1.46467948                0.07448705                0.54243528               -0.55608239
               2.13215031                1.19139500               37.52939423                1.00000000               -0.34760127               -0.37359236                1.28984502               -0.05821179               -0.99744975                1.00416513
               3.12867430                0.96742890               37.41552950                1.00000000               -0.30486590               -0.28704155                1.02855586               -0.03563904               -1.31077950                0.13697201
               4.12605300                0.74301308               37.29543119                1.00000000               -0.21255911               -0.20279151                0.74991612               -0.04201693               -1.28925080               -0.20771734
               5.12442312                0.51820080               37.18197344                0.63071646               -0.01997916               -0.13657605                0.48009250               -0.04894160               -0.49865022               -0.90114325
               6.12565341                0.29303045               37.07763946                0.70088196                0.16057940               -0.10896201                0.16476247               -0.06888937               -0.10098717                0.28573246
               7.12763471                0.06857740               36.97249302                0.77011213                0.20687453                0.00240296               -0.08751170               -0.07632073               -0.27456409                0.16518076
               8.12979090               -0.15448355               36.86397113                0.76263809                0.25046235                0.07857123               -0.31938234               -0.05030532               -0.46234008               -0.05927502
               9.13264395               -0.37650357               36.75415743                0.85370876                0.28796011                0.15112299               -0.52913095               -0.06705163               -0.75496817                0.10898557
              10.13555010               -0.59750280               36.63892331                1.00000000                0.29673264                0.23167078               -0.77037331               -0.06278873               -1.11147223                0.62182619
              11.13857861               -0.81806659               36.52153170                1.00000000                0.33103728                0.31963621               -1.03082845               -0.04049954               -1.09842421                0.01072399
              12.14217085               -1.03888620               36.40643076                1.00000000                0.35922444                0.41810397               -1.31399765               -0.01466040               -0.98216328               -0.96174764
               2.35553429                2.18765907               37.48024961                1.00000000               -0.30254264               -0.36308531                1.14658828               -0.01291303               -0.16579953                1.36938315
               3.35250887                1.96455848               37.36621177                1.00000000               -0.26437086               -0.26709472                0.88800821                0.00984122               -0.21621954                0.19604222
               4.35024688                1.74098517               37.25117217                0.95342017               -0.17919230               -0.17660178                0.60967234               -0.00742020               -0.10160155               -0.48386156
               5.34892502                1.51683504               37.13934280                0.26859573               -0.02353278               -0.10843492                0.32825419               -0.04612382                1.51863818               -1.26646072
               6.34977622                1.29194083               37.05646608                0.40772488                0.08517391               -0.05610606                0.02476407               -0.07404024                2.44773970                0.94429381
               7.35062850                1.06860143               36.96062461                0.49997778                0.10260547                0.04634076               -0.22271920               -0.04206516                1.64502241                0.46229445
               8.35182833                0.84630216               36.86031888                0.41987025                0.14272808                0.12937752               -0.44686456               -0.01470764                1.58151262               -0.26261938
               9.35348306                0.62500766               36.76246582                0.50799639                0.19376993                0.19947722               -0.65607495               -0.04289995                1.62193954                0.48873066
              10.35570373                0.40481391               36.66247604                1.00000000                0.26911243                0.25887418               -0.89260574               -0.03505560                0.84713066                0.85539168
              11.35886531                0.18512977               36.54897190                1.00000000                0.35700647                0.33293586               -1.16944593                0.00247968                0.10508461                0.16301041
              12.36284386               -0.03470516               36.43411514                1.00000000                0.39785485                0.44524276               -1.45092279                0.03085336                0.03881140               -1.12406852
               2.57809323                3.18413329               37.43848065                1.00000000               -0.25482023               -0.34593488                1.01424797               -0.00756297                0.04500291                1.73182992
               3.57554503                2.96208701               37.31809102                1.00000000               -0.22325979               -0.22971828                0.75622586                0.01164935                0.22828507                0.18977123
               4.57362804                2.73948105               37.20135395                0.66760804               -0.15000228               -0.11698854                0.49888440               -0.02321348                0.64857476               -1.23368220
               5.57254498                2.51603210               37.08930947                0.00010000               -0.06109076               -0.06918933                0.19657121               -0.05271801                4.45718320               -1.94598143
               6.57240622                2.29190833               37.04865974                0.00010000               -0.00564566               -0.07326145               -0.16613382               -0.26992105                5.68205424               -1.07085755
               7.57243207                2.06950421               36.95469028                0.00010000                0.03421447               -0.04356546               -0.36396136               -0.30176344                2.67922626               -0.01383595
               8.57309051                1.84810400               36.85257249                0.00010000                0.04210676               -0.00803302               -0.56971627               -0.32304271                3.69785290                0.83830064
               9.57327421                1.62748598               36.77836165                0.00010000                0.08181860                0.02142201               -0.79305963               -0.28020937                4.44061171                1.44967529
              10.57472688                1.40767468               36.69066531                0.41754002                0.24365295                0.26382275               -1.02926526               -0.17588763                2.57474713                1.82821497
              11.57814727                1.18859213               36.57942558                1.00000000                0.38654515                0.34500865               -1.30691356               -0.06239626                0.91660062                0.86896106
              12.58245779                0.97001866               36.45855465                1.00000000                0.43105201                0.50619441               -1.58157116                0.01723653                0.43770871               -1.04441840
               2.79947561                4.18074038               37.39667698                1.00000000               -0.20815096               -0.32795583                0.88080465               -0.01503780                0.12144027                1.60438882
               3.79739410                3.95996412               37.26865074                1.00000000               -0.18190479               -0.18859561                0.62329072                0.00209931                0.19381912                0.00753210
               4.79583751                3.73864540               37.14204812                0.36861093               -0.09753565               -0.05616677                0.38148080               -0.08433337                1.14034756               -1.66734449
               5.79544338                3.51545125               37.03291770                0.00010000               -0.24659104               -0.00488013                0.11489632               -0.22283704                5.21637056               -2.62253210
               6.79090569                3.29047560               36.98774829                0.00010000               -0.35229123               -0.05348135               -0.17376291               -0.55571881                8.06835864               -2.64366123
               7.78839756                3.06773012               36.93339084                0.00010000               -0.17599910               -0.10953615               -0.43117419               -0.64849742                7.34158906               -0.42236622
               8.78738571                2.84614150               36.87084934                0.00010000               -0.00446857               -0.15696429               -0.67486338               -0.72594778                6.92263427                1.78314867
               9.78830819                2.62543610               36.80576092                0.00010000                0.18470586               -0.16600840               -0.93875596               -0.46957181                6.56236591                2.34886817
              10.79107982                2.41009036               36.73360787                0.15841171                0.34826113               -0.09631832               -1.23116461               -0.30192925                4.31122606                3.60995592
              11.79527341                2.19202995               36.62085698                0.65581001                0.46278554                0.27973945               -1.51067392               -0.19372611                1.25759246                1.90415841
              12.80033554                1.97541873               36.48788199                1.00000000                0.50621255                0.59985998               -1.74938943               -0.07251386                0.24640949               -0.28925242
               3.01934499                5.17757417               37.35247495                1.00000000               -0.16629974               -0.29634392                0.73681447               -0.02847252                0.19555713                1.33249372
               4.01768199                4.95831509               37.21687199                0.79813708               -0.14453781               -0.13198991                0.47995547               -0.02102265                0.30379998               -0.31761796
               5.01645424                4.73835771               37.08340045                0.19325014               -0.07119752                0.01456076                0.23470223               -0.14386473                1.37303417               -1.80964089
               6.01625804                4.51593450               36.96915925                0.00010000               -0.37206270                0.11779298               -0.00836963               -0.45525806                7.04366069               -2.63777180
               7.00901298                4.29083870               36.94902747                0.00010000               -0.62309109                0.09534669               -0.23431426               -0.74739896               11.37437631               -0.99657154
               8.00379622                4.06731349               36.91937696                0.00010000               -0.40737076                0.01982096               -0.49218227               -0.83911783               10.63320066                0.26290025
               9.00086557                3.84496471               36.88205782                0.00010000               -0.19311576               -0.06272514               -0.76295443               -0.88673330               10.14956764                1.58882430
               9.99993391                3.62416581               36.83996539                0.00010000                0.06144441               -0.12467889               -1.05817603               -0.83399084               10.00773692                2.86617637
              11.00209445                3.40574832               36.79685805                0.13487437                0.45052344               -0.41707613               -1.42767383               -0.41537489                6.05608751                4.44118955
              12.00894438                3.19418692               36.67175290                0.52899148                0.60677458                0.19184370               -1.51790307               -0.02724230                1.09359902                2.47142214
              13.01422995                2.98201586               36.52762000                0.92664120                0.52855703                0.66599122               -1.79611598               -0.08235374                0.17388382                0.37550604
               3.23742432                6.17481350               37.30535879                1.00000000               -0.12342145               -0.24696390                0.58259897               -0.03334727                0.12856474                1.06191789
               4.23619011                5.95732432               37.16088012                0.62787805               -0.10417547               -0.06792531                0.31354822               -0.03531246                0.36397825               -0.64169025
               5.23534081                5.73893661               37.02106723                0.11568976               -0.11664342                0.10075789                0.07037221               -0.17672179                2.14563579               -2.20806396
               6.23385724                5.51780711               36.91220330                0.00010000               -0.53810446                0.15956704               -0.05237097               -0.78877857                9.57584545               -0.65379864
               7.22457872                5.29238253               36.92091283                0.00010000               -0.81840235                0.18588211               -0.27120355               -1.06609534               14.69961599                0.02046979
               8.21748919                5.06812654               36.91227712                0.00010000               -0.58900013                0.12655106               -0.54857796               -1.10514688               13.62620863                0.87085818
               9.21279872                4.84488700               36.89692386                0.00010000               -0.33222121                0.02480121               -0.82529997               -1.15113345               13.27492596                1.92422752
              10.21084477                4.62294253               36.87827953                0.00010000               -0.00237498               -0.11283846               -1.13013391               -1.17779343               13.21605188                3.15421103
              11.21275122                4.40174884               36.85820126                0.13942658                0.38081292               -0.34123065               -1.52712717               -0.50828389                7.73228423                4.46760318
              12.21846102                4.19586682               36.72492213                0.48963053                0.51396839                0.16692921               -1.31142947                0.07475759                1.12846908                2.40195063
              13.22303059                3.98873855               36.57035721                0.91129995                0.45695624                0.63627700               -1.61208937               -0.04684842                0.10728897                0.45294464
               3.45365640                7.17263490               37.25585727                1.00000000               -0.08037721               -0.18469215                0.42303993               -0.02970161                0.05109144                0.88256797
               4.45285263                6.95695659               37.10250677                0.53163973               -0.06096969               -0.01408876                0.15054781               -0.03116863                0.30374389               -0.78408604
               5.45243701                6.74037287               36.95415398                0.07357475               -0.29080377                0.16771990               -0.11003284               -0.26076197                4.67164015               -2.54702230
               6.44703655                6.51912584               36.88813013                0.00010000               -0.75326783                0.13282591                0.10922097               -1.00767272               12.82621034                1.30311411
               7.43737165                6.29455634               36.90257130                0.00010000               -0.89238668                0.25769917               -0.32070958               -1.22829574               16.67022873                0.75732305
               8.42918882                6.06984451               36.91066707                0.00010000               -0.71723730                0.22554266               -0.59938706               -1.34961218               16.32775363                1.27289741
               9.42302691                5.84546074               36.91523460                0.00010000               -0.48363127                0.09655967               -0.85418321               -1.46547149               16.27262026                2.14821758
              10.41951620                5.62190904               36.91878070                0.00010000               -0.20112119               -0.07426769               -1.10992913               -1.60166860               16.47041663                3.26411309
              11.41900448                5.39892370               36.92319337                0.15798021                0.19668089               -0.21698257               -1.38716270               -0.80632102                9.18197240                4.62232107
              12.42344981                5.19752550               36.77545799                0.46891302                0.42725166                0.17368824               -1.16937229                0.08762579                0.85867287                2.09922047
              13.42754951                4.99474140               36.61142339                0.90321815                0.40997017                0.57867376               -1.48876497               -0.01887004                0.07518218                0.25127610
               3.66818691                8.17111966               37.20522606                1.00000000               -0.03581492               -0.11913557                0.26476612               -0.02687172                0.01601938                0.81302762
               4.66782876                7.95704255               37.04352219                0.49546333               -0.01152946                0.02768464               -0.00713702               -0.01576229                0.16132070               -0.80442530
               5.66795632                7.74229101               36.88465032                0.05086274               -0.41542229                0.19527831               -0.28672131               -0.34665719                7.57765489               -2.67198152
               6.65952031                7.52046363               36.87120715                0.00010000               -0.93310910                0.25351078               -0.09978091               -0.93768811               16.51035069                0.95376624
               7.64929414                7.29753652               36.88945688                0.00010000               -0.99638803                0.39063708               -0.41288915               -1.16925846               18.44935852                0.93146682
               8.63959255                7.07263739               36.91188498                0.00010000               -0.89346902                0.38417358               -0.66049137               -1.49298267               18.85988853                1.36433979
               9.63142476                6.84681819               36.93493454                0.00010000               -0.71220630                0.21894139               -0.86125731               -1.79050501               19.17892586                2.15559418
              10.62534843                6.62145717               36.95975966                0.00010000               -0.52082095                0.00004806               -1.01509121               -2.01219497               19.70942742                3.13871360
              11.62100834                6.39740919               36.98876680                0.18952281               -0.04762895               -0.07598108               -1.08531271               -1.10193649               10.46165382                4.32884140
              12.62439585                6.19934059               36.82324536                0.45985581                0.36065316                0.20152722               -1.09401172                0.06442343                0.40826274                1.77753652
              13.62822140                6.00031203               36.64997228                0.89736509                0.38255529                0.54117237               -1.43688342               -0.00265318                0.04693781               -0.03611962
               3.88127319                9.17025219               37.15436605                1.00000000                0.00928404               -0.05634702                0.10851932               -0.02477531                0.00191251                0.81700172
               4.88136603                8.95751028               36.98459866                0.51050165                0.04047960                0.06537514               -0.16216074               -0.00453152                0.00844930               -0.77927364
               5.88208278                8.74427844               36.81486944                0.03762320               -0.41643697                0.19667431               -0.44916739               -0.31554058                9.78988158               -2.46109324
               6.87303729                8.52419605               36.84063512                0.00010000               -1.01350276                0.47197726               -0.40860570               -0.72610279               20.12808084                0.01440871
               7.86181272                8.30236908               36.87496494                0.00010000               -1.14948974                0.59318209               -0.56418142               -0.99461683               20.88712680                0.65442229
               8.85004749                8.07752798               36.91250183                0.00010000               -1.17078519                0.62553449               -0.74339760               -1.44470083               21.44098738                1.12061267
               9.83839702                7.84983956               36.95390939                0.00010000               -1.06830980                0.52493053               -0.89374007               -1.97976732               22.01111709                1.84644144
              10.82868130                7.62191000               36.99833124                0.00218437               -0.96573411                0.17784838               -0.93306392               -2.46650904               22.70662346                3.03962098
              11.81908234                7.39740408               37.04867797                0.23546469               -0.34229284                0.06192968               -0.79390017               -1.37404662               11.67383519                3.47800548
              12.82183544                7.20155605               36.86768578                0.46194510                0.32356146                0.24825512               -1.06321041                0.01562432                0.06711236                1.41147277
              13.82555357                7.00556484               36.68527027                0.89312329                0.37181269                0.50703155               -1.43457640                0.00727553                0.01874647               -0.38479088
               4.09317521               10.16999271               37.10381317                0.99758492                0.05366631                0.00126348               -0.04650883               -0.02366020               -0.01980876                0.72603519
               5.09371188                9.95835005               36.92597066                0.54756295                0.08922593                0.10293151               -0.31253604               -0.00244280                0.04298080               -0.64409180
               6.09495973                9.74622450               36.74927301                0.00664052               -0.34021322                0.20256787               -0.59409555               -0.18426754               11.72272623               -1.61561209
               7.08690761                9.52990318               36.80490552                0.00010000               -0.94449288                0.61073131               -0.62597354               -0.40150242               23.33463203               -0.16885781
               8.07606987                9.30940016               36.85669354                0.00010000               -1.18397784                0.74099144               -0.72815867               -0.62066543               23.42475143                0.29159351
               9.06322806                9.08514808               36.90944413                0.00010000               -1.43112434                0.85706125               -0.85362203               -0.95432793               23.99957869                0.62075618
              10.04744739                8.85731680               36.96814220                0.00010000               -1.73871640                0.94691204               -0.97487453               -1.56654896               25.10078939                1.09078333
              11.02845373                8.62501414               37.03823393                0.06564868               -1.67830136                0.86568701               -1.09112889               -2.22891713               25.38147100                2.32399865
              12.01388136                8.39864778               37.09740741                0.29948873               -0.59530776                0.17776473               -0.66373519               -1.61190178               12.59220966                1.91885267
              13.01654757                8.20430569               36.90817330                0.47274504                0.32339795                0.29809171               -1.07017551               -0.02386858                0.08299605                0.91857013
              14.02034932                8.01045266               36.71669236                0.88217780                0.38017474                0.47914799               -1.47540113                0.01045968               -0.00761381               -0.57018207
               4.30408532               11.17027746               37.05109501                1.00000000                0.10000720                0.02847404               -0.19522882                0.02015586                0.39583183                0.62195562
               5.30508539               10.95956891               36.86959900                0.81652001                0.13794921                0.12188620               -0.46122109                0.03996825                0.80557556               -0.52384165
               6.30684430               10.74832979               36.69616666                0.49646627               -0.16269042                0.21052972               -0.73669258                0.03054549               13.63416068               -0.98205104
               7.30183158               10.53641068               36.77106045                0.36901367               -0.63448941                0.65075058               -0.79468411               -0.06464730               25.88443921               -0.16044044
               8.29415451               10.31718891               36.83572458                0.35862701               -0.93936442                0.77887543               -0.88193157               -0.27860992               25.66658179                0.10076509
               9.28304429               10.09466921               36.90083327                0.37109762               -1.34772671                0.95211275               -0.99230282               -0.43893166               26.26901008                0.30364395
              10.26719998                9.86877780               36.97272744                0.40545158               -2.01361594                1.14610042               -1.10887362               -0.79701400               27.75306206                0.58702890
              11.24277197                9.63922374               37.06300762                0.55748968               -2.98236122                1.42096024               -1.30445374               -1.95909676               27.53755227                1.59274532
              12.20755275                9.40095938               37.12587455                0.68159373               -1.66093913                0.23115950               -0.75649305               -2.21815365               13.95329265                0.92650472
              13.20955319                9.20751788               36.94251210                0.75321245                0.29580331                0.32121928               -1.13058745                0.00998325                1.10202875                0.62904899
              14.21346882                9.01514780               36.74795535                0.94049293                0.39156297                0.46951438               -1.53873090                0.07494226                0.56320812               -0.55670750
               2.23725832                1.25135385               38.54234478                1.00000000               -0.34973497               -0.37794461                1.30367194               -0.05951597               -1.01607115                1.01640108
               3.23376097                1.01885444               38.42582559                1.00000000               -0.30513670               -0.28815199                1.03208743               -0.03596877               -1.34007425                0.14443603
               4.23115558                0.78589750               38.30288531                1.00000000               -0.20978013               -0.20085610                0.74025299               -0.04232021               -1.32277574               -0.20741168
               5.22956536                0.55249610               38.18667885                0.63376557               -0.02391413               -0.13150086                0.45810722               -0.09167936               -0.55098079               -0.91801965
               6.23067730                0.31775555               38.07907511                0.69848103                0.17524906               -0.11869797                0.11424285               -0.06191017               -0.13454915                0.28149570
               7.23307035                0.08276922               37.97136012                0.76204316                0.25344975                0.00369432               -0.14972245               -0.08017229               -0.24872379                0.15922713
               8.23574630               -0.15077458               37.86054562                0.75461001                0.30064608                0.08054536               -0.37533923               -0.05110900               -0.39521561               -0.06253215
               9.23908327               -0.38305681               37.74871501                0.84811054                0.32463646                0.15147900               -0.56449508               -0.06946848               -0.67622381                0.11168785
              10.24223902               -0.61413357               37.63116062                1.00000000                0.31337192                0.23364852               -0.78654267               -0.06585389               -1.05418930                0.63497822
              11.24535071               -0.84463663               37.51120641                1.00000000                0.33700199                0.32249228               -1.03973887               -0.04127692               -1.06278628                0.02024716
              12.24897906               -1.07534332               37.39328223                1.00000000                0.36283581                0.41936830               -1.32079595               -0.01579661               -0.95629584               -0.93196306
               2.46916257                2.24757441               38.49175329                1.00000000               -0.30331079               -0.36786677                1.15709878               -0.01272402               -0.17487522                1.38543838
               3.46612946                2.01597292               38.37508951                1.00000000               -0.26255075               -0.26781309                0.88848976                0.01074779               -0.23678512                0.20726976
               4.46391155                1.78388893               38.25721655                0.96573960               -0.17049566               -0.17427736                0.59779744               -0.00849123               -0.13304514               -0.46843256
               5.46271954                1.55118110               38.14253555                0.27572558                0.05050459               -0.10148277                0.30646318               -0.10702979                1.47412950               -1.27273005
               6.46492164                1.31656857               38.05652571                0.40843880                0.19070718               -0.07532678               -0.01839507               -0.05685716                2.42943551                0.91226163
               7.46653369                1.08280616               37.95817502                0.49649700                0.16132891                0.04458056               -0.27362354               -0.04493008                1.68606765                0.45364735
               8.46814822                0.85003087               37.85566489                0.42018006                0.17671963                0.13224876               -0.48852368               -0.02043449                1.65679888               -0.26306054
               9.47006808                0.61845798               37.75582168                0.51032340                0.21110864                0.20159255               -0.67307746               -0.04443919                1.69431630                0.48929335
              10.47237039                0.38820291               37.65350287                1.00000000                0.27373652                0.26051890               -0.90046530               -0.03848021                0.88219012                0.86211057
              11.47554281                0.15858829               37.53724662                1.00000000                0.35787001                0.33696500               -1.17409007                0.00221199                0.11560551                0.17415496
              12.47952779               -0.07114964               37.41957761                1.00000000                0.39849823                0.44441658               -1.45445498                0.02984833                0.04514411               -1.08861009
               2.70020680                3.24399652               38.44865186                1.00000000               -0.25454064               -0.35165527                1.02258960               -0.00735912                0.04194956                1.75161673
               3.69766139                3.01349818               38.32564157                1.00000000               -0.22146071               -0.22961677                0.75437634                0.01120655                0.22438180                0.20458486
               4.69577759                2.78241195               38.20628492                0.68439970               -0.14581301               -0.11167865                0.48583481               -0.02705244                0.62339729               -1.20585452
               5.69474513                2.55046645               38.09118109                0.00010000                0.10687531               -0.05985050                0.17443376               -0.14089791                4.37663866               -1.91665741
               6.69791509                2.31624901               38.04676705                0.00010000                0.19821534               -0.10222864               -0.21685660               -0.45113862                5.66953356               -1.03753329
               7.69870944                2.08366083               37.95082433                0.00010000                0.08853482               -0.04946410               -0.41288110               -0.46219928                2.76653909                0.00851460
               8.69968579                1.85187040               37.84671186                0.00010000                0.06565034               -0.00824023               -0.60449031               -0.44837324                3.78381646                0.84130123
               9.70002245                1.62097504               37.77047171                0.00010000                0.08266568                0.01645340               -0.78647394               -0.34471557                4.49252945                1.41468539
              10.70133910                1.39107680               37.68034603                0.41465483                0.23625244                0.26583453               -1.02852115               -0.17227025                2.58932403                1.80190278
              11.70474750                1.16210267               37.56630500                1.00000000                0.38563992                0.35175792               -1.30781277               -0.05337748                0.91256785                0.84723634
              12.70905190                0.93354501               37.44271155                1.00000000                0.43044045                0.49807953               -1.57749383                0.01836576                0.43190612               -1.02205788
               2.93001205                4.24054130               38.40550497                1.00000000               -0.20738962               -0.33437771                0.88710961               -0.01547091                0.12373232                1.61707999
               3.92793816                4.01138059               38.27486366                1.00000000               -0.18049090               -0.18720540                0.61965465                0.00112205                0.20317816                0.01633643
               4.92640223                3.78165536               38.14580548                0.36972929               -0.09368177               -0.04797463                0.36822567               -0.09072248                1.14515868               -1.65659207
               5.92606452                3.54998409               38.03395795                0.00010000               -0.18488720                0.00666061                0.08872288               -0.33296912                5.19641902               -2.58649104
               6.92270449                3.31452400               37.98580815                0.00010000               -0.21980998               -0.06444760               -0.21890338               -0.85325764                8.06146452               -2.54303055
               7.92166832                3.08181688               37.92881143                0.00010000               -0.04189723               -0.12575011               -0.48824802               -0.91767930                7.36792283               -0.36211548
               8.92186655                2.84986607               37.86379492                0.00010000                0.11495204               -0.17147648               -0.73653239               -0.96103997                6.94953362                1.79895899
               9.92396736                2.61878705               37.79601658                0.00010000                0.29654042               -0.18996782               -0.99941501               -0.61385264                6.58451260                2.31391909
              10.92779735                2.39351960               37.72148503                0.14432915                0.40198472               -0.12815162               -1.19065616               -0.31136091                4.27957804                3.45534563
              11.93200706                2.16562345               37.60574839                0.62630333                0.46065408                0.27234759               -1.49494012               -0.18074261                1.24181775                1.91799541
              12.93701044                1.93881195               37.47043001                1.00000000                0.50033796                0.58088088               -1.72727125               -0.06775453                0.25380582               -0.23950048
               3.15821881                5.23730896               38.35984956                1.00000000               -0.16490325               -0.30264933                0.74027193               -0.03009231                0.20303602                1.33366110
               4.15656977                5.00975407               38.22164269                0.78806266               -0.14295833               -0.12803286                0.47400639               -0.02443150                0.31679427               -0.32638178
               5.15535964                4.78145246               38.08569135                0.18930261               -0.06763286                0.02574404                0.22105315               -0.15395945                1.39295326               -1.82339047
               6.15521712                4.55059966               37.96896527                0.00010000               -0.31712460                0.12351844               -0.03510659               -0.57417696                7.06940430               -2.57316282
               7.14901715                4.31496006               37.94647932                0.00010000               -0.51016666                0.09881280               -0.27945767               -0.96125021               11.39950558               -0.91086066
               8.14501378                4.08114583               37.91413359                0.00010000               -0.27611622                0.00192957               -0.55964967               -1.05184149               10.63979130                0.32957445
               9.14349482                3.84844087               37.87398612                0.00010000               -0.04609598               -0.08467538               -0.85210444               -1.09405941               10.13885227                1.62786287
              10.14409186                3.61717568               37.82880374                0.00010000                0.23903268               -0.15569920               -1.17122879               -1.00602889                9.93107547                2.86996972
              11.14827548                3.38851377               37.78148807                0.12188863                0.58742159               -0.47838582               -1.61762859               -0.46281202                6.10972691                4.34411534
              12.15584029                3.16754962               37.65615486                0.49942540                0.65221698                0.14835912               -1.55518678               -0.01183392                1.20457711                2.67141386
              13.16131982                2.94516263               37.50953001                0.91109865                0.54795210                0.64843549               -1.78782557               -0.08437370                0.15162367                0.55676360
               3.38451998                6.23448831               38.31117654                1.00000000               -0.12139506               -0.25200938                0.58280052               -0.03473737                0.12631056                1.05434085
               4.38330603                6.00881993               38.16396425                0.61507695               -0.10212624               -0.06133928                0.30283223               -0.04023444                0.37500215               -0.66033247
               5.38247746                5.78217024               38.02169328                0.11066923               -0.11163283                0.11844314                0.05103741               -0.20184022                2.23663476               -2.24062096
               6.38107338                5.55245445               37.91166356                0.00010000               -0.47720683                0.13660404               -0.05800367               -0.92001804                9.67655528               -0.44760892
               7.37293332                5.31650025               37.91798751                0.00010000               -0.69613440                0.18095221               -0.31770460               -1.26946695               14.71606808                0.11314269
               8.36715069                5.08185547               37.90640573                0.00010000               -0.44889095                0.11669667               -0.62917640               -1.28910469               13.61568110                0.94685771
               9.36395550                4.84817256               37.88810627                0.00010000               -0.16884041                0.00897246               -0.94071581               -1.32865758               13.24336962                1.99723768
              10.36377388                4.61567306               37.86612921                0.00010000                0.21058346               -0.13585105               -1.30078646               -1.33441765               13.09862413                3.23231246
              11.36816717                4.38395188               37.84148183                0.12664687                0.56738216               -0.39978170               -1.81397449               -0.57052356                7.92225595                4.61067953
              12.37512152                4.16859064               37.71125021                0.46403307                0.59648929                0.11355525               -1.39490024                0.07466408                1.40778041                2.68498378
              13.38009696                3.95178066               37.55392821                0.89575090                0.49754350                0.63029131               -1.64753744               -0.05040350                0.08787084                0.68631213
               3.60886082                7.23226877               38.26006338                1.00000000               -0.07776678               -0.18782065                0.41965155               -0.03024076                0.04790685                0.87186202
               4.60808315                7.00852729               38.10394647                0.52164733               -0.05862560               -0.00660548                0.13715654               -0.03384912                0.30562286               -0.79732980
               5.60768831                6.78382132               37.95293498                0.06858250               -0.27982054                0.18836202               -0.13579189               -0.32157541                4.93170409               -2.58255347
               6.60248674                6.55333174               37.88928717                0.00010000               -0.67307593                0.10170083                0.11158777               -1.13563951               12.99791322                1.40465603
               7.59422679                6.31857911               37.89909222                0.00010000               -0.74636819                0.24582634               -0.37982457               -1.39447068               16.57926096                0.82716287
               8.58755938                6.08347976               37.90421684                0.00010000               -0.55613565                0.21398459               -0.69508272               -1.50899656               16.32885035                1.35574906
               9.58310408                5.84862032               37.90602607                0.00010000               -0.29675968                0.08146250               -0.99273035               -1.61131981               16.27251495                2.26278406
              10.58162419                5.61445866               37.90670890                0.00010000                0.04216755               -0.09407511               -1.31351517               -1.74337450               16.43238940                3.44992933
              11.58394743                5.38051814               37.90781755                0.14459558                0.39403068               -0.26998480               -1.71519948               -0.86527024                9.45410362                4.99477340
              12.58950480                5.16982073               37.76334655                0.44710924                0.49921330                0.14186089               -1.24637195                0.08592109                1.16578255                2.30967816
              13.59393170                4.95776845               37.59631373                0.88897387                0.44268959                0.57686139               -1.52556190               -0.02560082                0.06919101                0.40205912
               3.83139814                8.23073190               38.20783219                1.00000000               -0.03216347               -0.12046449                0.25770725               -0.02734101                0.01455724                0.80277347
               4.83107650                8.00868782               38.04337432                0.48830973               -0.00783221                0.03523335               -0.02312488               -0.01678095                0.15554687               -0.81300618
               5.83124150                7.78593748               37.88166504                0.04863326               -0.37368537                0.21379911               -0.31216554               -0.42884479                7.79597378               -2.69344910
               6.82360280                7.55448847               37.86993691                0.00010000               -0.81728028                0.24628758               -0.16080247               -1.06810502               16.72306517                0.82648214
               7.81489589                7.32141678               37.88498053                0.00010000               -0.83366252                0.37505768               -0.48859073               -1.31706322               18.45067013                0.95862989
               8.80692955                7.08613516               37.90474850                0.00010000               -0.70728424                0.36464440               -0.77225847               -1.63084492               18.91372646                1.44465583
               9.80075020                6.84980181               37.92559460                0.00010000               -0.49604897                0.19640652               -1.01491229               -1.91120341               19.27270134                2.28774572
              10.79700857                6.61379156               37.94865696                0.00010000               -0.26252534               -0.02947519               -1.22236697               -2.14217848               19.85938476                3.38360088
              11.79549970                6.37855219               37.97670486                0.17525950                0.12905304               -0.10435305               -1.36938105               -1.16786401               10.75842586                4.79428477
              12.79958963                6.17142785               37.81194783                0.44035789                0.40948980                0.19012550               -1.16655735                0.06612458                0.60883049                1.91898887
              13.80368949                5.96331789               37.63537863                0.88414355                0.40998658                0.54309927               -1.48127065               -0.00649241                0.04632988                0.03776481
               4.05240216                9.22985948               38.15539226                1.00000000                0.01397928               -0.05579873                0.09757787               -0.02525146                0.00053412                0.80714519
               5.05254195                9.00923195               37.98288627                0.50591547                0.04543024                0.07317516               -0.18131459               -0.00477756               -0.00100494               -0.78346292
               6.05331077                8.78809730               37.81025510                0.03568401               -0.34483033                0.21204183               -0.47615655               -0.40789648                9.92813635               -2.46389779
               7.04564535                8.55825749               37.83621565                0.00010000               -0.85359640                0.46347225               -0.47384021               -0.88199505               20.33860961               -0.09342275
               8.03623884                8.32608026               37.86889839                0.00010000               -0.95439482                0.56490266               -0.65570474               -1.13937061               21.00773684                0.65245736
               9.02655745                8.09077265               37.90446672                0.00010000               -0.95076117                0.59367757               -0.86974066               -1.56400751               21.57317170                1.18752549
              10.01722361                7.85254845               37.94416258                0.00010000               -0.82636050                0.49382849               -1.06259466               -2.08731859               22.22682129                1.95905081
              11.01003024                7.61386916               37.98813057                0.00010000               -0.71348792                0.14965953               -1.12299445               -2.57428145               23.08676982                3.15383245
              12.00295386                7.37843108               38.04001990                0.22122749               -0.19843239                0.06311616               -0.96875545               -1.44674704               11.98798886                3.85450783
              13.00606159                7.17362324               37.85670622                0.44332978                0.35339618                0.25362084               -1.13718330                0.01708607                0.13144988                1.50902956
              14.01002178                6.96863044               37.67063728                0.88023931                0.39601866                0.51830563               -1.49490353                0.00443777                0.01940909               -0.36309166
               4.27214817               10.22961593               38.10326685                0.99305996                0.05949679                0.00413428               -0.06237097               -0.02421284               -0.01848799                0.71983857
               5.27274314               10.01015132               37.92274347                0.54492859                0.09549291                0.11098207               -0.33478633               -0.00305159                0.03659091               -0.64468105
               6.27405803                9.79017832               37.74320135                0.00525513               -0.23815997                0.21444864               -0.62362452               -0.29638958               11.82782893               -1.60673469
               7.26797994                9.56375792               37.79835018                0.00010000               -0.72323519                0.55627452               -0.68973543               -0.53888715               23.54040193               -0.20738531
               8.25959332                9.33271483               37.84893245                0.00010000               -0.93993633                0.69179250               -0.82913517               -0.72468015               23.60491323                0.28863976
               9.24918121                9.09800871               37.90024480                0.00010000               -1.18429997                0.81598003               -0.99226741               -1.03180928               24.19422051                0.66094791
              10.23590732                8.85967838               37.95748053                0.00010000               -1.47704512                0.91501904               -1.16014937               -1.64299489               25.31970168                1.15610059
              11.21964031                8.61678475               38.02595412                0.05909916               -1.45483245                0.86631646               -1.34935743               -2.30556271               25.96499683                2.27766333
              12.20681067                8.37981451               38.09040232                0.28788938               -0.49541603                0.19650128               -0.75094259               -1.68840752               13.05028885                2.08059980
              13.20973199                8.17650027               37.89714532                0.45445774                0.34765885                0.31385001               -1.14100246               -0.02578154                0.07844037                0.97306908
              14.21376385                7.97368400               37.70158464                0.86911074                0.40318642                0.49863895               -1.55103661                0.00779943               -0.01178730               -0.57802715
               4.49084711               11.22994217               38.04904990                1.00000000                0.10714217                0.03262443               -0.21457546                0.02083633                0.39261409                0.61955594
               5.49191853               11.01145160               37.86486651                0.81622760                0.14646381                0.13002719               -0.48794263                0.03974426                0.79859510               -0.52283193
               6.49377638               10.79238627               37.68865311                0.49518685                0.02062811                0.22079543               -0.77017795               -0.13159512               13.72451764               -0.97008685
               7.49233109               10.56938298               37.76277648                0.36913407               -0.31409725                0.56250680               -0.86639917               -0.18839296               26.08299001               -0.18335532
               8.48749444               10.33991611               37.82638359                0.35876663               -0.66866868                0.72012766               -0.99148320               -0.32442541               25.86297308                0.09753101
               9.47895772               10.10709225               37.89018413                0.37085806               -1.09533789                0.90835351               -1.14263011               -0.47571362               26.47976098                0.32026005
              10.46558768                9.87084883               37.96063076                0.40454020               -1.75874304                1.11704450               -1.30893279               -0.82680257               27.93840508                0.60912781
              11.44378286                9.63119549               38.04812719                0.55491673               -2.80587477                1.44107362               -1.63700406               -2.01013154               28.19377561                1.50081668
              12.40947018                9.38236110               38.11793322                0.67682720               -1.60531914                0.25465894               -0.84344789               -2.29881142               14.55311854                0.96660563
              13.41167647                9.17990024               37.93089912                0.74410630                0.31700614                0.33999687               -1.19647556                0.00655427                1.14851416                0.65956090
              14.41581031                8.97860322               37.73218744                0.93380485                0.41338343                0.49192159               -1.62010187                0.07494326                0.58841419               -0.57067524
               2.34486726                1.31290599               39.55546767                1.00000000               -0.35349769               -0.38452260                1.32554811               -0.06190930               -1.03809537                1.03017449
               3.34133228                1.07178979               39.43617125                1.00000000               -0.30615160               -0.29018933                1.03903253               -0.03741823               -1.37489538                0.15238425
               4.33874423                0.83020237               39.31023625                1.00000000               -0.20592865               -0.19854651                0.72957224               -0.04357003               -1.36375363               -0.20732769
               5.33721371                0.58812699               39.19113558                0.63805388               -0.02315341               -0.12487989                0.43039803               -0.13368710               -0.62126988               -0.93537554
               6.33828116                0.34375915               39.07992432                0.69828122                0.19880025               -0.12650391                0.04758065               -0.05531161               -0.19289616                0.27513884
               7.34118971                0.09813214               38.96949857                0.75602722                0.31252694                0.00780198               -0.23335764               -0.08449719               -0.22846481                0.14862844
               8.34453170               -0.14597272               38.85646435                0.74731263                0.36573827                0.08474308               -0.45144592               -0.05216929               -0.31236417               -0.07109516
               9.34850448               -0.38848314               38.74286752                0.84300278                0.37216136                0.15199775               -0.61078989               -0.07305731               -0.57093758                0.11299801
              10.35197492               -0.62948773               38.62319245                1.00000000                0.33483978                0.23584372               -0.81104700               -0.06817929               -0.97808592                0.64417936
              11.35520127               -0.86974206               38.50073692                1.00000000                0.34591844                0.32563401               -1.05740078               -0.04128574               -1.01782313                0.02896206
              12.35889329               -1.11011623               38.38001484                1.00000000                0.36920187                0.42095458               -1.33549511               -0.01827180               -0.92407005               -0.89882611
               2.58536436                2.30906076               39.50339158                1.00000000               -0.30544538               -0.37460204                1.17472125               -0.01300962               -0.18599535                1.40294499
               3.58230991                2.06888790               39.38398157                1.00000000               -0.26122174               -0.26926237                0.89132304                0.01117324               -0.26132223                0.21910254
               4.58013993                1.82821691               39.26312812                0.97919589               -0.16057287               -0.17136744                0.58295336               -0.00987340               -0.16869356               -0.45256493
               5.57909845                1.58687819               39.14547206                0.28368164                0.12927711               -0.09252175                0.27685927               -0.16704415                1.42133055               -1.27889280
               6.58272547                1.34249411               39.05609817                0.41022102                0.30561141               -0.09419631               -0.07394305               -0.03977685                2.40115806                0.87243076
               7.58521068                1.09821016               38.95515214                0.49398018                0.22960888                0.04529722               -0.33993556               -0.04955356                1.73013300                0.43645211
               8.58731765                0.85487471               38.85054840                0.42093060                0.21603647                0.13863546               -0.54344286               -0.02927807                1.75259838               -0.27228698
               9.58953141                0.61303684               38.74900427                0.51234469                0.23024734                0.20339626               -0.69424804               -0.05089225                1.78627825                0.48888812
              10.59192259                0.37287071               38.64446673                1.00000000                0.27856319                0.26091479               -0.90508108               -0.04087094                0.92349017                0.86428077
              11.59510267                0.13351428               38.52549010                1.00000000                0.35810763                0.33885717               -1.17513058                0.00272110                0.12753913                0.18321653
              12.59908475               -0.10590669               38.40502604                1.00000000                0.39820742                0.44206678               -1.45313224                0.02737932                0.05231202               -1.04915220
               2.82495279                3.30541395               39.45893244                1.00000000               -0.25531901               -0.35882455                1.03720138               -0.00751482                0.03738605                1.77307467
               3.82239960                3.06640455               39.33317855                1.00000000               -0.21981636               -0.22990830                0.75371204                0.01041581                0.21787399                0.22056735
               4.82055646                2.82677502               39.21107065                0.70078741               -0.14019886               -0.10548914                0.46867871               -0.03107573                0.59658814               -1.17627675
               5.81959562                2.58627656               39.09279815                0.00010000                0.27985953               -0.04704700                0.14319715               -0.23145759                4.28778562               -1.88938719
               6.82615365                2.34187522               39.04432260                0.00010000                0.41112105               -0.12956935               -0.27834460               -0.63412227                5.64421361               -1.01417532
               7.82781804                2.09903809               38.94643265                0.00010000                0.14829034               -0.05158091               -0.47403719               -0.62583362                2.86192616                0.01402788
               8.82911946                1.85679999               38.84048268                0.00010000                0.08362928               -0.00141425               -0.65279303               -0.57998583                3.89746199                0.81914300
               9.82949063                1.61558478               38.76263217                0.00010000                0.07803022                0.01728082               -0.78845935               -0.41462481                4.56448114                1.34463046
              10.83068007                1.37573057               38.67009488                0.40932668                0.22712327                0.25922598               -1.01495905               -0.17663624                2.59945785                1.78319061
              11.83403310                1.13703508               38.55326932                1.00000000                0.38013713                0.35128620               -1.29179036               -0.04716759                0.90532449                0.82860175
              12.83828281                0.89872510               38.42700478                1.00000000                0.42497125                0.48584743               -1.55606583                0.01718579                0.42590367               -0.99103372
               3.06323287                4.30188427               39.41441917                1.00000000               -0.20757213               -0.34190611                0.89872883               -0.01612017                0.12558753                1.63089019
               4.06115715                4.06428973               39.28104383                1.00000000               -0.17932346               -0.18588394                0.61658229               -0.00003300                0.21207337                0.02619985
               5.05964640                3.82610713               39.14941264                0.36916812               -0.08940237               -0.03864592                0.35082846               -0.09591125                1.14804285               -1.64355381
               6.05936910                3.58593725               39.03469216                0.00010000               -0.11824517                0.02445364                0.05221076               -0.44709310                5.17310173               -2.55274003
               7.05728150                3.33990272               38.98337022                0.00010000               -0.07999284               -0.07165513               -0.27458596               -1.15387985                8.05060872               -2.44022894
               8.05776924                3.09717854               38.92362588                0.00010000                0.09448682               -0.13637053               -0.55470980               -1.18945487                7.39268483               -0.31502226
               9.05917123                2.85484642               38.85611869                0.00010000                0.22695424               -0.17946834               -0.80114441               -1.19715452                6.97982894                1.78397550
              10.06230833                2.61338245               38.78577262                0.00010000                0.38841704               -0.20661030               -1.04648682               -0.76141795                6.65166784                2.21234918
              11.06693957                2.37805523               38.70979474                0.13094051                0.44282302               -0.15483705               -1.14424475               -0.32923226                4.29279384                3.22159535
              12.07116479                2.14054000               38.59095818                0.59955083                0.45544223                0.25391520               -1.45380477               -0.16420454                1.20957909                1.91895446
              13.07604842                1.90381026               38.45333656                0.99658436                0.48836295                0.54639132               -1.68219385               -0.06150874                0.25600746               -0.18380837
               3.29981946                5.29857583               39.36728039                1.00000000               -0.16433753               -0.30988862                0.74838884               -0.03178382                0.21080970                1.33506550
               4.29817609                5.06268687               39.22635211                0.77626373               -0.14143723               -0.12379250                0.46785669               -0.02787289                0.33076690               -0.33542420
               5.29699072                4.82600211               39.08782152                0.18483917               -0.06589617                0.03867185                0.20263819               -0.15967173                1.41182149               -1.83675035
               6.29685816                4.58676563               38.96845712                0.00010000               -0.25779747                0.12978889               -0.07173775               -0.69174876                7.09276736               -2.49728356
               7.29183477                4.34044212               38.94343832                0.00010000               -0.38864581                0.10648794               -0.33360951               -1.17892722               11.41616413               -0.82099476
               8.28908525                4.09631068               38.90818397                0.00010000               -0.14311536               -0.00990523               -0.63378605               -1.26583445               10.63398228                0.38810087
               9.28897246                3.85321062               38.86501573                0.00010000                0.09841078               -0.10273134               -0.94154591               -1.30433464               10.11051731                1.64251432
              10.29105346                3.61145258               38.81654082                0.00010000                0.39827057               -0.18494176               -1.27199919               -1.17217135                9.80673438                2.81677260
              11.29693787                3.37263383               38.76450548                0.10926259                0.69702561               -0.52111391               -1.74709273               -0.51017139                6.18240145                4.08056581
              12.30499398                3.14211338               38.64064917                0.47338616                0.67871200                0.09174046               -1.52087193                0.00122803                1.38451493                2.81217572
              13.31051211                2.90965293               38.49186349                0.89722704                0.55181376                0.59354104               -1.72890956               -0.07686675                0.14010150                0.71686017
               3.53437511                6.29568650               39.31701480                1.00000000               -0.12016998               -0.25796678                0.58711160               -0.03581728                0.12303905                1.04634074
               4.53317341                6.06181388               39.16693677                0.60262753               -0.10004543               -0.05434729                0.29125397               -0.04442730                0.38522554               -0.67873628
               5.53237420                5.82688056               39.02208798                0.10506056               -0.10396492                0.13739685                0.02364375               -0.22705885                2.33955948               -2.27132540
               6.53109411                5.58853303               38.91104322                0.00010000               -0.41081464                0.10899873               -0.06736283               -1.04343318                9.76934817               -0.22440120
               7.52415791                5.34203248               38.91455874                0.00010000               -0.57050278                0.18322333               -0.37296890               -1.46800828               14.70431858                0.20410934
               8.51968405                5.09698044               38.89969359                0.00010000               -0.31076352                0.11530258               -0.71579181               -1.47469783               13.58081380                1.01485250
               9.51794264                4.85279180               38.87810955                0.00010000               -0.01211819                0.00087361               -1.05769924               -1.51420686               13.17331623                2.05029120
              10.51944169                4.60968362               38.85226380                0.00010000                0.40663514               -0.15363503               -1.46418952               -1.49199001               12.89484991                3.26730859
              11.52607534                4.36763295               38.82192177                0.11388063                0.73642790               -0.45188442               -2.06619893               -0.63988883                8.14082178                4.66434192
              12.53417025                4.14237481               38.69702413                0.44024435                0.66783270                0.04540299               -1.41913742                0.06617181                1.77989870                2.92018138
              13.53943199                3.91568108               38.53740646                0.88179877                0.52617444                0.58396160               -1.63399612               -0.04502970                0.06872169                0.88533347
               3.76684835                7.29341649               39.26425030                1.00000000               -0.07548691               -0.19201305                0.41937613               -0.03072302                0.04473464                0.86057690
               4.76609348                7.06159992               39.10524990                0.51175950               -0.05589773                0.00143714                0.12318761               -0.03665055                0.30622461               -0.80930264
               5.76573039                6.82875004               38.95143814                0.06371603               -0.26279488                0.21106771               -0.16426179               -0.38576554                5.20615358               -2.61447002
               6.76083758                6.58894561               38.89036189                0.00010000               -0.58515981                0.07658810                0.09291166               -1.25357178               13.16547895                1.48278879
               7.75402720                6.34410659               38.89497480                0.00010000               -0.60028018                0.24352301               -0.44748088               -1.54954163               16.45327305                0.88744597
               8.74883198                6.09861673               38.89676541                0.00010000               -0.40210254                0.21500955               -0.79794622               -1.66547701               16.29884885                1.42960375
               9.74598515                5.85322809               38.89537999                0.00010000               -0.12297355                0.08224015               -1.13742859               -1.76045830               16.22003644                2.36262714
              10.74637251                5.60837988               38.89251040                0.00010000                0.27318792               -0.09880481               -1.52630090               -1.88238922               16.28306799                3.61601181
              11.75144890                5.36359614               38.88888938                0.13077265                0.59483883               -0.32702088               -2.07454193               -0.92738951                9.76639647                5.36275631
              12.75826928                5.14302144               38.75053055                0.42594106                0.57750354                0.09929450               -1.30143668                0.07322281                1.59336873                2.50760808
              13.76299898                4.92133216               38.58091215                0.87578083                0.47296922                0.55313472               -1.54438452               -0.02620821                0.05871685                0.52716732
               3.99739379                8.29184624               39.21038020                1.00000000               -0.02869407               -0.12280296                0.25319972               -0.02798544                0.01323369                0.79186293
               4.99710684                8.06184263               39.04305969                0.48081213               -0.00402906                0.04359779               -0.04066813               -0.01773532                0.14997488               -0.82053244
               5.99731320                7.83110192               38.87840701                0.04589735               -0.32203569                0.23570648               -0.34225958               -0.50960500                7.99970130               -2.70967713
               6.99066613                7.59006479               38.86799110                0.00010000               -0.69086252                0.24843647               -0.23834398               -1.19351856               16.92815105                0.67851881
               7.98349595                7.34690294               38.87968507                0.00010000               -0.67065604                0.36798574               -0.57288564               -1.45474857               18.43830035                0.97612371
               8.97725301                7.10128063               38.89643981                0.00010000               -0.52628167                0.35827285               -0.89273619               -1.75257887               18.93359119                1.51695432
               9.97297032                6.85443660               38.91463630                0.00010000               -0.29135762                0.19532791               -1.18124887               -2.01443309               19.31165215                2.41255348
              10.97142586                6.60770752               38.93531232                0.00010000               -0.00421685               -0.03451916               -1.45871128               -2.25785985               19.91087015                3.64158516
              11.97288598                6.36109253               38.96137918                0.16001022                0.32364140               -0.13996831               -1.74203984               -1.22646280               11.09763204                5.35519703
              12.97789869                6.14436070               38.79991421                0.42104313                0.47002064                0.17588552               -1.23768197                0.06145067                0.91990753                2.05564190
              13.98228640                5.92674378               38.62034687                0.87163077                0.43877105                0.53824218               -1.52552104               -0.00766008                0.04392790                0.08017077
               4.22629586                9.29096043               39.15631761                1.00000000                0.01872324               -0.05571935                0.08842449               -0.02593388               -0.00074009                0.79611673
               5.22648309                9.06247188               38.98097237                0.50108471                0.05101320                0.08167766               -0.20264240               -0.00469551               -0.01005474               -0.78678275
               6.22731613                8.83346417               38.80534631                0.03318862               -0.26584547                0.22949395               -0.50890076               -0.49805729               10.05479131               -2.46308443
               7.22116618                8.59391434               38.83115831                0.00010000               -0.67998675                0.45649232               -0.53963079               -1.03397280               20.52907421               -0.19532757
               8.21371639                8.35146630               38.86185084                0.00010000               -0.74597205                0.53924060               -0.75743004               -1.26772971               21.10340959                0.64700610
               9.20624674                8.10578218               38.89510701                0.00010000               -0.72233987                0.56844969               -1.00610909               -1.65101354               21.67007621                1.25024848
              10.19926959                7.85713465               38.93265749                0.00010000               -0.58436849                0.47670125               -1.24236546               -2.14654519               22.40088617                2.07067226
              11.19455937                7.60768949               38.97587135                0.00010000               -0.45015613                0.14316353               -1.34628073               -2.64659338               23.43559454                3.27825014
              12.19026647                7.36079677               39.02930286                0.20508614               -0.03561588                0.06269611               -1.21955529               -1.51701926               12.34615598                4.36433989
              13.19384706                7.14653915               38.84494211                0.42477581                0.39065753                0.26067353               -1.22011542                0.01678041                0.25236535                1.60675081
              14.19807962                6.93209700               38.65537220                0.86784335                0.42325651                0.52990880               -1.56405519                0.00321156                0.02113500               -0.37430067
               4.45385222               10.29073185               39.10256575                0.98856124                0.06569776                0.00710212               -0.07711367               -0.02514186               -0.01653626                0.71233788
               5.45450919               10.06347618               38.91927494                0.54211543                0.10286925                0.11971499               -0.36039625               -0.00345337                0.03052707               -0.64509795
               6.45590960                9.83569180               38.73680052                0.00346334               -0.12623234                0.22801856               -0.65981466               -0.40864865               11.91988873               -1.59568061
               7.45198455                9.59919464               38.79111081                0.00010000               -0.48180444                0.49883209               -0.76202041               -0.67046656               23.71788078               -0.24459990
               8.44627351                9.35768775               38.84011084                0.00010000               -0.67100771                0.63854768               -0.93905017               -0.81275444               23.75346360                0.28601752
               9.43856439                9.11264962               38.88959878                0.00010000               -0.90707022                0.77067848               -1.14146934               -1.07857677               24.35094501                0.70077645
              10.42813211                8.86397062               38.94493921                0.00010000               -1.18662631                0.87626173               -1.34864058               -1.66617007               25.48806536                1.22501571
              11.41483187                8.61057079               39.01124678                0.04931664               -1.22180840                0.86022231               -1.56313289               -2.34192541               26.58273079                2.20512828
              12.40369594                8.36234646               39.08238856                0.27306060               -0.39489005                0.22164646               -0.87482890               -1.77099488               13.59110045                2.31843260
              13.40693406                8.14957417               38.88535325                0.43621002                0.37694947                0.33311733               -1.22558407               -0.02911574                0.08630948                1.03530463
              14.41123493                7.93734195               38.68567163                0.85633672                0.43008635                0.52158423               -1.64016831                0.00581952               -0.01620785               -0.61030742
               4.68030437               11.29110247               39.04680350                1.00000000                0.11497157                0.03706219               -0.23460859                0.02158554                0.38847571                0.61597265
               5.68145408               11.06486618               38.85984015                0.81578835                0.15601626                0.13899969               -0.51879498                0.04059250                0.79076247               -0.52242919
               6.68342469               10.83802454               38.68076310                0.49369771                0.21534063                0.23327483               -0.81163312               -0.29725081               13.79923511               -0.95658272
               7.68576090               10.60389098               38.75373246                0.36922123                0.02908136                0.46963364               -0.94612456               -0.31172953               26.25015029               -0.20649646
               8.68400632               10.36423726               38.81589492                0.35889238               -0.36842783                0.65495013               -1.11000616               -0.36148039               26.02420593                0.09433361
               9.67839234               10.12119575               38.87798067                0.37062375               -0.79906476                0.85461302               -1.30215532               -0.49607391               26.65044788                0.33736786
              10.66802502                9.87465988               38.94654878                0.40362071               -1.45236529                1.06892601               -1.50536958               -0.82579896               28.05661732                0.63561650
              11.64934503                9.62489394               39.03026754                0.55022834               -2.60909145                1.43231487               -1.86922730               -2.02019235               28.90065169                1.35956851
              12.61584320                9.36522970               39.10900559                0.67000868               -1.55378928                0.28832462               -0.96176815               -2.36989637               15.28653800                1.03760486
              13.61826925                9.15320150               38.91858259                0.73502452                0.34086265                0.36273307               -1.27548379               -0.00153253                1.21989728                0.70217688
              14.62266045                8.94252869               38.71555332                0.92716231                0.43912012                0.51867364               -1.71663736                0.07527075                0.61833289               -0.60094624
               2.45508925                1.37610952               40.56885574                1.00000000               -0.35947676               -0.39409795                1.35791036               -0.06545942               -1.06354199                1.04560653
               3.45149448                1.12628149               40.44660624                1.00000000               -0.30865385               -0.29338147                1.05044996               -0.03991732               -1.41485493                0.16084704
               4.44891618                0.87596719               40.31747676                1.00000000               -0.20212954               -0.19639566                0.71783058               -0.04519150               -1.41171646               -0.20753629
               5.44745189                0.62511564               40.19528681                0.64335701               -0.02298926               -0.11749590                0.39461466               -0.18040774               -0.71289916               -0.95296461
               6.44845639                0.37091062               40.08002672                0.70018182                0.22545634               -0.12917170               -0.03519098               -0.05321510               -0.28270916                0.26770087
               7.45196102                0.11443465               39.96669297                0.75193399                0.38368345                0.01664646               -0.33902239               -0.09125043               -0.21660082                0.13317661
               8.45613006               -0.14036459               39.85151670                0.74015547                0.44876960                0.09313942               -0.55034575               -0.05345081               -0.21041822               -0.08689371
               9.46093641               -0.39307035               39.73649921                0.83684862                0.43389255                0.15414402               -0.67046568               -0.07780705               -0.43471640                0.10997381
              10.46480791               -0.64379854               39.61493968                1.00000000                0.36177226                0.23846361               -0.84292422               -0.07002474               -0.88237833                0.65192597
              11.46817186               -0.89356375               39.49005839                1.00000000                0.35669583                0.32839775               -1.08012444               -0.04094225               -0.96421908                0.03739973
              12.47194183               -1.14334224               39.36657232                1.00000000                0.37699692                0.42196193               -1.35418008               -0.02181530               -0.88639812               -0.86223929
               2.70426269                2.37216854               40.51524772                1.00000000               -0.30962116               -0.38395477                1.20181091               -0.01343400               -0.19926990                1.42195386
               3.70116647                2.12334767               40.39291597                1.00000000               -0.26077501               -0.27171105                0.89760888                0.01104382               -0.28994083                0.23114030
               4.69904719                1.87400323               40.26887562                0.99453062               -0.14951858               -0.16826453                0.56532952               -0.01167090               -0.20831283               -0.43562247
               5.69817610                1.62394068               40.14807274                0.29294932                0.21087718               -0.08285122                0.24153915               -0.22936685                1.35964401               -1.28188407
               6.70326473                1.36961890               40.05504685                0.41371173                0.42550084               -0.11085796               -0.14453903               -0.03155452                2.36214909                0.82547082
               7.70668612                1.11460112               39.95137631                0.49280629                0.30416616                0.05164928               -0.42706409               -0.06126134                1.77817392                0.41004674
               8.70934805                0.86056680               39.84479603                0.42143126                0.25945993                0.15237786               -0.61983048               -0.04122879                1.87592956               -0.29604868
               9.71187532                0.60847109               39.74193672                0.51214380                0.25031562                0.20848258               -0.72625003               -0.06086291                1.90914306                0.48019440
              10.71435437                0.35858609               39.63540124                1.00000000                0.28294838                0.26055719               -0.90644808               -0.04338339                0.97699016                0.86399255
              11.71753429                0.10972022               39.51374401                1.00000000                0.35738998                0.33851915               -1.17177230                0.00317580                0.14151546                0.19191899
              12.72150216               -0.13912262               39.39051497                1.00000000                0.39678790                0.43780268               -1.44606527                0.02357667                0.06066430               -1.00495890
               2.95246230                3.36843042               40.46939588                1.00000000               -0.25816346               -0.36786902                1.06005681               -0.00772540                0.03093327                1.79583255
               3.94988066                3.12084727               40.34071581                1.00000000               -0.21862729               -0.23083258                0.75548179                0.00955820                0.20792983                0.23719506
               4.94808975                2.87260190               40.21565850                0.71899961               -0.13158870               -0.09849072                0.44418483               -0.03605372                0.56573930               -1.14315709
               5.94724889                2.62345861               40.09404503                0.00010000                0.45375520               -0.03351817                0.09701006               -0.32577889                4.18830021               -1.85761789
               6.95716486                2.36869346               40.04120016                0.00010000                0.62694997               -0.15075967               -0.35604914               -0.82363808                5.61009599               -0.99970453
               7.95978789                2.11546764               39.94134359                0.00010000                0.21353271               -0.04180013               -0.55921782               -0.79615295                2.96839656                0.00433207
               8.96143551                1.86268297               39.83365600                0.00010000                0.09559877                0.02228613               -0.73139430               -0.71999998                4.04955318                0.77293054
               9.96169986                1.61109930               39.75470252                0.00010000                0.06277995                0.03271453               -0.80773409               -0.49105092                4.67959337                1.24108760
              10.96269111                1.36141260               39.66004685                0.40145739                0.21221135                0.24774117               -0.98812105               -0.18896859                2.62004915                1.76448912
              11.96594409                1.11320663               39.54046920                1.00000000                0.37039743                0.34512368               -1.26196217               -0.04381290                0.89652883                0.81278686
              12.97009906                0.86541381               39.41159024                1.00000000                0.41549666                0.46998490               -1.52012391                0.01430076                0.42002143               -0.95307583
               3.19927449                4.36481116               40.42347955                1.00000000               -0.20883255               -0.35078888                0.91715344               -0.01655111                0.12664240                1.64526643
               4.19718616                4.11873102               40.28719531                1.00000000               -0.17798594               -0.18473066                0.61397310               -0.00072095                0.21997996                0.03716487
               5.19571477                3.87203342               40.15282205                0.36804317               -0.08085964               -0.02798951                0.32890248               -0.10296977                1.14762528               -1.62695402
               6.19556897                3.62327031               40.03500216                0.00010000               -0.04659137                0.04221554                0.00449781               -0.56114704                5.14599443               -2.51548656
               7.19478294                3.36660371               39.98031643                0.00010000                0.06022922               -0.06709034               -0.34411238               -1.45282382                8.04015827               -2.33373067
               8.19677355                3.11376512               39.91771724                0.00010000                0.22667259               -0.13137547               -0.63625358               -1.46315277                7.42501228               -0.27660556
               9.19931639                2.86101253               39.84777203                0.00010000                0.32755572               -0.16913360               -0.87520512               -1.43634623                7.02922360                1.74689344
              10.20332467                2.60912538               39.77508684                0.00010000                0.45756380               -0.20396751               -1.09119392               -0.92173341                6.77753185                2.05849685
              11.20846767                2.36354092               39.69860014                0.11777741                0.46660771               -0.17072706               -1.08771984               -0.36893185                4.34678884                2.90615795
              12.21265682                2.11662270               39.57667230                0.57277067                0.44530771                0.22602811               -1.39533108               -0.15176777                1.17108656                1.91813887
              13.21737382                1.87027707               39.43678613                0.98041193                0.47170013                0.50080610               -1.61890913               -0.05485545                0.25382171               -0.12247560
               3.44429155                5.36141464               40.37481734                1.00000000               -0.16475631               -0.31829691                0.76184526               -0.03308161                0.21879374                1.33679427
               4.44264398                5.11715265               40.23099982                0.76172316               -0.14002403               -0.11918013                0.46168577               -0.03106627                0.34596740               -0.34501372
               5.44149106                4.87204211               40.08974412                0.17951191               -0.05941603                0.05468439                0.17772042               -0.17011528                1.43058969               -1.85329077
               6.44145566                4.62430292               39.96753051                0.00010000               -0.19387439                0.13956743               -0.11940205               -0.81349257                7.11977761               -2.40571372
               7.43761358                4.36735165               39.93980713                0.00010000               -0.26698241                0.12211235               -0.39784479               -1.39382041               11.43211848               -0.72481011
               8.43611601                4.11284013               39.90145787                0.00010000               -0.01326280               -0.00970189               -0.71639422               -1.48043755               10.62689273                0.44223736
               9.43734832                3.85930029               39.85515520                0.00010000                0.23103965               -0.10991987               -1.03061668               -1.51424723               10.08406956                1.63583494
              10.44073681                3.60701995               39.80336376                0.00010000                0.52334182               -0.20378640               -1.35197106               -1.33841228                9.67621452                2.70868345
              11.44781516                3.35799806               39.74654622                0.09704484                0.77178869               -0.53430494               -1.82017023               -0.57685754                6.31532344                3.66822036
              12.45617258                3.11772719               39.62573742                0.44865814                0.69390208                0.02450905               -1.44839798                0.00049294                1.63369989                2.91268178
              13.46169320                2.87542993               39.47495182                0.88301761                0.55206189                0.50807986               -1.64293889               -0.06308094                0.13427325                0.85559077
               3.68713683                6.35844522               40.32291877                1.00000000               -0.11994636               -0.26498664                0.59573052               -0.03654171                0.11838185                1.03786935
               4.68593737                6.11634742               40.16978933                0.59082489               -0.09873201               -0.04671688                0.27949403               -0.04711463                0.39374903               -0.69705152
               5.68516219                5.87312711               40.02216616                0.09869486               -0.09738970                0.15853885               -0.00912899               -0.25387118                2.46128412               -2.30473211
               6.68398957                5.62606166               39.91031630                0.00010000               -0.33964348                0.08683593               -0.08125419               -1.16385758                9.86355561                0.00871790
               7.67836932                5.36904595               39.91052814                0.00010000               -0.43867091                0.19250243               -0.43862616               -1.66077158               14.67041667                0.29701683
               8.67521616                5.11357108               39.89208990                0.00010000               -0.17588487                0.12427459               -0.80714585               -1.66083321               13.53487133                1.07673581
               9.67485162                4.85881413               39.86695229                0.00010000                0.13212495                0.00229064               -1.17037267               -1.70549618               13.08470650                2.08297069
              10.67785865                4.60504965               39.83684542                0.00010000                0.56858262               -0.16447878               -1.60379940               -1.64599816               12.64653753                3.24916769
              11.68622328                4.35285482               39.80015785                0.10135362                0.86880760               -0.48411044               -2.23708239               -0.72483632                8.42645312                4.58659197
              12.69523481                4.11711288               39.68286746                0.41759128                0.72417232               -0.03221938               -1.39031489                0.03803397                2.25180286                3.09204409
              13.70070672                3.88043867               39.52124829                0.86821126                0.54719164                0.49707296               -1.58289855               -0.03493899                0.05469112                1.03611517
               3.92775631                7.35611491               40.26845090                1.00000000               -0.07365083               -0.19716862                0.42259984               -0.03130861                0.04202195                0.84842814
               4.92701980                7.11621832               40.10641022                0.50179879               -0.05284560                0.01036447                0.10799844               -0.03950969                0.30752531               -0.81962660
               5.92669940                6.87521289               39.94964975                0.06007787               -0.23800690                0.23543351               -0.19700576               -0.45183787                5.48816453               -2.64020634
               6.92225966                6.62603964               39.89114540                0.00010000               -0.49053344                0.06003803                0.05526630               -1.35565006               13.32347947                1.53072429
               7.91688873                6.37120170               39.89014260                0.00010000               -0.45642450                0.25086327               -0.52479450               -1.69350742               16.30639199                0.94282242
               8.91313117                6.11532562               39.88825792                0.00010000               -0.25644531                0.22807841               -0.90405189               -1.82108037               16.24936459                1.49381988
               9.91175982                5.85934611               39.88327750                0.00010000                0.03224905                0.09806237               -1.27963220               -1.91680663               16.13029848                2.44163879
              10.91377615                5.60373038               39.87618288                0.00010000                0.47476920               -0.08936739               -1.72877179               -2.02029126               16.03710677                3.74176793
              11.92125521                5.34831585               39.86632671                0.11693380                0.77866265               -0.38060835               -2.40750040               -1.00102038               10.15174221                5.64416559
              12.92934941                5.11708280               39.73731782                0.40547844                0.65438150                0.05081242               -1.32535055                0.04204133                2.16701070                2.66151920
              13.93434284                4.88537139               39.56542604                0.86309910                0.49934292                0.50112916               -1.54519921               -0.02134052                0.04803026                0.60425994
               4.16630385                8.35450184               40.21289618                1.00000000               -0.02546494               -0.12593195                0.25140592               -0.02863665                0.01197612                0.78046148
               5.16604920                8.11655471               40.04256096                0.47297653                0.00001306                0.05313680               -0.06024457               -0.01868538                0.14477877               -0.82691369
               6.16630411                7.87783578               39.87481985                0.04246556               -0.25807192                0.26146068               -0.37859417               -0.58855180                8.18440221               -2.72193407
               7.16088776                7.62726242               39.86517003                0.00010000               -0.55454586                0.25957948               -0.32543024               -1.31549611               17.11319673                0.51910318
               8.15521319                7.37406322               39.87352281                0.00010000               -0.51188100                0.36964578               -0.66310471               -1.58300881               18.42104498                0.98309078
               9.15065014                7.11813265               39.88689377                0.00010000               -0.35512268                0.36465096               -1.01674108               -1.86333472               18.92539522                1.57715375
              10.14811074                6.86077538               39.90196962                0.00010000               -0.10835267                0.21564358               -1.35139381               -2.10765834               19.29851814                2.52124339
              11.14848309                6.60326231               39.91948273                0.00010000                0.23698522               -0.01153394               -1.71011599               -2.36060572               19.83842107                3.88813084
              12.15285044                6.34524265               39.94186406                0.14412853                0.52685037               -0.18036773               -2.19600729               -1.27910860               11.50450835                5.97118613
              13.15902009                6.11812913               39.78719419                0.40213063                0.54261492                0.16182074               -1.30166660                0.04543776                1.39348592                2.16717223
              14.16370274                5.89046125               39.60486821                0.85961916                0.46826470                0.52241361               -1.57291432               -0.00471371                0.04092810                0.07800584
               4.40307785                9.35359627               40.15716075                1.00000000                0.02343115               -0.05625230                0.08107425               -0.02676038               -0.00170407                0.78397550
               5.40331216                9.11728105               39.97883342                0.49569262                0.05713979                0.09134371               -0.22622561               -0.00422299               -0.01844014               -0.78883447
               6.40422065                8.88044210               39.80007708                0.03003243               -0.17949317                0.25060705               -0.54860139               -0.58670018               10.17344703               -2.45825601
               7.39972230                8.63123123               39.82542303                0.00010000               -0.49311592                0.45146719               -0.61174852               -1.18540022               20.70153741               -0.28543243
               8.39435833                8.37859461               39.85374979                0.00010000               -0.52849890                0.51639444               -0.86403936               -1.38255764               21.17571252                0.63325455
               9.38915232                8.12261864               39.88434454                0.00010000               -0.49406658                0.55089695               -1.14684686               -1.71070197               21.73409824                1.30151937
              10.38447700                7.86365898               39.91931527                0.00010000               -0.35277778                0.47560160               -1.42669270               -2.16045232               22.52234955                2.17352873
              11.38209677                7.60349970               39.96120496                0.00010000               -0.18353915                0.16144114               -1.60307496               -2.67939974               23.71549919                3.43873786
              12.38080621                7.34470850               40.01562879                0.18733127                0.14713974                0.06188907               -1.57991253               -1.57523546               12.76140932                5.03239082
              13.38503956                7.12031922               39.83230391                0.40641559                0.43890484                0.27183792               -1.31180348                0.01330905                0.47193295                1.69447118
              14.38958431                6.89581966               39.63935618                0.85589892                0.45447501                0.54177407               -1.64921518                0.00505396                0.02471482               -0.42448296
               4.63839908               10.35337680               40.10172457                0.98423671                0.07198316                0.00949330               -0.08995248               -0.02624854               -0.01441289                0.70286787
               5.63911891               10.11838158               39.91553554                0.53880023                0.11104241                0.12957672               -0.38912038               -0.00334345                0.02492704               -0.64430716
               6.64061993                9.88284792               39.73000506                0.00114760               -0.00458347                0.24436840               -0.70360536               -0.52208451               12.00072179               -1.58111939
               7.63902724                9.63629177               39.78310977                0.00010000               -0.22226497                0.43892619               -0.84117483               -0.79884159               23.87090179               -0.28208228
               8.63617463                9.38439111               39.83015145                0.00010000               -0.38277522                0.58200026               -1.05413036               -0.88845793               23.87133079                0.28101365
               9.63137174                9.12915059               39.87741542                0.00010000               -0.60769956                0.72285944               -1.29626347               -1.09716052               24.46807795                0.73363812
              10.62402064                8.87028741               39.93050772                0.00010000               -0.87630805                0.83415184               -1.53766275               -1.63516491               25.62335891                1.29190059
              11.61384557                8.60649113               39.99469146                0.03620118               -0.97472115                0.84228171               -1.73149203               -2.32823307               27.19356698                2.17401379
              12.60452621                8.34648043               40.07290575                0.25502696               -0.28352332                0.25853211               -1.05915296               -1.84227829               14.17679282                2.65960676
              13.60817511                8.12356589               39.87263364                0.41820702                0.41383602                0.35829359               -1.32871935               -0.03482825                0.12290487                1.10183246
              14.61280293                7.90129673               39.66878127                0.84391303                0.46278246                0.55006281               -1.75130176                0.00564517               -0.01937261               -0.66943448
               4.87254331               11.35378614               40.04435773                1.00000000                0.12308611                0.04093376               -0.25393161                0.02306856                0.38279194                0.60996584
               5.87377417               11.11987259               39.85449061                0.81506584                0.16627289                0.14910040               -0.55331673                0.04269311                0.78108635               -0.52080652
               6.87586877               10.88532947               39.67242044                0.49201091                0.42140511                0.24815500               -0.86118837               -0.46825702               13.85956714               -0.94034236
               7.88220228               10.64000975               39.74385398                0.36929152                0.39307892                0.37179877               -1.03174132               -0.43723865               26.38993732               -0.22952760
               8.88373035               10.39023462               39.80418347                0.35901010               -0.04447339                0.58435125               -1.23313295               -0.39112381               26.15074872                0.08990766
               9.88131281               10.13707583               39.86414102                0.37040161               -0.46485973                0.79252451               -1.46648312               -0.50052278               26.77824612                0.35241630
              10.87443316                9.88034202               39.93052337                0.40268447               -1.09868649                1.00546079               -1.70009517               -0.79527293               28.14980710                0.66844238
              11.85933908                9.62034533               40.01074264                0.54320641               -2.37736320                1.38542035               -1.98316723               -1.97379337               29.60151367                1.24330835
              12.82688589                9.34987914               40.09869785                0.66095303               -1.49061935                0.33987060               -1.13036516               -2.40704417               16.08157302                1.15105101
              13.82952669                9.12748509               39.90538944                0.72605506                0.36748121                0.39192055               -1.37507141               -0.01775251                1.32717142                0.75642364
              14.83423552                8.90682092               39.69785470                0.92066161                0.47088228                0.55241842               -1.83784534                0.07684106                0.65188688               -0.64837112
               2.56809541                1.44103416               41.58262588                1.00000000               -0.36812441               -0.40744679                1.40328048               -0.06998237               -1.09267510                1.06285419
               3.56441417                1.18238729               41.45718025                1.00000000               -0.31330387               -0.29861501                1.06776145               -0.04210944               -1.46056558                0.16964920
               4.56182933                0.92325393               41.32459286                1.00000000               -0.20042015               -0.19312056                0.70428143               -0.04581595               -1.46935413               -0.21015371
               5.56040576                0.66349584               41.19902788                0.64952700               -0.03042575               -0.10135511                0.34778063               -0.23761778               -0.82873999               -0.96849141
               6.56122082                0.39907290               41.07922050                0.70408172                0.24809743               -0.12428207               -0.13309068               -0.05893557               -0.40448376                0.25828672
               7.56536771                0.13142899               40.96271812                0.74971507                0.46481332                0.03314826               -0.46682353               -0.10138081               -0.21520262                0.11261053
               8.57051708               -0.13426925               40.84545743                0.73284067                0.55097314                0.10836822               -0.67501861               -0.05350927               -0.08662905               -0.11237088
               9.57638717               -0.39715867               40.72945821                0.82819956                0.51255482                0.15960898               -0.74706165               -0.08296646               -0.26123271                0.09947504
              10.58076818               -0.65737233               40.60633397                1.00000000                0.39485372                0.24157289               -0.88065839               -0.07163853               -0.76366472                0.66164706
              11.58428425               -0.91636530               40.47913443                1.00000000                0.36846411                0.33071468               -1.10565325               -0.04019817               -0.90214413                0.04619694
              12.58813746               -1.17524631               40.35293124                1.00000000                0.38532141                0.42225293               -1.37455422               -0.02623709               -0.84396086               -0.82207867
               2.82604246                2.43695970               41.52742780                1.00000000               -0.31592722               -0.39676970                1.24076668               -0.01404648               -0.21428124                1.44232429
               3.82288319                2.17940114               41.40193375                1.00000000               -0.26127827               -0.27590903                0.90827192                0.01222223               -0.32220325                0.24361471
               4.82081690                1.92132272               41.27443471                1.00000000               -0.13815470               -0.16442392                0.54769445               -0.01030764               -0.24908366               -0.42296134
               5.82012010                1.66248229               41.15030285                0.30404612                0.29239934               -0.06505307                0.20310886               -0.30392203                1.28960900               -1.29223808
               6.82666488                1.39783008               41.05320739                0.41964305                0.54524407               -0.12306745               -0.23361321               -0.04428026                2.30680619                0.76990983
               7.83102498                1.13176048               40.94661085                0.49343232                0.38054703                0.06774007               -0.54068777               -0.08266108                1.82915604                0.37166304
               8.83427582                0.86681444               40.83815179                0.42135471                0.30420375                0.17759192               -0.72582142               -0.05442771                2.03421739               -0.34162015
               9.83710905                0.60443742               40.73447927                0.50826605                0.26896418                0.22075403               -0.77509497               -0.07332805                2.07807660                0.45634597
              10.83965511                0.34504340               40.62633777                1.00000000                0.28551009                0.25968951               -0.90443757               -0.04746890                1.05113586                0.86437087
              11.84281925                0.08694185               40.50205466                1.00000000                0.35504973                0.33639103               -1.16344671                0.00344287                0.15769114                0.20105615
              12.84675610               -0.17102378               40.37610473                1.00000000                0.39368481                0.43193641               -1.43284216                0.01862182                0.07011818               -0.95579557
               3.08293160                3.43309877               41.48013358                1.00000000               -0.26360116               -0.37957744                1.09293470               -0.00837980                0.02404710                1.81924616
               4.08029559                3.17686911               41.34828819                1.00000000               -0.21947844               -0.23260555                0.76054956                0.00988635                0.19345270                0.25356832
               5.07854203                2.91996545               41.21995435                0.73806456               -0.12378129               -0.09201482                0.41384455               -0.03495884                0.52936322               -1.10884244
               6.07781996                2.66219478               41.09473835                0.00010000                0.62574970               -0.01701213                0.03741866               -0.43396892                4.08260797               -1.83279244
               7.09105702                2.39661155               41.03720162                0.00010000                0.84550881               -0.16044689               -0.45814157               -1.03531393                5.56751514               -0.99127753
               8.09473014                2.13278380               40.93524830                0.00010000                0.28472831               -0.01141653               -0.68207956               -0.97700281                3.08343974               -0.01603435
               9.09675159                1.86928259               40.82585479                0.00010000                0.09807584                0.07353289               -0.85501845               -0.87085583                4.25128893                0.70814932
              10.09669165                1.60725641               40.74647749                0.00010000                0.02813910                0.07268672               -0.85318175               -0.57696648                4.86569040                1.10733741
              11.09731437                1.34782146               40.65033246                0.39096366                0.18643141                0.23178119               -0.94819716               -0.21295496                2.66734367                1.74395071
              12.10042028                1.09036252               40.52803008                1.00000000                0.35633924                0.33463519               -1.21987251               -0.04238848                0.88573688                0.79821795
              13.10444116                0.83339242               40.39660230                1.00000000                0.40208749                0.45114714               -1.47109067                0.01004348                0.41392859               -0.90959274
               3.33833419                4.42936815               41.43276224                1.00000000               -0.21199530               -0.36131424                0.94363025               -0.01697326                0.12669842                1.65904609
               4.33621424                4.17474903               41.29332329                1.00000000               -0.17710716               -0.18382685                0.61227288               -0.00063264                0.22800163                0.04820949
               5.33479205                3.91948242               41.15599069                0.36669937               -0.07098142               -0.01866300                0.30095178               -0.10385957                1.14467395               -1.60558580
               6.33479461                3.66214204               41.03478211                0.00010000                0.02887687                0.05712206               -0.05526888               -0.67452677                5.11134461               -2.47058077
               7.33536959                3.39462114               40.97648798                0.00010000                0.20096361               -0.04386711               -0.43300829               -1.75585708                8.02946037               -2.21605986
               8.33881388                3.13153215               40.91090081                0.00010000                0.35082544               -0.10005171               -0.74063612               -1.73955785                7.47149442               -0.23425046
               9.34238610                2.86828509               40.83861459                0.00010000                0.41084874               -0.12677634               -0.96851505               -1.68223089                7.11191298                1.70756926
              10.34703086                2.60589115               40.76394874                0.00010000                0.49518996               -0.16943675               -1.14061150               -1.10554951                6.97879943                1.87320835
              11.35228990                2.34967902               40.68804035                0.10462500                0.46848322               -0.16904662               -1.01620556               -0.43501468                4.44657125                2.51609720
              12.35640052                2.09363455               40.56305156                0.54484077                0.43036422                0.19046682               -1.32056745               -0.14188852                1.12765258                1.91418223
              13.36089718                1.83799916               40.42095838                0.96148145                0.44966566                0.44550844               -1.53720435               -0.04715792                0.24746989               -0.05938978
               3.59183037                5.42587248               41.38251729                1.00000000               -0.16617182               -0.32789109                0.78151747               -0.03461976                0.22712519                1.33746585
               4.59016866                5.17319257               41.23558583                0.74925934               -0.13792781               -0.11432885                0.45487213               -0.03467655                0.36109713               -0.35390014
               5.58907182                4.91959219               41.09137592                0.17317122               -0.04889760                0.06989321                0.14343079               -0.17872442                1.44833034               -1.86827623
               6.58919070                4.66333722               40.96606908                0.00010000               -0.12610191                0.14752281               -0.17927258               -0.93246722                7.14372189               -2.28276605
               7.58654978                4.39573421               40.93548142                0.00010000               -0.14578370                0.15080990               -0.47535937               -1.60656997               11.45275484               -0.61951093
               8.58627503                4.13078276               40.89385609                0.00010000                0.10990928                0.00914808               -0.81109074               -1.69218498               10.63012368                0.50199045
               9.58874797                3.86674706               40.84440340                0.00010000                0.34558534               -0.09780918               -1.12200040               -1.72099690               10.08291051                1.62068269
              10.59318674                3.60386767               40.78950140                0.00010000                0.60613556               -0.20216529               -1.41084025               -1.50852609                9.57558929                2.56009228
              11.60087068                3.34444052               40.72810207                0.08512273                0.80378152               -0.50473603               -1.84455627               -0.67016743                6.52821209                3.14527571
              12.60926237                3.09417186               40.61168121                0.42400042                0.69490499               -0.04996277               -1.35253002               -0.02112966                1.94420396                2.97912301
              13.61476878                2.84230259               40.45900471                0.86750024                0.55064096                0.39650027               -1.53634659               -0.04357840                0.12931093                0.96645653
               3.84300163                6.42281032               41.32892941                1.00000000               -0.12006216               -0.27324205                0.60882010               -0.03779952                0.11349630                1.02862599
               4.84180101                6.17246245               41.17252665                0.57829689               -0.09643579               -0.03784036                0.26744710               -0.05267794                0.40188657               -0.71459704
               5.84107291                5.92088029               41.02190540                0.09156841               -0.08988817                0.18500186               -0.04551508               -0.28416301                2.60237059               -2.33506335
               6.84000324                5.66509250               40.90941814                0.00010000               -0.26401340                0.06845716               -0.10206870               -1.28096677                9.96721927                0.25279873
               7.83579264                5.39763734               40.90578622                0.00010000               -0.30229563                0.21170737               -0.51574561               -1.84423264               14.62485931                0.39253337
               8.83395733                5.13171511               40.88355068                0.00010000               -0.04556990                0.14532435               -0.90318143               -1.84495445               13.49533392                1.14046009
               9.83488125                4.86632891               40.85470210                0.00010000                0.26047735                0.01482346               -1.27552800               -1.89745383               13.00546365                2.10226595
              10.83916688                4.60184785               40.82018781                0.00010000                0.68505573               -0.16448769               -1.70820943               -1.79329579               12.41203837                3.17783036
              11.84858236                4.33958430               40.77718012                0.08916619                0.94744944               -0.48336427               -2.30263207               -0.83672056                8.80642256                4.37412824
              12.85811587                4.09263530               40.66921783                0.39545513                0.75908963               -0.11233820               -1.32602461               -0.02036648                2.80279453                3.19669794
              13.86376415                3.84592917               40.50574849                0.85421129                0.56482872                0.37474250               -1.50846103               -0.02189500                0.04436905                1.12247914
               4.09177014                7.42040764               41.27270230                1.00000000               -0.07250015               -0.20323551                0.42966563               -0.03208181                0.03922967                0.83581290
               5.09104514                7.17243576               41.10740987                0.49109968               -0.05058152                0.02093551                0.09085185               -0.04188355                0.30913862               -0.82855307
               6.09075851                6.92329222               40.94749803                0.05559085               -0.21154101                0.26778072               -0.23794947               -0.52050687                5.77629969               -2.66119834
               7.08681431                6.66470636               40.89146721                0.00010000               -0.38579926                0.05383639               -0.01381109               -1.45500036               13.50087485                1.55636392
               8.08304252                6.39996836               40.88447891                0.00010000               -0.30649705                0.26601141               -0.60790478               -1.83083226               16.15885025                0.99767873
               9.08068437                6.13368925               40.87868437                0.00010000               -0.11881848                0.25109895               -1.01031128               -1.97840237               16.20052903                1.55341706
              10.08066615                5.86704353               40.86978734                0.00010000                0.16905292                0.12473948               -1.41164503               -2.08204265               16.02956770                2.50045769
              11.08406543                5.60057792               40.85793496                0.00010000                0.63413320               -0.06998910               -1.90059174               -2.15686689               15.74310413                3.81164152
              12.09334882                5.33477324               40.84073937                0.10331038                0.92223682               -0.41850613               -2.64623213               -1.09852462               10.64342020                5.74878540
              13.10251017                5.09192509               40.72402354                0.38556385                0.71971597                0.00413780               -1.32321967               -0.01637055                2.88116416                2.75092053
              14.10774313                4.84979744               40.55000816                0.85051976                0.52329661                0.42222938               -1.53723636               -0.01312742                0.03961318                0.61030868
               4.33830375                8.41874561               41.21540832                1.00000000               -0.02250001               -0.12980465                0.25263947               -0.02913000                0.01056279                0.76854399
               5.33807875                8.17288116               41.04185480                0.46443366                0.00442103                0.06424222               -0.08244067               -0.01784431                0.14009569               -0.83153709
               6.33839218                7.92623590               40.87083513                0.03817524               -0.19258266                0.29108104               -0.42249310               -0.66374913                8.35671160               -2.72950901
               7.33422710                7.66616923               40.86148250                0.00010000               -0.40995316                0.27797949               -0.40840074               -1.42842120               17.28805948                0.35330635
               8.33019311                7.40295757               40.86642297                0.00010000               -0.34564970                0.37671983               -0.76012085               -1.70827632               18.40967622                0.98727299
               9.32731411                7.13673709               40.87610498                0.00010000               -0.19206948                0.38008397               -1.13845833               -1.97275060               18.90627210                1.62616314
              10.32635172                6.86882370               40.88760842                0.00010000                0.04928637                0.25117969               -1.51471827               -2.20495049               19.24967634                2.60892724
              11.32829984                6.60044806               40.90111000                0.00010000                0.44564855                0.03388029               -1.95573851               -2.45595607               19.63649008                4.09412377
              12.33526469                6.33121418               40.91745904                0.12811874                0.72322107               -0.21851659               -2.68062890               -1.33415600               12.01570963                6.54489122
              13.34276426                6.09271805               40.77388088                0.38368695                0.62461128                0.15320193               -1.35831714                0.01038713                2.07774553                2.23348100
              14.34775692                5.85437376               40.58888858                0.84791705                0.49926626                0.49484222               -1.63159823                0.00188260                0.03953090                0.01512630
               4.58291645                9.41781155               41.15793910                0.99776930                0.02815134               -0.05766894                0.07561138               -0.02718104               -0.00149413                0.77150820
               5.58319796                9.17372061               40.97644785                0.48939624                0.06395028                0.10258415               -0.25257082               -0.00246044               -0.02579358               -0.78951908
               6.58419545                8.92911385               40.79437428                0.02608385               -0.08368694                0.27450724               -0.59667546               -0.67485108               10.28627762               -2.44991716
               7.58152422                8.67026595               40.81892334                0.00010000               -0.29431585                0.44764070               -0.69269147               -1.32910022               20.86466291               -0.36578953
               8.57830914                8.40750276               40.84457005                0.00010000               -0.30804949                0.49583906               -0.97062688               -1.48868288               21.23619738                0.61380812
               9.57536323                8.14129093               40.87217007                0.00010000               -0.27264862                0.53944055               -1.28481608               -1.75900246               21.77704272                1.33839143
              10.57285616                7.87206713               40.90412364                0.00010000               -0.14036995                0.48884156               -1.60873304               -2.15319418               22.59080953                2.26035967
              11.57255583                7.60125553               40.94380985                0.00010000                0.07697711                0.20326593               -1.88466639               -2.68294411               23.88039852                3.64174548
              12.57439571                7.33040291               40.99770461                0.16841419                0.35012488                0.06276765               -2.08513417               -1.61207325               13.25628223                5.85796282
              13.57955833                7.09498913               40.81870604                0.38854759                0.50368372                0.29036159               -1.41231868                0.00218772                0.85695860                1.75832174
              14.58446938                6.85969428               40.62238789                0.84434462                0.49110494                0.55404919               -1.75990766                0.01027896                0.03120314               -0.51998345
               4.82594202               10.41759224               41.10076670                0.97950791                0.07852292                0.01119680               -0.10050880               -0.02704034               -0.01260673                0.69262868
               5.82672725               10.17493284               40.91149253                0.53450145                0.12038934                0.14096477               -0.42227434               -0.00255295                0.01973128               -0.64300971
               6.82834981                9.93172605               40.72272842                0.00010000                0.12644680                0.26365382               -0.75665393               -0.63767942               12.07483164               -1.56442450
               7.82925619                9.67512204               40.77428732                0.00010000                0.05223346                0.37730213               -0.92505965               -0.92896508               24.00903746               -0.31787012
               8.82939448                9.41287435               40.81902823                0.00010000               -0.08432509                0.52343085               -1.16865919               -0.95855140               23.96778154                0.27288175
               9.82756969                9.14752590               40.86367351                0.00010000               -0.30356181                0.67509693               -1.44830283               -1.10098490               24.55285210                0.75505160
              10.82332324                8.87860053               40.91418596                0.00010000               -0.56322559                0.79651437               -1.72577299               -1.57245649               25.74359452                1.34846304
              11.81630517                8.60451338               40.97661694                0.01985423               -0.70168106                0.82011109               -1.90397685               -2.27430053               27.75830334                2.24474191
              12.80928962                8.33246953               41.06120550                0.23395207               -0.13942690                0.31318002               -1.34284538               -1.87779745               14.78320817                3.13977703
              13.81351664                8.09852528               40.85877886                0.40064916                0.46312900                0.39146143               -1.45373427               -0.04586441                0.22023532                1.16609933
              14.81855220                7.86545474               40.65064559                0.83189549                0.50355648                0.58600672               -1.89479689                0.00786008               -0.01917927               -0.75542692
               5.06769443               11.41803549               41.04172486                0.99980693                0.13186625                0.04432506               -0.27223465                0.02568222                0.37634939                0.60245441
               6.06901309               11.17653990               40.84877381                0.81403804                0.17791177                0.16070598               -0.59302191                0.04615577                0.77126747               -0.51871153
               7.07125266               10.93438692               40.66353933                0.49005965                0.63917625                0.26608748               -0.92061290               -0.64610984               13.91248154               -0.92200824
               8.08179662               10.67781199               40.73309764                0.36933948                0.77407946                0.26899512               -1.11997434               -0.56673456               26.51318990               -0.25140054
               9.08673425               10.41797137               40.79123226                0.35913963                0.29103696                0.50970210               -1.35448881               -0.41697880               26.25162361                0.08352986
              10.08761736               10.15479287               40.84865101                0.37016901               -0.11573521                0.72669688               -1.62710271               -0.49393084               26.86714999                0.36286895
              11.08441955                9.88799742               40.91254688                0.40171279               -0.72082656                0.93968849               -1.89454358               -0.74712520               28.25823100                0.70349585
              12.07320082                9.61765775               40.99060419                0.53391569               -2.07958471                1.31443644               -2.05938521               -1.87698032               30.24503063                1.23551120
              13.04282786                9.33666651               41.08639829                0.64980736               -1.37724960                0.41969783               -1.37762348               -2.38814578               16.87839947                1.32574110
              14.04565583                9.10281836               40.89108116                0.71736531                0.39699087                0.42930771               -1.50144393               -0.04868487                1.49011958                0.81957766
              15.05076767                8.87141442               40.67879641                0.91430690                0.51118401                0.59596767               -1.99476293                0.08115266                0.68740222               -0.71090807
               2.68412701                1.50776275               42.59692135                1.00000000               -0.38108157               -0.42554280                1.46461474               -0.07571169               -1.12462553                1.08156520
               3.68031619                1.24016747               42.46796147                1.00000000               -0.32227729               -0.30554453                1.09266192               -0.04418680               -1.51227303                0.17733634
               4.67768146                0.97208040               42.33156239                1.00000000               -0.20333709               -0.18978873                0.69051985               -0.04708510               -1.53831951               -0.21187674
               5.67624945                0.70319587               42.20224242                0.65649980               -0.05024973               -0.08104258                0.29275602               -0.30427711               -0.96706690               -0.97596053
               6.67667647                0.42810256               42.07736490                0.70990493                0.25852913               -0.10665895               -0.24190043               -0.07308583               -0.55511972                0.24515150
               7.68142003                0.14890140               41.95735649                0.74935328                0.54904613                0.06028033               -0.61363018               -0.11468375               -0.22785485                0.08680833
               8.68765739               -0.12800073               41.83801633                0.72530447                0.67075949                0.13377674               -0.82689826               -0.05055930                0.05866232               -0.15059798
               9.69483522               -0.40112297               41.72155798                0.81626890                0.61005021                0.17017012               -0.84343199               -0.08705872               -0.04297743                0.07775171
              10.69985840               -0.67057320               41.59732651                1.00000000                0.43482412                0.24482171               -0.92126563               -0.07353476               -0.61645222                0.67637052
              11.70353171               -0.93848027               41.46794533                1.00000000                0.38053016                0.33259674               -1.13255157               -0.03893647               -0.83258582                0.05567460
              12.70746900               -1.20613081               41.33908124                1.00000000                0.39372923                0.42212080               -1.39640813               -0.03151618               -0.79822761               -0.77895756
               2.95096517                2.50350732               42.54006305                1.00000000               -0.32496715               -0.41409242                1.29395041               -0.01417901               -0.23121239                1.46323601
               3.94771550                2.23711203               42.41108141                1.00000000               -0.26343782               -0.28191937                0.92451085                0.01439746               -0.35568127                0.25584635
               4.94569641                1.97018252               42.27982951                1.00000000               -0.12599485               -0.16056645                0.53001953               -0.00905954               -0.28736295               -0.41590897
               5.94519560                1.70238544               42.15213492                0.31767950                0.36982153               -0.04361873                0.15496496               -0.38711117                1.20804851               -1.31341329
               6.95309284                1.42703597               42.05037459                0.42876937                0.65646199               -0.12576199               -0.34401385               -0.07762489                2.22660822                0.70346686
               7.95832484                1.14950421               41.94056255                0.49642479                0.45355699                0.09777976               -0.68606351               -0.11577267                1.88012186                0.31747589
               8.96216398                0.87333704               41.83027960                0.42063689                0.34630167                0.21919418               -0.87035343               -0.06753839                2.23525121               -0.41716967
               9.96525088                0.60057873               41.72643482                0.49950261                0.28188562                0.24497772               -0.84683122               -0.08806239                2.31298149                0.40848598
              10.96780170                0.33187501               41.61731249                1.00000000                0.28351350                0.25811193               -0.89732290               -0.05530155                1.15716642                0.86826318
              11.97092115                0.06484570               41.49047507                1.00000000                0.35013410                0.33271770               -1.14924699                0.00363353                0.17554580                0.21062411
              12.97480438               -0.20190960               41.36185813                1.00000000                0.38832339                0.42495578               -1.41379260                0.01267915                0.07995731               -0.90220737
               3.21663402                3.49948090               42.49125458                1.00000000               -0.27050708               -0.39494816                1.13734131               -0.00912270                0.01692087                1.84195747
               4.21392895                3.23452909               42.35592680                1.00000000               -0.22035816               -0.23572304                0.76862515                0.00952111                0.17603758                0.26952592
               5.21222686                2.96886908               42.22393539                0.75624376               -0.11375878               -0.08411973                0.38168086               -0.03762889                0.49130769               -1.07877922
               6.21165377                2.70232350               42.09479341                0.00010000                0.78891769                0.00712619               -0.02958550               -0.55893934                3.96975612               -1.82699194
               7.22800521                2.42558732               42.03203733                0.00010000                1.05748703               -0.15166320               -0.59147317               -1.26529471                5.50508046               -0.98315312
               8.23280351                2.15085700               41.92770199                0.00010000                0.36134439                0.04840567               -0.85526776               -1.17260897                3.20028158               -0.03874867
               9.23523210                1.87638316               41.81655563                0.00010000                0.08662446                0.16391327               -1.04061798               -1.03688369                4.51419757                0.63499329
              10.23453600                1.60377658               41.73763889                0.00010000               -0.03733509                0.14934552               -0.94142733               -0.67850501                5.16069796                0.94995038
              11.23448540                1.33458904               41.64108290                0.37759173                0.14264951                0.21091192               -0.89384992               -0.25539620                2.76245172                1.72088927
              12.23738899                1.06817409               41.51607175                1.00000000                0.33738942                0.32047567               -1.16543700               -0.04250177                0.87136920                0.78307349
              13.24123318                0.80236831               41.38216842                1.00000000                0.38441917                0.42982339               -1.40972922                0.00468186                0.40685397               -0.86161716
               3.48068635                4.49560836               42.44235215                1.00000000               -0.21686017               -0.37420571                0.97891219               -0.01793148                0.12621184                1.67108158
               4.47851775                4.23239757               42.29944077                1.00000000               -0.17684617               -0.18288955                0.61175947               -0.00149460                0.23611980                0.05857867
               5.47714943                3.96850012               42.15884109                0.36407007               -0.06095899               -0.00536013                0.26391713               -0.10610151                1.14029563               -1.58212807
               6.47729857                3.70252797               42.03389679                0.00010000                0.10520110                0.08440391               -0.13122047               -0.79632920                5.07442321               -2.42703153
               7.47925345                3.42400271               41.97165626                0.00010000                0.33891299                0.00379338               -0.54640557               -2.05895969                8.02005306               -2.07579719
               8.48407683                3.15047232               41.90290451                0.00010000                0.46266376               -0.03134623               -0.87609179               -2.01972031                7.53712626               -0.16677700
               9.48850672                2.87661531               41.82840173                0.00010000                0.46990339               -0.03783577               -1.09235569               -1.93887772                7.24133158                1.69559126
              10.49347490                2.60356564               41.75227461                0.00010000                0.48947736               -0.08969289               -1.20395952               -1.32540682                7.27859025                1.68534439
              11.49829627                2.33609325               41.67827603                0.09138157                0.44084716               -0.14126193               -0.92814290               -0.52981169                4.60242025                2.06071494
              12.50229184                2.07125521               41.55026095                0.51479110                0.41066531                0.14846474               -1.22900663               -0.13206795                1.07843843                1.90323464
              13.50650958                1.80668687               41.40604205                0.93945229                0.42177380                0.38003227               -1.43664314               -0.03687354                0.23731217                0.00191872
               3.74269698                5.49199679               42.39044769                1.00000000               -0.16896816               -0.33878127                0.80798228               -0.03625255                0.23478692                1.33602255
               4.74100729                5.23087130               42.24009726                0.73666599               -0.13612753               -0.10830652                0.44694620               -0.03767741                0.37469649               -0.36168391
               5.73997442                4.96876187               42.09261273                0.16559607               -0.03913454                0.09018055                0.09989279               -0.18455178                1.46583113               -1.87801640
               6.74022460                4.70401157               41.96394506                0.00010000               -0.05463795                0.15957664               -0.25584024               -1.04720565                7.17261535               -2.13163470
               7.73888167                4.42566319               41.93029994                0.00010000               -0.02140463                0.19482091               -0.57103548               -1.81504895               11.48536308               -0.49444414
               8.73979651                4.15023007               41.88523606                0.00010000                0.22397776                0.05398370               -0.92233027               -1.89533100               10.65553012                0.58451859
               9.74336122                3.87562644               41.83271519                0.00010000                0.43767046               -0.05699023               -1.22110836               -1.92151515               10.12915832                1.61889992
              10.74854992                3.60198273               41.77514695                0.00010000                0.64191848               -0.16964724               -1.45468860               -1.68580728                9.53865969                2.39582201
              11.75619959                3.33176380               41.70965509                0.07348081                0.78020502               -0.41965861               -1.81697800               -0.79069540                6.83100209                2.55453460
              12.76415402                3.07114338               41.59868682                0.39850716                0.67164087               -0.12753547               -1.23711762               -0.06821763                2.30162222                3.00989667
              13.76963241                2.80996895               41.44422489                0.85016853                0.54783880                0.25989664               -1.41086269               -0.01628265                0.12371821                1.03891854
               4.00221229                6.48883273               42.33509518                1.00000000               -0.12131703               -0.28222659                0.62704440               -0.03869089                0.10838793                1.01814455
               5.00099912                6.23023144               42.17513827                0.56467965               -0.09470867               -0.02760945                0.25377978               -0.05647272                0.41039233               -0.73017103
               6.00031811                5.97030373               42.02125585                0.08598022               -0.07729885                0.21486582               -0.08950370               -0.31591555                2.76493376               -2.35802479
               6.99945314                5.70571950               41.90827493                0.00010000               -0.17920708                0.05454946               -0.13292485               -1.36664673               10.08128892                0.48974744
               7.99673397                5.42789913               41.90021322                0.00010000               -0.16230906                0.24276634               -0.60709477               -2.01003004               14.57603904                0.50521715
               8.99620696                5.15155199               41.87402627                0.00010000                0.07948981                0.18047921               -1.00486817               -2.01934061               13.47957210                1.22000198
               9.99832377                4.87547550               41.84144173                0.00010000                0.37072186                0.04112461               -1.37331621               -2.08199640               12.96504060                2.12344179
              11.00362139                4.60017270               41.80268123                0.00010000                0.74989707               -0.14708537               -1.77399825               -1.93195658               12.25025311                3.06589302
              12.01332171                4.32770008               41.75410521                0.07746175                0.95504688               -0.43755764               -2.26123430               -0.98163753                9.28800958                4.05731376
              13.02272233                4.06870450               41.65634697                0.37337398                0.76055376               -0.18526094               -1.24169035               -0.11327008                3.39534756                3.23145584
              14.02853278                3.81188480               41.49107907                0.83945272                0.58104516                0.22342597               -1.42420971               -0.00529839                0.03575907                1.12347015
               4.25912575                7.48635226               42.27704421                1.00000000               -0.07189131               -0.20984061                0.44085779               -0.03282147                0.03607615                0.82316397
               5.25840684                7.23031911               42.10822726                0.47931634               -0.04788518                0.03272726                0.07136286               -0.04339365                0.31042440               -0.83580553
               6.25816805                6.97305919               41.94489076                0.05011211               -0.15552823                0.30328051               -0.28768737               -0.58620067                6.05590165               -2.67977518
               7.25529628                6.70510256               41.89086918                0.00010000               -0.26597382                0.05764600               -0.11444408               -1.54663545               13.68262141                1.56740312
               8.25284857                6.43051852               41.87798451                0.00010000               -0.17314756                0.29092060               -0.69454531               -1.96063245               16.03650561                1.05830362
               9.25183332                6.15383966               41.86805169                0.00010000                0.01260081                0.28091075               -1.11563367               -2.13432039               16.17029607                1.62038537
              10.25310059                5.87644893               41.85504460                0.00010000                0.29264424                0.15710622               -1.52878887               -2.25115758               15.95150263                2.54926432
              11.25768621                5.59904102               41.83817105                0.00010000                0.74672218               -0.04514040               -2.02604335               -2.28477050               15.47362693                3.82228428
              12.26803503                5.32301264               41.81340207                0.09024055                1.00088454               -0.42624207               -2.73765381               -1.22654072               11.25518812                5.61612282
              13.27770390                5.06743816               41.71085342                0.36614728                0.75654086               -0.02941315               -1.30750322               -0.10760225                3.69267284                2.76421563
              14.28316585                4.81443747               41.53468131                0.83783800                0.54619505                0.32496245               -1.53598174               -0.00281052                0.03484218                0.52015523
               4.51362216                8.48463592               42.21794897                1.00000000               -0.01978477               -0.13421014                0.25725999               -0.02975895                0.00877080                0.75636516
               5.51342431                8.23088598               42.04091215                0.45477426                0.00942423                0.07669157               -0.10767790               -0.01561552                0.13608761               -0.83400476
               6.51381064                7.97636934               41.86636999                0.03297877               -0.11816039                0.32456386               -0.47581621               -0.73554488                8.52792980               -2.73413645
               7.51106110                7.70687242               41.85700202                0.00010000               -0.25132070                0.30040283               -0.49515824               -1.55641477               17.47812313                0.20090227
               8.50878423                7.43371754               41.85832040                0.00010000               -0.17354842                0.38735026               -0.86055637               -1.83576221               18.41707864                0.99295914
               9.50759013                7.15717021               41.86412461                0.00010000               -0.03424872                0.39891431               -1.25410885               -2.08968242               18.90154411                1.67325787
              10.50809925                6.87861763               41.87167525                0.00010000                0.18860702                0.29198529               -1.66212308               -2.31737499               19.19468425                2.67945576
              11.51136227                6.59926989               41.88036796                0.00010000                0.61472489                0.08933240               -2.17315788               -2.55024143               19.33986689                4.23801473
              12.52039375                6.31917524               41.88825149                0.11244136                0.88915933               -0.24456780               -3.09276564               -1.40765066               12.66731214                6.92618440
              13.52914546                6.06811624               41.76002785                0.36594249                0.70421027                0.15747550               -1.41355695               -0.04998221                2.98383637                2.24053773
              14.53447796                5.81838405               41.57223625                0.83644664                0.53324960                0.46127548               -1.71494593                0.01072183                0.04168099               -0.12601389
               4.76603045                9.48366805               42.15867298                0.99270550                0.03306526               -0.05961585                0.07273918               -0.02785479                0.00045578                0.75979601
               5.76636111                9.23185294               41.97378200                0.48215249                0.07201288                0.11547222               -0.28318948                0.00049637               -0.03193858               -0.78958897
               6.76747071                8.97955047               41.78814357                0.02132305                0.02293387                0.30125162               -0.65443134               -0.76155935               10.39645275               -2.43905825
               7.76681978                8.71111062               41.81156920                0.00010000               -0.08175854                0.44438237               -0.78163970               -1.47189347               21.03107475               -0.43818056
               8.76583554                8.43826552               41.83433725                0.00010000               -0.08400980                0.47344990               -1.07401676               -1.59664211               21.30727126                0.59811711
               9.76513959                8.16181794               41.85864821                0.00010000               -0.05910666                0.53002393               -1.41376057               -1.81479830               21.82203714                1.36649007
              10.76465341                7.88228864               41.88714061                0.00010000                0.04920890                0.51079024               -1.78168112               -2.15702139               22.62531408                2.33109714
              11.76612377                7.60082767               41.92351163                0.00010000                0.31911293                0.26608687               -2.17080389               -2.67687641               23.88606603                3.85741715
              12.77103567                7.31812129               41.97392611                0.14899267                0.56858396                0.07035273               -2.73670710               -1.63026476               13.86683849                6.77382763
              13.77749545                7.07058767               41.80405753                0.37139518                0.59045027                0.31982559               -1.52332987               -0.02320231                1.49502611                1.78530807
              14.78284467                6.82366298               41.60415802                0.83318370                0.53492266                0.56978167               -1.90800086                0.01792709                0.04174746               -0.66733960
               5.01669529               10.48344361               42.09971440                0.97485463                0.08565302                0.01254250               -0.10933508               -0.02772064               -0.01220817                0.68272452
               6.01755182               10.23319543               41.90709005                0.52910491                0.13132393                0.15414224               -0.46097983               -0.00126392                0.01545022               -0.64216531
               7.01932177                9.98239438               41.71487198                0.00010000                0.26781763                0.28585021               -0.81969165               -0.75557443               12.14938419               -1.54596419
               8.02290818                9.71576007               41.76460858                0.00010000                0.34111446                0.31252414               -1.01169898               -1.06272380               24.14901183               -0.34708932
               9.02614406                9.44318654               41.80677827                0.00010000                0.21814369                0.46158174               -1.27733638               -1.03077354               24.06407575                0.26454456
              10.02727105                9.16777069               41.84844936                0.00010000               -0.00974802                0.62801392               -1.58915023               -1.10757530               24.62865423                0.76738954
              11.02594910                8.88883343               41.89599226                0.00010000               -0.26394770                0.77007248               -1.91089497               -1.50939411               25.85999547                1.39299517
              12.02199210                8.60459163               41.95661192                0.00079990               -0.39603253                0.81266868               -2.14381910               -2.19933104               28.25378837                2.41392151
              13.01802845                8.32058229               42.04604884                0.21063110                0.05738127                0.39435497               -1.78410214               -1.85688144               15.43134303                3.78867558
              14.02313972                8.07451275               41.84355895                0.38395982                0.53287156                0.43421840               -1.60132316               -0.06835478                0.43908127                1.21845256
              15.02868588                7.82977968               41.63088533                0.82031781                0.55461601                0.63190735               -2.08239922                0.01211262               -0.01301090               -0.86796062
               5.26597240               11.48391890               42.03891303                0.99770412                0.14126577                0.04752982               -0.28932350                0.02939854                0.36982993                0.59334298
               6.26738506               11.23493578               41.84263018                0.81221856                0.19110908                0.17403558               -0.63829076                0.05075178                0.76255723               -0.51613127
               7.26979458               10.98526747               41.65400819                0.48783411                0.86940454                0.28730941               -0.99129683               -0.83145303               13.96700057               -0.90266253
               8.28477315               10.71736110               41.72145450                0.36937034                1.17074354                0.16010339               -1.20872747               -0.70201845               26.63875965               -0.27031186
               9.29320945               10.44749716               41.77709369                0.35924622                0.62840205                0.43106202               -1.46866621               -0.44260492               26.34904158                0.07608095
              10.29734119               10.17437822               41.83159897                0.36994934                0.22175673                0.66075349               -1.77513034               -0.48333948               26.94118062                0.36786090
              11.29764459                9.89769009               41.89263250                0.40074102               -0.34764533                0.88566585               -2.08588376               -0.69531043               28.39782783                0.73505746
              12.29038828                9.61708104               41.96955494                0.52254694               -1.68338378                1.24894148               -2.22494220               -1.74446638               30.82715147                1.35278107
              13.26397691                9.32600839               42.07114538                0.63692540               -1.17286602                0.54260941               -1.74508221               -2.29560392               17.68610622                1.58967649
              14.26693096                9.07927204               41.87536056                0.70911704                0.42880783                0.47592875               -1.65704109               -0.10623889                1.74692806                0.88412262
              15.27255307                8.83630113               41.65795944                0.90820810                0.56221056                0.65214463               -2.19830912                0.08962737                0.72357210               -0.78641829
               2.80352265                1.57638206               43.61191817                1.00000000               -0.39949827               -0.44908761                1.54469646               -0.08290617               -1.15706357                1.09959250
               3.79952767                1.29969415               43.47903349                1.00000000               -0.33703288               -0.31414153                1.12638105               -0.04745169               -1.56561939                0.18386154
               4.79678199                1.02248215               43.33840325                1.00000000               -0.21328822               -0.18506090                0.67881460               -0.05171228               -1.61179912               -0.21208977
               5.79526191                0.74419164               43.20488300                0.66418887               -0.08888227               -0.05286005                0.23249737               -0.37887074               -1.11907285               -0.97707149
               6.79500435                0.45795657               43.07438249                0.71754178                0.24486412               -0.07295773               -0.35263514               -0.09542262               -0.72915196                0.22948575
               7.80015919                0.16675305               42.95044552                0.75077148                0.62422476                0.10114447               -0.77075354               -0.13189426               -0.25889083                0.05615882
               8.80748884               -0.12180774               42.82891947                0.71724662                0.80291286                0.17394834               -1.00515367               -0.04354454                0.22065470               -0.20530130
               9.81621744               -0.40535731               42.71258957                0.80018640                0.72814734                0.18835450               -0.96290108               -0.08862238                0.22794561                0.03923884
              10.82205179               -0.68381688               42.58790865                1.00000000                0.48301800                0.24691505               -0.95954012               -0.07705995               -0.43260060                0.69831877
              11.82587780               -0.96031130               42.45648340                1.00000000                0.39246452                0.33392054               -1.15964327               -0.03744424               -0.75778776                0.06590070
              12.82990108               -1.23637923               42.32500307                1.00000000                0.40232770                0.42241205               -1.42192984               -0.03798790               -0.75150490               -0.73406557
               3.07938151                2.57189119               43.55330681                1.00000000               -0.33783958               -0.43666226                1.36351385               -0.01369996               -0.24900266                1.48239555
               4.07600311                2.29655273               43.42042396                1.00000000               -0.26826892               -0.28969417                0.94754314                0.01741060               -0.38925461                0.26670153
               5.07401613                2.02063154               43.28503510                1.00000000               -0.11335616               -0.15519337                0.50876419               -0.00850556               -0.32443738               -0.41017630
               6.07373599                1.74366304               43.15340215                0.33425005                0.43766440               -0.01492834                0.08894555               -0.47766571                1.11354192               -1.33210756
               7.08276942                1.45722699               43.04632712                0.44188066                0.74932072               -0.11448778               -0.47506639               -0.13264217                2.11958432                0.62733165
               8.08872240                1.16776450               42.93288958                0.50243390                0.51695826                0.14569034               -0.86595483               -0.16184869                1.92628269                0.24558335
               9.09310858                0.87993174               42.82074472                0.41924561                0.38066946                0.28340342               -1.06478633               -0.08142292                2.48825257               -0.53064247
              10.09633579                0.59652623               42.71754265                0.48471548                0.28248015                0.28864656               -0.95165818               -0.10592874                2.64196672                0.32205727
              11.09875818                0.31865227               42.60839131                1.00000000                0.27243732                0.25462945               -0.88019574               -0.07097857                1.31108928                0.87763185
              12.10178454                0.04302791               42.47906972                1.00000000                0.34154774                0.32747046               -1.12793822                0.00384802                0.19382323                0.22003732
              13.10558914               -0.23215511               42.34782888                1.00000000                0.38046015                0.41776930               -1.39088687                0.00588791                0.08883542               -0.84506436
               3.35392556                3.56764882               43.50288040                1.00000000               -0.27900329               -0.41472589                1.19452296               -0.00987058                0.00893847                1.86173636
               4.35113553                3.29390026               43.36366069                1.00000000               -0.22119911               -0.24012953                0.77997207                0.00870263                0.15664666                0.28424800
               5.34950158                3.01937828               43.22758796                0.77227846               -0.10111959               -0.07345115                0.34657177               -0.04406898                0.45282902               -1.05067453
               6.34911314                2.74389307               43.09414664                0.00010000                0.93742328                0.03933625               -0.10542277               -0.69897763                3.83819112               -1.82438216
               7.36825005                2.45566681               43.02537216                0.00010000                1.25521643               -0.11922008               -0.75622334               -1.51163538                5.40761266               -0.96365707
               8.37421747                2.16966686               42.91814294                0.00010000                0.44243017                0.14490242               -1.08630335               -1.38589752                3.30754492               -0.04810806
               9.37709865                1.88386033               42.80504243                0.00010000                0.05804381                0.30528095               -1.30842795               -1.22585963                4.84725253                0.57195227
              10.37537834                1.60041562               42.72764894                0.00010000               -0.14840528                0.27818698               -1.10605471               -0.80960206                5.61683854                0.78105179
              11.37413054                1.32127571               42.63245547                0.36082437                0.06919013                0.18344311               -0.82052474               -0.32918626                2.93825689                1.69287973
              12.37676214                1.04623811               42.50472134                1.00000000                0.31271689                0.30281308               -1.09767031               -0.04404092                0.85091889                0.76499010
              13.38038488                0.77197615               42.36840772                1.00000000                0.36227367                0.40680911               -1.33773174               -0.00159146                0.39760243               -0.80956439
               3.62668120                4.56359667               43.45234049                1.00000000               -0.22335017               -0.38994529                1.02365419               -0.01958267                0.12492585                1.67993071
               4.62444770                4.29175014               43.30555848                1.00000000               -0.17696294               -0.18194405                0.61228884               -0.00360708                0.24224070                0.06853598
               5.62314194                4.01916252               43.16126903                0.35983976               -0.04898995                0.01194061                0.21694477               -0.11306597                1.13266697               -1.55629149
               6.62346790                3.74444976               43.03215770                0.00010000                0.18104884                0.12166564               -0.22546672               -0.92386299                5.03743161               -2.38384002
               7.62676292                3.45484259               42.96555987                0.00010000                0.46715195                0.08107772               -0.68610565               -2.35356076                8.01382704               -1.89825765
               8.63281094                3.17066254               42.89337897                0.00010000                0.55398537                0.08422603               -1.04818968               -2.30261581                7.62421669               -0.04466575
               9.63784263                2.88603736               42.81676747                0.00010000                0.49587142                0.11123721               -1.25864546               -2.21254927                7.43044769                1.75297910
              10.64272837                2.60208997               42.73986955                0.00010000                0.42546689                0.04809398               -1.29453874               -1.60372698                7.70843412                1.53753353
              11.64635196                2.32232113               42.66947749                0.07788047                0.37374517               -0.07868357               -0.82426732               -0.65927477                4.83349300                1.55378431
              12.65020327                2.04908417               42.53847143                0.48160139                0.38646313                0.10228312               -1.11997366               -0.11885960                1.02250589                1.87995593
              13.65408123                1.77598107               42.39222552                0.91412738                0.38779559                0.30338914               -1.31792277               -0.02120396                0.22346103                0.05769962
               3.89722696                5.55984991               43.39867694                1.00000000               -0.17294229               -0.35099890                0.84141790               -0.03875347                0.24149899                1.33202405
               4.89549754                5.29026138               43.24452475                0.72372790               -0.13431609               -0.10105565                0.43793485               -0.04161726                0.38703067               -0.36841127
               5.89454064                5.01961709               43.09337378                0.15762322               -0.02708690                0.11396244                0.04789411               -0.19210052                1.48186767               -1.88201929
               6.89495580                4.74632638               42.96095227                0.00010000                0.02127025                0.17567851               -0.35464653               -1.15624862                7.21373384               -1.95041403
               7.89496605                4.45728837               42.92406071                0.00010000                0.10072892                0.26072629               -0.68741580               -2.00879198               11.53986040               -0.33835703
               8.89697038                4.17135138               42.87540948                0.00010000                0.32270943                0.13184835               -1.05382961               -2.08469847               10.71351010                0.71290214
               9.90142024                3.88608507               42.81998123                0.00010000                0.50248253                0.02154894               -1.33419327               -2.11447042               10.24228409                1.66054756
              10.90702003                3.60137750               42.76040762                0.00010000                0.62653070               -0.09741803               -1.49249873               -1.88014727                9.60336564                2.24947920
              11.91395085                3.31970204               42.69176251                0.06215892                0.68524903               -0.26687660               -1.73534595               -0.93844364                7.23269873                1.93451650
              12.92072501                3.04828378               42.58693885                0.37191577                0.61080765               -0.19931789               -1.10476033               -0.14062065                2.68653691                2.99802228
              13.92616700                2.77804394               42.43078746                0.83111089                0.54419903                0.09805400               -1.27135534                0.02271124                0.11677175                1.05617823
               4.16508319                6.55657669               43.34147030                1.00000000               -0.12350157               -0.29163930                0.65072788               -0.03983640                0.10275397                1.00645307
               5.16384817                6.28972903               43.17760224                0.55040425               -0.09241280               -0.01578019                0.23755930               -0.06126961                0.41910748               -0.74333504
               6.16323493                6.02144176               43.02011532                0.07944170               -0.05882606                0.24827481               -0.14461550               -0.35358598                2.95230272               -2.37506758
               7.16267165                5.74796333               42.90675964                0.00010000               -0.08364250                0.05004760               -0.18923274               -1.44837290               10.22796084                0.71977145
               8.16156208                5.46005712               42.89364432                0.00010000               -0.01756916                0.28694453               -0.71058068               -2.15198730               14.53389863                0.64939374
               9.16232027                5.17329951               42.86345331                0.00010000                0.19825073                0.23236201               -1.11516214               -2.17644775               13.50456616                1.33362304
              10.16552710                4.88646834               42.82723577                0.00010000                0.45940938                0.08551118               -1.46644559               -2.25006433               12.99058190                2.16780227
              11.17150846                4.60014161               42.78470784                0.00010000                0.75748586               -0.10203141               -1.80534122               -2.06621345               12.21188277                2.93673390
              12.18067682                4.31698360               42.73195544                0.06635909                0.87702499               -0.33763080               -2.13490774               -1.16122229                9.86413736                3.68776050
              13.18904896                4.04509781               42.64438402                0.35113723                0.71691570               -0.23776249               -1.14924561               -0.23410394                3.99068812                3.19270911
              14.19501513                3.77794215               42.47726429                0.82403003                0.59661725                0.04997144               -1.34600101                0.01529363                0.02813473                1.01303114
               4.43012556                7.55401713               43.28151945                1.00000000               -0.07184855               -0.21662707                0.45641533               -0.03365297                0.03265415                0.81069687
               5.42940708                7.28994578               43.10883713                0.46657489               -0.04454702                0.04586470                0.04913322               -0.04516090                0.31186672               -0.84045217
               6.42923462                7.02458259               42.94174428                0.04367484               -0.10170410                0.34292975               -0.34730413               -0.64962396                6.32540917               -2.69311312
               7.42737299                6.74732733               42.88917833                0.00010000               -0.13222497                0.07619608               -0.22226250               -1.61939137               13.86688115                1.56377669
               8.42659012                6.46302726               42.87058801                0.00010000               -0.01713942                0.32034454               -0.79400008               -2.07393517               15.95575802                1.14158934
               9.42703020                6.17599862               42.85637170                0.00010000                0.14933639                0.31531057               -1.22088601               -2.27810521               16.17975573                1.71066962
              10.42957685                5.88779529               42.83921157                0.00010000                0.40751492                0.19242345               -1.63043991               -2.40933978               15.93078101                2.60550245
              11.43518050                5.59933687               42.81741409                0.00010000                0.80966770               -0.01369166               -2.09761704               -2.39166947               15.30861172                3.78297681
              12.44577020                5.31294942               42.78598630                0.07795596                0.99519391               -0.38848871               -2.67520389               -1.37670542               11.97610532                5.25649903
              13.45508438                5.04352853               42.69787347                0.34725486                0.75069988               -0.03865579               -1.29282643               -0.22493938                4.53380679                2.69838409
              14.46078420                4.77904337               42.51928853                0.82503880                0.56998190                0.22173087               -1.56223632                0.00941470                0.03510655                0.31100429
               4.69255282                8.55224415               43.22055352                1.00000000               -0.01733305               -0.13875402                0.26545895               -0.03068477                0.00694392                0.74466243
               5.69237949                8.29064632               43.03970124                0.44406988                0.01540381                0.09025698               -0.13614072               -0.01311340                0.13274456               -0.83424982
               6.69286090                8.02830036               42.86131880                0.02688410               -0.02701689                0.36240504               -0.53974266               -0.80281907                8.69892752               -2.73425456
               7.69183916                7.74948725               42.85157933                0.00010000               -0.07244020                0.32842243               -0.60028336               -1.66286549               17.68890906                0.07276993
               8.69141210                7.46646401               42.84921185                0.00010000                0.00754881                0.39899838               -0.96268869               -1.95480505               18.46377931                1.01241776
               9.69199013                7.17960572               42.85102281                0.00010000                0.12949774                0.41486788               -1.36375438               -2.20883907               18.93773454                1.73456873
              10.69400205                6.89031681               42.85436596                0.00010000                0.32654050                0.32883883               -1.78920369               -2.44078806               19.17108111                2.74561073
              11.69852094                6.59986778               42.85764684                0.00010000                0.74745008                0.14115192               -2.34311596               -2.63959166               19.03352079                4.31461844
              12.70895105                6.30921382               42.85560372                0.09754757                0.99676406               -0.24336566               -3.31543646               -1.50633562               13.47572192                6.95973020
              13.71845622                6.04432470               42.74560974                0.34903310                0.76113457                0.18178339               -1.47679799               -0.13472486                4.05905462                2.18273167
              14.72417374                5.78237677               42.55458966                0.82520590                0.57175206                0.43275179               -1.83960033                0.02116470                0.04948948               -0.35979929
               4.95270752                9.55124205               43.15939388                0.98758363                0.03810778               -0.06187378                0.07327040               -0.02942659                0.00303845                0.74864545
               5.95308860                9.29175092               42.97078406                0.47355563                0.08148950                0.12975200               -0.31850643                0.00439136               -0.03642773               -0.78873219
               6.95433731                9.03183069               42.78128565                0.01573709                0.14317194                0.33208954               -0.72258372               -0.84485321               10.50956144               -2.42463273
               7.95595204                8.75389578               42.80329055                0.00010000                0.15191203                0.44038544               -0.87767096               -1.61662417               21.21820574               -0.49254529
               8.95737555                8.47100723               42.82308972                0.00010000                0.15242939                0.44723990               -1.17485861               -1.70883474               21.41465174                0.59670652
               9.95900062                8.18429598               42.84389486                0.00010000                0.15617409                0.51586053               -1.53133462               -1.88482536               21.89978891                1.39997034
              10.96049903                7.89437207               42.86849002                0.00010000                0.22455149                0.53258660               -1.93923905               -2.18887646               22.66290298                2.39270858
              11.96349165                7.60215991               42.90039378                0.00010000                0.53437699                0.34403633               -2.43619115               -2.67432739               23.71680100                4.03334284
              12.97118657                7.30808211               42.94297047                0.12994586                0.78676432                0.09049699               -3.43901409               -1.64886564               14.64096846                7.60895707
              13.97922694                7.04716419               42.78823945                0.35525131                0.69583905                0.36333050               -1.64864880               -0.06890809                2.46363469                1.76782900
              14.98510335                6.78769840               42.58422788                0.82244795                0.58764127                0.59586712               -2.10592681                0.02669425                0.05721842               -0.87232347
               5.21094655               10.55100667               43.09858000                0.96988319                0.09321311                0.01315155               -0.11659004               -0.02907001               -0.01287628                0.67301687
               6.21187868               10.29324136               42.90227293                0.52220666                0.14362133                0.16930577               -0.50447185                0.00079815                0.01322932               -0.64058045
               7.21381897               10.03494215               42.70633458                0.00010000                0.42257293                0.31152825               -0.89415070               -0.87576781               12.23286156               -1.52589096
               8.22033014                9.75829496               42.75405334                0.00010000                0.65081179                0.24090652               -1.10059820               -1.19995389               24.31172025               -0.36407139
               9.22683521                9.47540881               42.79348150                0.00010000                0.52993232                0.39274567               -1.37879160               -1.10884825               24.19030080                0.26315540
              10.23092878                9.18992293               42.83189051                0.00010000                0.27626904                0.57774454               -1.71484227               -1.12693657               24.73042768                0.77963749
              11.23236059                8.90096854               42.87596806                0.00010000                0.01977880                0.75230011               -2.08953542               -1.46266600               25.97745329                1.42941580
              12.23132436                8.60674850               42.93374055                0.00010000               -0.06955668                0.83337170               -2.46096907               -2.11027291               28.64874950                2.60602362
              13.23096945                8.31102376               43.02552346                0.18622738                0.30687040                0.50924197               -2.44809154               -1.77997077               16.18773591                4.58980115
              14.23746177                8.05159131               42.82675240                0.36843829                0.63348788                0.48666981               -1.77000366               -0.10881265                0.88012581                1.25102385
              15.24363921                7.79429411               42.60899761                0.80937277                0.61774470                0.69197208               -2.32525904                0.01718078                0.00012813               -1.00629537
               5.46765674               11.55150508               43.03593839                0.99546415                0.15123418                0.04984027               -0.30489705                0.03421540                0.36330995                0.58368158
               6.46916908               11.29513703               42.83600800                0.80971917                0.20558063                0.18956717               -0.68943962                0.05684960                0.75540607               -0.51194067
               7.47176835               11.03806125               42.64371339                0.48533829                1.11586098                0.31191041               -1.07404542               -1.02621782               14.03276794               -0.88291956
               8.49148630               10.75871391               42.70892309                0.36941494                1.59011294                0.04189519               -1.29904694               -0.84433894               26.78982774               -0.28425028
               9.50357061               10.47886214               42.76185893                0.35935616                0.97079278                0.34533344               -1.57500614               -0.46961180               26.47531183                0.06993670
              10.51090216               10.19585087               42.81314840                0.36971114                0.54247634                0.59279337               -1.90668265               -0.47486569               27.04126896                0.36931252
              11.51442014                9.90941807               42.87082920                0.39978791                0.01644061                0.84495326               -2.27163324               -0.64522106               28.55846691                0.75777063
              12.51123097                9.61882734               42.94610535                0.50967282               -1.18378929                1.20788381               -2.53040356               -1.56689499               31.35626751                1.52510488
              13.49074435                9.31826695               43.05149664                0.62294122               -0.87253154                0.72431816               -2.28914178               -2.11899776               18.57934626                1.97613699
              14.49378034                9.05689759               42.85794034                0.70156960                0.46485037                0.53062826               -1.83949336               -0.20459765                2.16826496                0.94225130
              15.50004136                8.80153784               42.63483023                0.90245509                0.62610214                0.72437326               -2.45806296                0.10424023                0.76162947               -0.87214533
               2.92675511                1.64697733               44.62781528                1.00000000               -0.42363858               -0.47843220                1.64488054               -0.09178795               -1.18632995                1.11422852
               3.92251872                1.36106375               44.49048909                1.00000000               -0.35795699               -0.32448935                1.16925937               -0.05178182               -1.61436465                0.18936712
               4.91959597                1.07457491               44.34513868                1.00000000               -0.23149831               -0.17806290                0.66874094               -0.05902865               -1.68107305               -0.21126529
               5.91788876                0.78661615               44.20689237                0.67211224               -0.15325312               -0.01364923                0.16608889               -0.46002742               -1.26611508               -0.97247041
               6.91653091                0.48880303               44.07031220                0.72669116                0.19082414               -0.02100882               -0.45262283               -0.12736646               -0.90563167                0.21282287
               7.92170524                0.18513645               43.94194142                0.75379395                0.66977634                0.15820009               -0.92298616               -0.15524986               -0.30768893                0.02358949
               8.92992643               -0.11575726               43.81791326                0.70797703                0.93498544                0.23584904               -1.20534072               -0.03408583                0.39195466               -0.27902320
               9.94040495               -0.41024435               43.70229996                0.77710311                0.86930603                0.22048497               -1.11587518               -0.08687626                0.56047651               -0.02532045
              10.94731256               -0.69757214               43.57813571                1.00000000                0.54382915                0.24529787               -0.98815697               -0.08614148               -0.19734120                0.72999428
              11.95128153               -0.98233489               43.44475246                1.00000000                0.40434984                0.33433974               -1.18566538               -0.03672904               -0.68063650                0.07627631
              12.95539955               -1.26646373               43.31064264                1.00000000                0.41180193                0.42482021               -1.45583770               -0.04656338               -0.70637287               -0.68880484
               3.21175081                2.64219301               44.56733333                1.00000000               -0.35486948               -0.46476865                1.45091655               -0.01255976               -0.26620183                1.49672375
               4.20820211                2.35781886               44.43003227                1.00000000               -0.27606615               -0.29921110                0.97747502                0.02184375               -0.42157861                0.27576084
               5.20622949                2.07279428               44.29000479                1.00000000               -0.10138434               -0.14766263                0.48358741               -0.00688419               -0.36062302               -0.40342045
               6.20617443                1.78647965               44.15391383                0.35388651                0.48838031                0.02320744                0.00619268               -0.57283517                1.01064571               -1.34090559
               7.21599709                1.48859294               44.04087326                0.45953423                0.81292306               -0.08607972               -0.62083753               -0.20654763                1.98912054                0.54813784
               8.22243289                1.18671845               43.92324345                0.51209972                0.56394411                0.21344985               -1.07682768               -0.22064082                1.96165167                0.16049370
               9.22727597                0.88660123               43.80898387                0.41703433                0.40053679                0.37783581               -1.32180502               -0.10066163                2.80363514               -0.68532961
              10.23044362                0.59196050               43.70740165                0.46130159                0.26102193                0.36575329               -1.11400408               -0.13327963                3.11249634                0.17222667
              11.23249641                0.30488084               43.59970858                1.00000000                0.24582082                0.24662945               -0.84472956               -0.10432058                1.54112204                0.89389852
              12.23536004                0.02100851               43.46791631                1.00000000                0.32831750                0.32035345               -1.09799485                0.00386076                0.21058748                0.22792538
              13.23906276               -0.26221553               43.33404039                1.00000000                0.37027221                0.41220573               -1.36847672               -0.00175773                0.09526890               -0.78535494
               3.49525221                3.63768195               44.51514504                1.00000000               -0.28978923               -0.43912837                1.26555888               -0.01033950                0.00003153                1.87544252
               4.49235432                3.35507953               44.37152625                1.00000000               -0.22273625               -0.24573166                0.79507297                0.00858055                0.13594769                0.29707147
               5.49079749                3.07162166               44.23086682                0.78568290               -0.08604608               -0.06029038                0.30633036               -0.05125861                0.41597797               -1.02217112
               6.49063340                2.78708029               44.09268495                0.00010000                1.06818351                0.07829399               -0.19421501               -0.84791452                3.68532539               -1.81698251
               7.51216116                2.48708143               44.01691286                0.00010000                1.43253688               -0.06219676               -0.94537905               -1.76816110                5.26710149               -0.91484485
               8.51928414                2.18940545               43.90597593                0.00010000                0.52549946                0.27970079               -1.37033943               -1.61806578                3.39077021               -0.01913818
               9.52267115                1.89179945               43.79038707                0.00010000                0.00878024                0.50674323               -1.67383372               -1.44927971                5.24950258                0.54946813
              10.51945974                1.59707072               43.71551779                0.00010000               -0.32465041                0.47985632               -1.41822341               -0.99745299                6.32097179                0.63030841
              11.51617814                1.30736045               43.62467241                0.34056745               -0.05023110                0.14905259               -0.72008281               -0.45653504                3.25418164                1.65181919
              12.51845512                1.02407218               43.49411834                1.00000000                0.28171681                0.28141539               -1.01518211               -0.04730902                0.82080659                0.74051020
              13.52181248                0.74178038               43.35541379                1.00000000                0.33573560                0.38383243               -1.25914065               -0.00878712                0.38469457               -0.75300271
               3.77674887                4.63341044               44.46282524                1.00000000               -0.23148528               -0.40872497                1.07851517               -0.02166595                0.12245766                1.68359414
               4.77443402                4.35290422               44.31168654                1.00000000               -0.17726631               -0.18101093                0.61378028               -0.00626089                0.24503566                0.07795604
               5.77320355                4.07158848               44.16317998                0.35397587               -0.03388277                0.03267669                0.16047880               -0.12359590                1.12068944               -1.52638047
               6.77375636                3.78804553               44.02938745                0.00010000                0.25525861                0.16605295               -0.33749861               -1.05302618                4.99860212               -2.33844278
               7.77830872                3.48734900               43.95793415                0.00010000                0.57985947                0.18650803               -0.85140851               -2.63362802                8.00993562               -1.66654662
               8.78535355                3.19231247               43.88194072                0.00010000                0.61581937                0.25041650               -1.25736811               -2.58754283                7.73282424                0.16617089
               9.79062511                2.89673609               43.80322882                0.00010000                0.47900055                0.32848224               -1.47649031               -2.51086124                7.69186980                1.93356121
              10.79493356                2.60155763               43.72638384                0.00010000                0.28695733                0.25316469               -1.42638759               -1.97489933                8.30924671                1.50230431
              11.79636425                2.30786189               43.66179068                0.06410725                0.25301827                0.03078638               -0.70535211               -0.83883088                5.17221697                1.00621831
              12.79999393                2.02663682               43.52786148                0.44463468                0.35531822                0.05595258               -0.99231296               -0.09980414                0.96086441                1.83570647
              13.80347062                1.74546112               43.37968359                0.88573092                0.34766870                0.21366781               -1.18362309                0.00533816                0.20554833                0.10273449
               4.05583132                5.62950745               44.40727605                1.00000000               -0.17802592               -0.36455769                0.88209276               -0.04208432                0.24673520                1.32470023
               5.05405107                5.35145931               44.24885596                0.70933519               -0.13235325               -0.09259300                0.42763206               -0.04650189                0.39782417               -0.37378157
               6.05318426                5.07227519               44.09357061                0.15139659               -0.01193585                0.14217028               -0.01302895               -0.20273664                1.49282980               -1.87763032
               7.05381235                4.79040135               43.95685213                0.00010000                0.10187030                0.19216693               -0.47667749               -1.23683044                7.26935163               -1.74367402
               8.05522167                4.49081159               43.91655163                0.00010000                0.21669223                0.35053513               -0.82521449               -2.17890118               11.61987148               -0.12938422
               9.05814619                4.19441378               43.86415946                0.00010000                0.39935464                0.24748844               -1.20877965               -2.25446088               10.81307494                0.91028552
              10.06320876                3.89836910               43.80603133                0.00010000                0.53448799                0.14325603               -1.46603393               -2.30119959               10.44174902                1.78160807
              11.06883595                3.60213401               43.74529698                0.00010000                0.55567891                0.01716376               -1.53227175               -2.10935488                9.81318356                2.16311421
              12.07432234                3.30797618               43.67494817                0.05111538                0.50119297               -0.03151940               -1.60938689               -1.11893785                7.74817033                1.31289287
              13.07885981                3.02519123               43.57659162                0.34391267                0.49741496               -0.25063753               -0.95932729               -0.23445669                3.08246986                2.93479656
              14.08427064                2.74605374               43.41879778                0.81055145                0.54108236               -0.09083840               -1.12882389                0.07946640                0.10791566                0.99366947
               4.33200348                6.62611928               44.34810973                1.00000000               -0.12672349               -0.30122415                0.68002750               -0.04108422                0.09584512                0.99363547
               5.33073624                6.35105236               44.17988946                0.53515117               -0.08983548               -0.00241200                0.21829500               -0.06595623                0.42678510               -0.75297331
               6.33020677                6.07443188               44.01836354                0.07208576               -0.01264436                0.28591276               -0.21251911               -0.40063603                3.15306670               -2.38196710
               7.33048336                5.79188887               43.90449027                0.00010000                0.02557520                0.05785276               -0.26850533               -1.50471760               10.37435005                0.98101194
               8.33071827                5.49435971               43.88600161                0.00010000                0.11117383                0.34855937               -0.82819679               -2.25389693               14.51069495                0.82943125
               9.33270683                5.19726223               43.85172303                0.00010000                0.30813019                0.30348901               -1.23837703               -2.30499039               13.58220929                1.50002206
              10.33688088                4.89960121               43.81211281                0.00010000                0.52162758                0.15298481               -1.55974479               -2.39481358               13.10919591                2.25841403
              11.34313938                4.60190091               43.76657441                0.00010000                0.70237010               -0.01862268               -1.81275045               -2.20609725               12.33721088                2.82074941
              12.35092828                4.30723151               43.71140705                0.05599149                0.70439266               -0.17409207               -1.96374942               -1.37507092               10.53282767                3.31627848
              13.35722724                4.02162407               43.63336205                0.32893460                0.62033270               -0.25055535               -1.05944893               -0.36845824                4.56820382                3.07697770
              14.36333493                3.74364435               43.46415905                0.80807009                0.61076948               -0.13607747               -1.29629599                0.04039019                0.02309586                0.75987154
               4.60514348                7.62348297               44.28617252                1.00000000               -0.07241394               -0.22322712                0.47686447               -0.03408394                0.02903905                0.79884406
               5.60441934                7.35141107               44.10920993                0.45289459               -0.04042267                0.06008433                0.02355030               -0.04559220                0.31305190               -0.84123956
               6.60433503                7.07799345               43.93794468                0.03644886               -0.03145858                0.38555001               -0.41921744               -0.70741640                6.59539014               -2.69714060
               7.60379017                6.79155841               43.88642393                0.00010000                0.02176674                0.11633662               -0.34445225               -1.68738929               14.09621532                1.56426423
               8.60477036                6.49778278               43.86210451                0.00010000                0.15073540                0.35522395               -0.90786521               -2.15883936               15.92922432                1.25581670
               9.60680488                6.20048356               43.84363397                0.00010000                0.29517257                0.35380923               -1.33059725               -2.39350552               16.25261505                1.84106074
              10.61067382                5.90142879               43.82243580                0.00010000                0.51394170                0.23250898               -1.71980707               -2.53530138               16.00134470                2.68775862
              11.61708371                5.60176156               43.79621871                0.00010000                0.82119715                0.03408350               -2.11952323               -2.46394562               15.31232512                3.71166487
              12.62709776                5.30449434               43.75989799                0.06679060                0.89970444               -0.29229160               -2.50652170               -1.52822136               12.78457630                4.75969201
              13.63507780                5.02018012               43.68499689                0.32905103                0.69700563               -0.01095818               -1.29317352               -0.35243858                5.34823024                2.55537179
              14.64103787                4.74333219               43.50343659                0.81221802                0.59600686                0.13021822               -1.64066370                0.02385494                0.04249950               -0.03412618
               4.87546560                8.62165474               44.22325815                0.99975542               -0.01516827               -0.14342440                0.27675563               -0.03170053                0.00560239                0.73379862
               5.87531392                8.35225405               44.03818933                0.43233321                0.02227476                0.10477658               -0.16723835               -0.00952118                0.13036236               -0.83121901
               6.87591110                8.08214288               43.85557513                0.02005812                0.08161581                0.40242917               -0.61496067               -0.86090076                8.86798316               -2.72765618
               7.87694624                7.79421560               43.84499635                0.00010000                0.13526188                0.36136500               -0.72363487               -1.75445163               17.92691593               -0.02816297
               8.87861634                7.50146418               43.83906662                0.00010000                0.21222358                0.40736094               -1.07154628               -2.05616447               18.57371689                1.06602772
               9.88119071                7.20433842               43.83684952                0.00010000                0.31402534                0.42330471               -1.47094832               -2.31413030               19.03996281                1.82728598
              10.88489684                6.90425139               43.83589118                0.00010000                0.48021082                0.35559617               -1.89699606               -2.55085514               19.21783371                2.82452162
              11.89079493                6.60258258               43.83350565                0.00010000                0.85242213                0.18196240               -2.45128759               -2.69850469               18.83345627                4.33057461
              12.90194529                6.30138567               43.82194276                0.08397604                1.02728441               -0.20568207               -3.29760445               -1.61330339               14.42066842                6.58848037
              13.91134061                6.02140490               43.73049189                0.33326797                0.77813080                0.23107356               -1.55795924               -0.23520162                5.19586031                2.06312030
              14.91750790                5.74624871               43.53544424                0.81424184                0.61672882                0.42381880               -2.02196342                0.03309668                0.06418735               -0.68995611
               5.14331086                9.62061448               44.16013839                0.98261148                0.04299230               -0.06476559                0.07776309               -0.03147312                0.00558750                0.73743110
               6.14374078                9.35350660               43.96741187                0.46366458                0.09223010                0.14529166               -0.35806253                0.00877284               -0.03911449               -0.78521604
               7.14515546                9.08604203               43.77369190                0.00952864                0.28195279                0.36529679               -0.80228625               -0.92166956               10.63188334               -2.40671031
               8.14937984                8.79878571               43.79401578                0.00010000                0.41844003                0.43152484               -0.98133706               -1.75313039               21.44203612               -0.51556788
               9.15352426                8.50593000               43.81084008                0.00010000                0.41776161                0.41081225               -1.27721503               -1.81697444               21.58177785                0.62227219
              10.15773507                8.20894965               43.82802152                0.00010000                0.39441482                0.48857411               -1.64049223               -1.95934724               22.04119026                1.45635151
              11.16141256                7.90854072               43.84835583                0.00010000                0.41221347                0.54155853               -2.07626966               -2.23987832               22.74582927                2.45558018
              12.16597934                7.60540081               43.87478781                0.00010000                0.72984043                0.42089742               -2.65971269               -2.67716304               23.42965517                4.13346476
              13.17600936                7.30038070               43.90514583                0.11205431                0.97656958                0.12332335               -3.97886209               -1.68865874               15.61714451                8.10869461
              14.18551073                7.02480160               43.77108456                0.34055850                0.80014077                0.42137169               -1.79189689               -0.13223299                3.75966046                1.70592513
              15.19201218                6.75180856               43.56203949                0.81223603                0.65014513                0.64013553               -2.36002812                0.03520281                0.07689728               -1.13529423
               5.40905191               10.62035943               44.09738260                0.96474151                0.10099219                0.01306340               -0.12148066               -0.03052820               -0.01347594                0.66327441
               6.41006183               10.35515988               43.89700062                0.51382474                0.15733456                0.18601167               -0.55234716                0.00333933                0.01297418               -0.63791847
               7.41219860               10.08944882               43.69698896                0.00010000                0.59669163                0.34047118               -0.98090608               -0.99671931               12.33364444               -1.50437847
               8.42199566                9.80284610               43.74259661                0.00010000                0.99571534                0.15754435               -1.19422037               -1.33620294               24.51863336               -0.36354069
               9.43211291                9.50968043               43.77920243                0.00010000                0.86986926                0.31055135               -1.47743925               -1.18850410               24.37609355                0.27774371
              10.43939305                9.21410990               43.81415252                0.00010000                0.57676065                0.51495189               -1.82749064               -1.15683183               24.89372118                0.80429955
              11.44364812                8.91508256               43.85420155                0.00010000                0.30093183                0.72912471               -2.25350582               -1.43324797               26.10986797                1.46106455
              12.44541168                8.61100052               43.90739254                0.00010000                0.25616025                0.87263694               -2.79388235               -2.01817831               28.87643181                2.73656603
              13.44877132                8.30385214               43.99708701                0.16206262                0.59282008                0.66020309               -3.34600640               -1.67243541               17.13468115                5.41381172
              14.45726809                8.02983234               43.80815888                0.35464986                0.77133481                0.54697924               -1.95647965               -0.16743829                1.67990948                1.26065847
              15.46419802                7.75905143               43.58438015                0.79917606                0.69299348                0.76922118               -2.62542005                0.02159425                0.01674254               -1.17058478
               5.67309939               11.62087575               44.03281509                0.99281958                0.16187912                0.05163219               -0.31881307                0.03985615                0.35604605                0.57410653
               6.67471818               11.35722683               43.82884138                0.80616420                0.22177330                0.20669513               -0.74669279                0.06442008                0.75000436               -0.50739942
               7.67753485               11.09285146               43.63252728                0.48260933                1.38529926                0.34026383               -1.16960839               -1.23088645               14.11924510               -0.86221466
               8.70242416               10.80193660               43.69547356                0.36938347                2.04777616               -0.09095053               -1.39566810               -0.99267132               26.98830164               -0.29200716
               9.71849038               10.51214103               43.74559357                0.35948084                1.33860678                0.24605962               -1.67919209               -0.49664829               26.66295877                0.06883469
              10.72919630               10.21924869               43.79346532                0.36947244                0.86832985                0.51387870               -2.02508456               -0.47056560               27.20936101                0.37205596
              11.73585697                9.92312321               43.84719984                0.39879138                0.38249462                0.80406487               -2.44411796               -0.59887159               28.73442491                0.76660602
              12.73684619                9.62285355               43.91894686                0.49599154               -0.60640645                1.18530232               -2.91124850               -1.33347181               31.78350097                1.65524346
              13.72372884                9.31358476               44.02536255                0.60884871               -0.49417571                0.97326179               -3.05971558               -1.85986630               19.63611939                2.49335270
              14.72696268                9.03574118               43.83857069                0.69498604                0.51385210                0.59088447               -2.04315336               -0.35012926                2.86696628                0.98920009
              15.73400589                8.76719299               43.60879818                0.89717677                0.70432088                0.81415633               -2.77501293                0.12596740                0.80160077               -0.97017590
               3.05444842                1.71963053               45.64481578                1.00000000               -0.45314447               -0.51346306                1.76466679               -0.10242276               -1.20861008                1.12297615
               4.04991698                1.42439514               45.50241867                1.00000000               -0.38455816               -0.33643429                1.22048012               -0.05698604               -1.65249531                0.19329858
               5.04675726                1.12852462               45.35177807                1.00000000               -0.25754495               -0.16896308                0.65906400               -0.06830669               -1.73704111               -0.20976621
               6.04476608                0.83069931               45.20820478                0.68011046               -0.24572997                0.03530316                0.09375613               -0.54024968               -1.38038663               -0.96153882
               7.04184266                0.52109091               45.06533003                0.73679864                0.08191370                0.04981723               -0.53066286               -0.16597215               -1.04341228                0.19583443
               8.04640435                0.20462078               44.93198580                0.75823676                0.65633714                0.23190841               -1.05091002               -0.18697086               -0.35845102               -0.00444269
               9.05496940               -0.10952944               44.80481265                0.69701254                1.04000852                0.32807695               -1.41511712               -0.02902672                0.56640284               -0.36797241
              10.06720452               -0.41606711               44.69027207                0.74366313                1.03415319                0.28200456               -1.32439217               -0.07601568                0.96713146               -0.13067253
              11.07565247               -0.71236273               44.56814552                1.00000000                0.62768095                0.23562713               -0.99693002               -0.11096691                0.12083617                0.77397698
              12.07975814               -1.00511346               44.43277009                1.00000000                0.41703962                0.33339982               -1.20913380               -0.03877103               -0.60318681                0.08525455
              13.08399326               -1.29695082               44.29588632                1.00000000                0.42351167                0.43174630               -1.50469283               -0.05842640               -0.66481496               -0.64461388
               3.34865959                2.71449590               45.58232514                1.00000000               -0.37595123               -0.49823866                1.55619438               -0.01074292               -0.28137183                1.50328692
               4.34490008                2.42103080               45.43997346                1.00000000               -0.28687402               -0.31038603                1.01380215                0.02774015               -0.45010647                0.28244235
               5.34292211                2.12683499               45.29470685                1.00000000               -0.09098216               -0.13824758                0.45524652               -0.00366413               -0.39324872               -0.39536513
               6.34308043                1.83105234               45.15352600                0.37656701                0.51500465                0.06902435               -0.09028420               -0.66191875                0.90932251               -1.33767089
               7.35322220                1.52158909               45.03391037                0.48191744                0.83821935               -0.03909444               -0.77074080               -0.28270161                1.84499085                0.47368185
               8.35984482                1.20693987               44.91135303                0.52638097                0.59004407                0.29830217               -1.30498855               -0.28417232                1.97938223                0.07640188
               9.36502308                0.89375133               44.79430862                0.41462503                0.40080967                0.50670876               -1.64722619               -0.13047495                3.18452065               -0.87064674
              10.36786101                0.58675293               44.69526257                0.42728717                0.20214451                0.50533564               -1.38343965               -0.17249359                3.80403171               -0.08878924
              11.36906597                0.28999354               44.59149672                1.00000000                0.19017312                0.22963590               -0.77943018               -0.17856191                1.90158571                0.91769362
              12.37166448               -0.00177946               44.45710982                1.00000000                0.30901898                0.31083043               -1.05778442                0.00259288                0.22372246                0.23189259
              13.37524635               -0.29263336               44.32045935                1.00000000                0.35818764                0.41118578               -1.35308213               -0.01065842                0.09759380               -0.72439568
               3.64116378                3.70966576               45.52819158                1.00000000               -0.30310774               -0.46791794                1.35094374               -0.01042650               -0.00936679                1.87966833
               4.63813270                3.41818742               45.37956215                1.00000000               -0.22506711               -0.25256238                0.81391934                0.00937465                0.11504737                0.30726399
               5.63666243                3.12575966               45.23371457                0.79617389               -0.06795480               -0.04519357                0.26039321               -0.05874544                0.38284422               -0.99282306
               6.63677360                2.83207980               45.09026234                0.00010000                1.18193334                0.12306931               -0.29725995               -0.99226476                3.51547609               -1.80132972
               7.66030110                2.52030903               45.00646458                0.00010000                1.58925290                0.01419059               -1.14952199               -2.01534039                5.08259430               -0.82052743
               8.66855866                2.21058683               44.89073615                0.00010000                0.61228679                0.44312789               -1.68505149               -1.86881778                3.43293118                0.07852732
               9.67254684                1.90060474               44.77156576                0.00010000               -0.05231085                0.76564993               -2.12373997               -1.71667017                5.67878288                0.61034619
              10.66751244                1.59403960               44.69928447                0.00010000               -0.59666050                0.78019686               -2.00281517               -1.29421602                7.41255724                0.55832158
              11.66061363                1.29222999               44.61805381                0.31747058               -0.25377738                0.10880965               -0.58247206               -0.68418801                3.82572999                1.58426047
              12.66243690                1.00110315               44.48441769                1.00000000                0.24371247                0.25522450               -0.91620379               -0.05469587                0.77663795                0.70552941
              13.66548788                0.71127290               44.34322490                1.00000000                0.30509798                0.36425612               -1.18102504               -0.01794451                0.36591606               -0.69162668
               3.93140774                4.70513754               45.47391079                1.00000000               -0.24140754               -0.43031706                1.14395053               -0.02389624                0.11861604                1.67954398
               4.92899367                4.41597955               45.31783409                1.00000000               -0.17764587               -0.18022924                0.61626008               -0.00898371                0.24362092                0.08632932
               5.92785482                4.12593111               45.16447860                0.34780867               -0.01539442                0.05606305                0.09423963               -0.13635955                1.10373825               -1.49073190
               6.92868578                3.83351373               45.02540773                0.00010000                0.32767695                0.21351422               -0.46678566               -1.17349964                4.95641567               -2.28693295
               7.93440836                3.52187290               44.94853170                0.00010000                0.67434874                0.31620997               -1.04057625               -2.89781293                8.00670532               -1.36642271
               8.94217275                3.21580242               44.86823161                0.00010000                0.64142707                0.45939783               -1.49922064               -2.88075251                7.86316141                0.49348290
               9.94723690                2.90906433               44.78723767                0.00010000                0.40893463                0.61142508               -1.74863706               -2.84373440                8.04090713                2.29103206
              10.95035144                2.60235687               44.71134180                0.00010000                0.05408818                0.52048081               -1.59958068               -2.50200921                9.13247657                1.70225342
              11.94831867                2.29216973               44.65537045                0.05014944                0.05881024                0.20567667               -0.56832759               -1.10129264                5.66615004                0.41798773
              12.95152765                2.00332503               44.51862517                0.40387568                0.31146478                0.01879912               -0.84209186               -0.07150326                0.89617652                1.75677756
              13.95454796                1.71465177               44.36855305                0.85490573                0.30203139                0.10844867               -1.04234579                0.05392906                0.18279138                0.12689844
               4.21900184                5.70105942               45.41631879                1.00000000               -0.18423858               -0.37923085                0.93002283               -0.04601359                0.24994426                1.31319201
               5.21715945                5.41458283               45.25307740                0.69187537               -0.13003871               -0.08319770                0.41588060               -0.05210473                0.40717598               -0.37793097
               6.21640107                5.12688093               45.09311320                0.14415597                0.01011854                0.17486233               -0.08361738               -0.21960617                1.49689914               -1.86439893
               7.21736183                4.83635008               44.95141872                0.00010000                0.18275385                0.22490219               -0.61815023               -1.32064445                7.33752965               -1.49538869
               8.22005614                4.52663322               44.90755642                0.00010000                0.31951762                0.46099803               -0.98509688               -2.32202151               11.73137332                0.14407584
               9.22375218                4.21977478               44.85123389                0.00010000                0.45307792                0.40115095               -1.39154355               -2.40597431               10.96618962                1.19712920
              10.22911770                3.91283324               44.79066055                0.00010000                0.53073399                0.30839068               -1.61995646               -2.48514154               10.75180125                2.01757691
              11.23436686                3.60444922               44.72976219                0.00010000                0.42509587                0.16389998               -1.57917451               -2.39413643               10.21521335                2.17833882
              12.23761962                3.29634352               44.65957477                0.04051041                0.20789702                0.30948090               -1.46130896               -1.33715185                8.40441345                0.69883708
              13.23852480                3.00147913               44.56775231                0.31473321                0.31466793               -0.25464688               -0.80496773               -0.33841308                3.48847569                2.81185508
              14.24391298                2.71344187               44.40821098                0.78887223                0.53881798               -0.30754926               -1.00405528                0.16302876                0.09858518                0.81482074
               4.50344064                6.69755293               45.35507085                1.00000000               -0.13105739               -0.31069152                0.71539515               -0.04224883                0.08699561                0.98026706
               5.50213006                6.41431560               45.18196814                0.51858839               -0.08725918                0.01191409                0.19579986               -0.06940333                0.43212101               -0.75875919
               6.50169545                6.12942836               45.01586494                0.06401081                0.01952622                0.32736314               -0.29499622               -0.43882367                3.37428940               -2.38054986
               7.50252059                5.83801177               44.90138954                0.00010000                0.14238872                0.08782306               -0.34683946               -1.52799291               10.52887327                1.26789725
               8.50454323                5.53109286               44.87708039                0.00010000                0.26663309                0.42226783               -0.97132725               -2.31389521               14.51119096                1.06044605
               9.50785325                5.22382544               44.83868577                0.00010000                0.41582045                0.39592788               -1.37984356               -2.39308402               13.72992472                1.73498706
              10.51285964                4.91523214               44.79604088                0.00010000                0.55525923                0.24694302               -1.66161213               -2.51446333               13.34956297                2.41672640
              11.51895844                4.60563487               44.74845283                0.00010000                0.58430406                0.10948552               -1.81381850               -2.36374169               12.65996792                2.74839524
              12.52454572                4.29835935               44.69268045                0.04656638                0.43513015                0.06320188               -1.79152431               -1.61694302               11.31001404                2.97657471
              13.52766104                3.99823209               44.62319504                0.30713199                0.46686689               -0.19865008               -0.98533626               -0.49364889                5.13620426                2.88642922
              14.53388306                3.70850078               44.45133838                0.79180662                0.62220190               -0.31831088               -1.30849908                0.06896070                0.02576824                0.33514522
               4.78463153                7.69484559               45.29105674                1.00000000               -0.07355724               -0.22993374                0.50263110               -0.03435361                0.02437091                0.78732816
               5.78389595                7.41482112               45.10930813                0.43856948               -0.03515542                0.07521995               -0.00547935               -0.04388531                0.31305405               -0.83651105
               6.78392842                7.13342819               44.93335993                0.02866365                0.06207571                0.42858270               -0.50486899               -0.74982429                6.86093225               -2.69201582
               7.78513747                6.83810654               44.88228929                0.00010000                0.20180733                0.16601852               -0.49888442               -1.69921052               14.35857813                1.57071704
               8.78796457                6.53507858               44.85243070                0.00010000                0.33068716                0.39780640               -1.03559728               -2.19615826               15.97290633                1.41181864
               9.79175121                6.22769334               44.82975975                0.00010000                0.45272214                0.39692244               -1.45161098               -2.45974513               16.40594463                2.02554450
              10.79701901                5.91777210               44.80481543                0.00010000                0.61068027                0.28275355               -1.80457883               -2.61057255               16.19568770                2.81152825
              11.80396482                5.60663893               44.77502363                0.00010000                0.78322668                0.11376506               -2.11018502               -2.49922432               15.52744653                3.63503109
              12.81268354                5.29760756               44.73585586                0.05699264                0.72727865               -0.13118779               -2.30225103               -1.66501717               13.67240787                4.24472810
              13.81851039                4.99750613               44.67201000                0.31209794                0.60356331                0.06336758               -1.31891632               -0.46604993                6.11543798                2.34247651
              14.82475481                4.70707565               44.48647525                0.79954427                0.62444171                0.07369826               -1.79451412                0.04043901                0.05958553               -0.51354408
               5.06280251                8.69295425               45.22608864                0.99299595               -0.01327523               -0.14896832                0.29269318               -0.03138722                0.00791747                0.72519118
               6.06266976                8.41581999               45.03635647                0.41980481                0.03055166                0.12070981               -0.20221789               -0.00486979                0.12954652               -0.82532402
               7.06341354                8.13800001               44.84901959                0.01273387                0.21081135                0.44272326               -0.70179719               -0.90226031                9.03741688               -2.71405368
               8.06688599                7.84133214               44.83710663                0.00010000                0.38098603                0.39388117               -0.86065614               -1.82219612               18.20214780               -0.08726626
               9.07103326                7.53904899               44.82778092                0.00010000                0.45394219                0.41191384               -1.19403275               -2.12637224               18.76048583                1.16142076
              10.07596483                7.23176389               44.82160384                0.00010000                0.53346674                0.42133352               -1.58225304               -2.38021488               19.22824860                1.96557214
              11.08170260                6.92088722               44.81642604                0.00010000                0.65868309                0.37006032               -1.99062872               -2.61116974               19.37192889                2.93140536
              12.08913849                6.60791017               44.80862109                0.00010000                0.93377887                0.21516895               -2.49222025               -2.69108407               18.84183370                4.29614793
              13.10037818                6.29573559               44.78965164                0.07229047                0.98667271               -0.12479058               -3.10001250               -1.69307820               15.46006222                5.92422993
              14.10887195                5.99949944               44.71445056                0.31912508                0.75873058                0.30547906               -1.66091811               -0.33723751                6.28676792                1.89033229
              15.11555279                5.70997475               44.51415039                0.80362993                0.66808432                0.44904754               -2.26752528                0.04636223                0.08418452               -1.09908422
               5.33827230                9.69186622               45.16094914                0.97751802                0.04804985               -0.06793968                0.08663167               -0.03116727                0.00789050                0.72841095
               6.33875280                9.41723531               44.96362281                0.45261229                0.10493843                0.16167446               -0.40339605                0.01392331               -0.03978616               -0.78058066
               7.34037107                9.14228265               44.76523993                0.00285325                0.44458888                0.40095942               -0.89422135               -0.98844127               10.76950489               -2.38434121
               8.34764457                8.84598416               44.78366381                0.00010000                0.73171506                0.41171159               -1.09435974               -1.86812250               21.71432697               -0.50009704
               9.35500537                8.54331686               44.79754542                0.00010000                0.73320558                0.35806033               -1.38812913               -1.90481217               21.82487257                0.68560542
              10.36230869                8.23612001               44.81108502                0.00010000                0.68219828                0.44006183               -1.74825265               -2.01521444               22.27025668                1.55004834
              11.36864933                7.92517331               44.82696462                0.00010000                0.64930354                0.52293020               -2.19058659               -2.27811911               22.90855442                2.53379177
              12.37529476                7.61094231               44.84719952                0.00010000                0.92916881                0.47052968               -2.82245276               -2.66162597               23.16882662                4.15975414
              13.38723271                7.29511175               44.86339322                0.09628602                1.11158665                0.16738400               -4.14888055               -1.74040160               16.77855413                8.04641869
              14.39752649                7.00361571               44.75240151                0.32777863                0.87493657                0.49094494               -1.95172616               -0.20801398                5.24593037                1.60590266
              15.40473144                6.71605660               44.53702731                0.80254834                0.72049515                0.70744878               -2.66176771                0.04302538                0.09787147               -1.44266831
               5.61144099               10.69159546               45.09615039                0.95900530                0.10908084                0.01279977               -0.12352332               -0.03155842               -0.01335934                0.65369635
               6.61253179               10.41905348               44.89122599                0.50381825                0.17274408                0.20361011               -0.60500733                0.00639664                0.01560965               -0.63378069
               7.61489587               10.14601920               44.68671646                0.00010000                0.79787688                0.37288402               -1.07981648               -1.11685486               12.45844672               -1.48073153
               8.62848933                9.84956637               44.73016893                0.00010000                1.39526540                0.05678559               -1.29803555               -1.46337701               24.78441194               -0.34265655
               9.64280117                9.54621019               44.76393272                0.00010000                1.26573805                0.20698529               -1.58230360               -1.25842904               24.64249139                0.31562522
              10.65380409                9.24056513               44.79534069                0.00010000                0.92583731                0.42731862               -1.93428288               -1.18449743               25.14770179                0.85292473
              11.66131792                8.93134582               44.83089794                0.00010000                0.60817201                0.67901531               -2.39161493               -1.41333036               26.29461057                1.49814174
              12.66596753                8.61732077               44.87786291                0.00010000                0.57894112                0.89406298               -3.06137491               -1.94095117               28.87855304                2.77350227
              13.67289674                8.29908327               44.95860333                0.13979825                0.88996384                0.82355856               -4.29524210               -1.56961125               18.33206260                5.98670194
              14.68376681                8.00931834               44.78762281                0.34316802                0.93173823                0.61211233               -2.15531771               -0.24010039                2.95368096                1.24904816
              15.69153151                7.72412372               44.55648921                0.78979011                0.77646990                0.86208361               -2.96633441                0.02488657                0.02975952               -1.35655281
               5.88272508               11.69212222               45.02956213                0.99002998                0.17319058                0.05267592               -0.33081478                0.04693909                0.34850193                0.56491616
               6.88445699               11.42130751               44.82107414                0.80167409                0.23980009                0.22540309               -0.80995013                0.07342496                0.74682872               -0.50206458
               7.88752108               11.14974033               44.62032123                0.47974800                1.68645292                0.37211311               -1.27869206               -1.44686050               14.23222529               -0.84052050
               8.91818604               10.84711988               44.68100972                0.36935803                2.56584745               -0.24464959               -1.50572014               -1.14451729               27.24791545               -0.29285582
               9.93883803               10.54745656               44.72827509                0.35954911                1.76485339                0.12463704               -1.79160947               -0.51898913               26.93466580                0.07669007
              10.95348311               10.24466638               44.77264671                0.36925673                1.23945298                0.41012541               -2.13934434               -0.46724566               27.48003682                0.38220379
              11.96362709                9.93875361               44.82194684                0.39780229                0.76275832                0.74077932               -2.58962442               -0.56122397               28.95387180                0.76486845
              12.96873828                9.62882357               44.88788038                0.48234318                0.01079111                1.15028008               -3.25466550               -1.08146026               32.03962712                1.67544466
              13.96384291                9.31158292               44.99030233                0.59556522               -0.05271210                1.24996420               -3.99420921               -1.55366375               20.89623608                3.04167803
              14.96768404                9.01585795               44.81707727                0.68973457                0.58877479                0.65396161               -2.26087787               -0.52250948                3.97631386                1.02415637
              15.97561841                8.73329827               44.57932997                0.89243522                0.79343721                0.91745534               -3.13076278                0.15272192                0.84101167               -1.08286787
               3.18737713                1.79441814               46.66310861                1.00000000               -0.48705986               -0.55351881                1.90183636               -0.11483981               -1.22055829                1.12373298
               4.18250653                1.48982014               46.51489870                1.00000000               -0.41540402               -0.34959122                1.27825190               -0.06363062               -1.67449957                0.19488101
               5.17906905                1.18452203               46.35831996                1.00000000               -0.28887321               -0.15715482                0.64873063               -0.07956786               -1.77002985               -0.20863056
               6.17672906                0.87674292               46.20876749                0.68767324               -0.35937027                0.09257509                0.01663401               -0.60531919               -1.42946586               -0.94565781
               7.17188164                0.55555905               46.05969894                0.74674794               -0.08377315                0.13729799               -0.58501560               -0.20266629               -1.08854440                0.17665706
               8.17505360                0.22631313               45.92092322                0.76419009                0.55432899                0.31830037               -1.14058691               -0.22651787               -0.37444035               -0.02028029
               9.18296822               -0.10210865               45.78961092                0.68573081                1.06805581                0.45438379               -1.60828511               -0.04873280                0.74642354               -0.45358908
              10.19641472               -0.42283879               45.67581212                0.69793460                1.21315165                0.40111039               -1.61011818               -0.04217309                1.46585156               -0.29135193
              11.20723125               -0.72879500               45.55819711                1.00000000                0.75311376                0.21214247               -0.97009969               -0.17856140                0.58121851                0.82319680
              12.21147699               -1.02930925               45.42056978                1.00000000                0.43197712                0.33080117               -1.22805381               -0.04586582               -0.52511968                0.09051600
              13.21587080               -1.32850206               45.28054879                1.00000000                0.43938041                0.44600340               -1.57357403               -0.07480156               -0.62871566               -0.60293964
               3.49082672                2.78888295               46.59845722                1.00000000               -0.40084503               -0.53642315                1.67780897               -0.00854136               -0.29295227                1.49969718
               4.48681827                2.48632423               46.45030831                1.00000000               -0.30073738               -0.32279786                1.05547993                0.03466431               -0.47198628                0.28594056
               5.48481198                2.18295048               46.29910972                1.00000000               -0.08304559               -0.12642937                0.42301129                0.00147917               -0.41891722               -0.38661535
               6.48515736                1.87766867               46.15210814                0.40184440                0.51289499                0.12145226               -0.20001708               -0.72773010                0.82479005               -1.32185721
               7.49506988                1.55693203               46.02545844                0.50832501                0.82324564                0.02452508               -0.91343600               -0.33574781                1.70608440                0.40622149
               8.50162227                1.22949613               45.89714368                0.54646747                0.59934880                0.38921424               -1.52722058               -0.33544344                1.96802332                0.01465037
               9.50705685                0.90243519               45.77603935                0.41522759                0.38569438                0.65929914               -2.01916277               -0.17967777                3.59830873               -1.04350598
              10.50933616                0.58117231               45.67973286                0.38302310                0.08120095                0.74983571               -1.83560148               -0.21503229                4.83063619               -0.53816161
              11.50868087                0.27332642               45.58411997                1.00000000                0.07678501                0.19834686               -0.67796344               -0.34226450                2.48922327                0.94277875
              12.51087186               -0.02600124               45.44676062                1.00000000                0.28173581                0.29883382               -1.00499647               -0.00143278                0.23091248                0.23179604
              13.51431559               -0.32404203               45.30697875                1.00000000                0.34437248                0.41781002               -1.35374620               -0.02179921                0.09246275               -0.66477422
               3.79232374                3.78368967               46.54216391                1.00000000               -0.31914605               -0.50044221                1.45009950               -0.01015550               -0.01827686                1.87158097
               4.78913228                3.48336418               46.38780463                1.00000000               -0.22847772               -0.26043326                0.83626975                0.01120598                0.09553251                0.31407089
               5.78775418                3.18199344               46.23607469                0.80249766               -0.04696822               -0.02876389                0.20871770               -0.06497616                0.35518411               -0.96177541
               6.78819291                2.87917197               46.08673975                0.00010000                1.27925220                0.17409078               -0.41560262               -1.11348333                3.33637294               -1.77370379
               7.81333923                2.55604955               45.99392243                0.00010000                1.73243327                0.09983361               -1.35744674               -2.22627451                4.84758604               -0.67488967
               8.82284158                2.23409741               45.87227490                0.00010000                0.71796281                0.60941300               -1.99822472               -2.13418451                3.40703858                0.27228759
               9.82769848                1.91107733               45.74791228                0.00010000               -0.08093711                1.05133763               -2.58890628               -2.03316383                5.98583727                0.81093615
              10.82122284                1.59215792               45.67546149                0.00010000               -1.00694827                1.19763363               -2.98178611               -1.78956215                9.06990514                0.63873399
              11.80755952                1.27517193               45.61302297                0.29265951               -0.62030261                0.06871317               -0.40328046               -1.08837455                4.86129149                1.47512040
              12.80881678                0.97666742               45.47579427                1.00000000                0.19784310                0.22194992               -0.79117578               -0.07274025                0.71462055                0.65973408
              13.81151638                0.67985414               45.33179329                1.00000000                0.26995963                0.35275191               -1.11620138               -0.03357428                0.33543624               -0.62893670
               4.09127459                4.77887410               46.48570425                1.00000000               -0.25359718               -0.45392197                1.21965101               -0.02639061                0.11335730                1.66519495
               5.08873862                4.48111556               46.32401174                1.00000000               -0.17849624               -0.17987747                0.61979910               -0.01154990                0.23826835                0.09299723
               6.08770467                4.18237521               46.16506478                0.34134909                0.00464824                0.08037171                0.02066199               -0.14691715                1.08202172               -1.44703405
               7.08883159                3.88115049               46.02005174                0.00010000                0.39571373                0.26699032               -0.61209289               -1.27598472                4.90786461               -2.21926386
               8.09561894                3.55892870               45.93712263                0.00010000                0.75396110                0.45474321               -1.25459842               -3.13856801                8.00423716               -0.98837526
               9.10391081                3.24168439               45.85195631                0.00010000                0.63570611                0.69023939               -1.76687546               -3.19712454                8.01063283                0.95432480
              10.10833307                2.92346194               45.76825608                0.00010000                0.27697544                0.94200486               -2.07362246               -3.22707046                8.50308282                2.85478977
              11.10945032                2.60512498               45.69439223                0.00010000               -0.29645920                0.82159146               -1.78471728               -3.28790461               10.23082352                2.30091625
              12.10240388                2.27470068               45.65042413                0.03625822               -0.23577326                0.47354929               -0.41056652               -1.49131303                6.37461239               -0.22867428
              13.10473485                1.97843776               45.51101964                0.36036357                0.24333932                0.00955177               -0.66051587               -0.02556690                0.84088531                1.62955686
              14.10727067                1.68301301               45.35883668                0.82209647                0.25358158               -0.01446531               -0.91744480                0.14795629                0.15650517                0.10920606
               4.38731301                5.77461123               46.42587650                1.00000000               -0.19128298               -0.39437123                0.98536612               -0.05074952                0.25002107                1.29655722
               5.38540018                5.47976663               46.25717357                0.67080658               -0.12660461               -0.07345613                0.40070619               -0.05822016                0.41469413               -0.38064386
               6.38478091                5.18360088               46.09189827                0.13590619                0.03597717                0.20994733               -0.16555385               -0.23441818                1.49736057               -1.84397292
               7.38611972                4.88451177               45.94448913                0.00010000                0.26265262                0.26128823               -0.76824841               -1.37213362                7.40959980               -1.17293300
               8.39003397                4.56514442               45.89684969                0.00010000                0.41230670                0.58828200               -1.17027036               -2.42913325               11.87910105                0.48332873
               9.39436585                4.24790220               45.83632859                0.00010000                0.48412572                0.58758592               -1.60630784               -2.53964805               11.18655661                1.59134152
              10.39971648                3.92991743               45.77363220                0.00010000                0.49300723                0.51594639               -1.80350821               -2.67702195               11.20176493                2.39987128
              11.40422600                3.60858975               45.71371349                0.00010000                0.23520032                0.32411935               -1.64814635               -2.75128290               10.85617008                2.31922715
              12.40442049                3.28464292               45.64572199                0.03063779               -0.21164398                0.78906132               -1.33212952               -1.58744127                9.25102764                0.09075958
              13.39999312                2.97685846               45.56049226                0.28512873                0.04522542               -0.16714007               -0.64661737               -0.42597712                3.93986235                2.62217887
              14.40532500                2.67956483               45.39871668                0.76640864                0.53318763               -0.54650161               -0.92870075                0.28528576                0.09936467                0.47069992
               4.67994880                6.77098668               46.36241764                1.00000000               -0.13642294               -0.31997418                0.75751227               -0.04326844                0.07564221                0.96690253
               5.67858457                6.47964644               46.18380546                0.50155989               -0.08388190                0.02629434                0.17052526               -0.07177356                0.43337003               -0.75995611
               6.67827116                6.18657415               46.01246362                0.05544710                0.06304010                0.36988028               -0.39434168               -0.47392894                3.63282157               -2.37272442
               7.67984537                5.88637625               45.89755348                0.00010000                0.26873449                0.13719391               -0.42653642               -1.50542827               10.73901149                1.56702403
               8.68364585                5.57069434               45.86657506                0.00010000                0.42497317                0.50871003               -1.13997007               -2.31080452               14.53845148                1.35225190
               9.68834484                5.25343611               45.82412616                0.00010000                0.52296102                0.50870902               -1.54675982               -2.43701412               13.96645338                2.05375102
              10.69410507                4.93378087               45.77888057                0.00010000                0.56771652                0.36783825               -1.78599593               -2.61107618               13.73862655                2.66276418
              11.69969917                4.61160737               45.73029804                0.00010000                0.41406380                0.28520894               -1.83540857               -2.54663740               13.21024267                2.74678084
              12.70238635                4.29048191               45.67557657                0.03824396                0.07971136                0.38873972               -1.65829231               -1.86866820               12.23693306                2.68855941
              13.70129340                3.97509495               45.61365533                0.28652189                0.25886409               -0.05421580               -0.94167248               -0.58124410                5.73525331                2.62866974
              14.70756363                3.67208298               45.43798907                0.77568918                0.62702362               -0.46577725               -1.42249845                0.09750661                0.04418366               -0.26974932
               4.96912811                7.76821175               46.29622514                1.00000000               -0.07508827               -0.23602578                0.53407291               -0.03494891                0.01971125                0.77733820
               5.96837723                7.48029252               46.10910034                0.42420616               -0.02777962                0.08932242               -0.03767099               -0.04119692                0.31167292               -0.82631454
               6.96857252                7.19099848               45.92784730                0.02059458                0.17568657                0.47038296               -0.60305360               -0.76993782                7.11661856               -2.67599724
               7.97189096                6.88725565               45.87644624                0.00010000                0.40927498                0.23597529               -0.68219507               -1.66486895               14.65264377                1.57183561
               8.97675802                6.57531862               45.84139256                0.00010000                0.53240438                0.44417710               -1.18340028               -2.17481404               16.09909837                1.62156108
               9.98253905                6.25807638               45.81460175                0.00010000                0.62828367                0.44442447               -1.59131654               -2.46393508               16.65395211                2.27353766
              10.98932370                5.93727419               45.78634423                0.00010000                0.70265783                0.34747168               -1.89767143               -2.62846739               16.54042040                2.99061562
              11.99659221                5.61429393               45.75401501                0.00010000                0.71179230                0.23611355               -2.09876525               -2.50748218               15.97940099                3.59068940
              13.00355954                5.29241771               45.71385297                0.04889863                0.50874810                0.09254998               -2.12446147               -1.77945391               14.65846378                3.80146470
              14.00676717                4.97577414               45.65861857                0.29698219                0.48697690                0.18625443               -1.37405400               -0.54423039                6.85302638                2.07542231
              15.01329908                4.67024929               45.46754630                0.78727595                0.65319098                0.08159959               -2.03352584                0.05892889                0.08603388               -1.08745095
               5.25508828                8.76626616               46.22911202                0.98625523               -0.01143826               -0.15454002                0.31438645               -0.03366693                0.01081434                0.71902690
               6.25497390                8.48143289               46.03414497                0.40692971                0.04104966                0.13664747               -0.24239970               -0.00036562                0.13067275               -0.81677841
               7.25590928                8.19598181               45.84153919                0.00513502                0.36269808                0.48299255               -0.80061677               -0.92025430                9.21199053               -2.69044929
               8.26222786                7.89109576               45.82778323                0.00010000                0.67097855                0.42329102               -1.01002511               -1.84670010               18.51736803               -0.09510232
               9.26932885                7.57957789               45.81518597                0.00010000                0.74413507                0.40858470               -1.33620553               -2.14643428               19.02809990                1.30150370
              10.27711056                7.26232460               45.80520446                0.00010000                0.79946647                0.40686926               -1.70607779               -2.38328214               19.51562214                2.15599635
              11.28531818                6.94073030               45.79607861                0.00010000                0.86477209                0.37352293               -2.07780907               -2.59247547               19.66621949                3.07609097
              12.29440600                6.61632964               45.78366124                0.00010000                0.99994426                0.25300705               -2.47991235               -2.60311644               19.11130380                4.22986732
              13.30531706                6.29233291               45.75994251                0.06286895                0.90856045               -0.00301689               -2.83840862               -1.73453407               16.56722169                5.19348721
              14.31257721                5.97882004               45.69727353                0.30717439                0.72374280                0.39866297               -1.77862782               -0.42949314                7.28113840                1.67891857
              15.31979192                5.67371497               45.49009373                0.79348143                0.72147034                0.51835483               -2.55989623                0.06043870                0.10451970               -1.53947384
               5.53812132                9.76512095               46.16187102                0.97200815                0.05329459               -0.07228981                0.09895345               -0.03228593                0.00727515                0.72087630
               6.53865427                9.48302547               45.95934395                0.44109622                0.11916202                0.18000249               -0.45358872                0.01857192               -0.03803643               -0.77326037
               7.54050456                9.20065834               45.75580747                0.00010000                0.63533079                0.43855384               -0.99692619               -1.03943388               10.92872746               -2.35473293
               8.55136089                8.89572147               45.77212859                0.00010000                1.10479662                0.37756458               -1.22106972               -1.94641185               22.04063603               -0.44533228
               9.56260050                8.58349031               45.78307750                0.00010000                1.11800543                0.28426867               -1.51602562               -1.95227931               22.14913287                0.79081837
              10.57372099                8.26621376               45.79305647                0.00010000                1.04343221                0.36410548               -1.86362653               -2.02371823               22.60053001                1.68792558
              11.58346914                7.94474465               45.80454409                0.00010000                0.96031369                0.46664385               -2.28501681               -2.25798758               23.17609042                2.64036160
              12.59292727                7.61935407               45.81833875                0.00010000                1.14546590                0.47300346               -2.89996035               -2.57579627               23.10829418                4.13333390
              13.60637846                7.29235738               45.82216822                0.08346180                1.19339885                0.21720813               -3.94054374               -1.76355266               18.05233202                7.41855321
              14.61679525                6.98374740               45.73205003                0.31742040                0.91697692                0.56587457               -2.11602729               -0.29311891                6.70452849                1.47730577
              15.62471800                6.68061638               45.50880413                0.79348155                0.79227521                0.79513728               -2.98062938                0.05032271                0.11418799               -1.76118635
               5.81863352               10.76482037               46.09491213                0.95306185                0.11744295                0.01148191               -0.12255170               -0.03253886               -0.01194704                0.64389089
               6.81980795               10.48503294               45.88490047                0.49250387                0.18955361                0.22318810               -0.66263787                0.00869555                0.02168300               -0.62674258
               7.82242459               10.20475289               45.67539263                0.00010000                1.03298475                0.40865889               -1.18944480               -1.23233365               12.61084597               -1.45308378
               8.84046765                9.89864705               45.71663590                0.00010000                1.86831871               -0.06617928               -1.41898546               -1.57109535               25.11419535               -0.30181177
               9.85979097                9.58526326               45.74755636                0.00010000                1.74571064                0.07498814               -1.70397039               -1.30470655               24.99684090                0.37980215
              10.87538186                9.26960671               45.77546686                0.00010000                1.36135745                0.30334865               -2.04559664               -1.18978967               25.50926368                0.93156006
              11.88701812                8.95006318               45.80636925                0.00010000                0.99477478                0.57890609               -2.49861012               -1.37927002               26.57520513                1.55635342
              12.89527735                8.62578971               45.84616504                0.00010000                0.93172805                0.84867121               -3.21356889               -1.85150636               28.70500745                2.74210850
              13.90565268                8.29667707               45.91118217                0.12094110                1.15892357                0.93314705               -4.89294049               -1.47869825               19.75657781                6.03730504
              14.91845583                7.99013753               45.76505252                0.33449796                1.07038626                0.67839847               -2.35554136               -0.31966418                4.64705284                1.21967985
              15.92706040                7.68961772               45.52505347                0.78145115                0.86045772                0.96188643               -3.30932232                0.02815490                0.03090495               -1.54870988
               6.09704540               11.76535059               46.02619880                0.98676769                0.18502554                0.05302206               -0.34064074                0.05505267                0.34014079                0.55591806
               7.09889566               11.48748923               45.81264238                0.79616224                0.25991874                0.24562935               -0.87840362                0.08281711                0.74554400               -0.49637876
               8.10224378               11.20883151               45.60695344                0.47671591                2.02664743                0.40786246               -1.40090155               -1.67264872               14.37359382               -0.81757584
               9.13942861               10.89439789               45.66535916                0.36934011                3.16514654               -0.42491637               -1.63615229               -1.29597570               27.57183589               -0.28614526
              10.16554671               10.58499008               45.70976138                0.35966156                2.28483383               -0.02731844               -1.92339707               -0.53028334               27.29719754                0.09621357
              11.18512528               10.27228074               45.75067843                0.36899941                1.70770138                0.26740299               -2.26052402               -0.45902257               27.87204874                0.40465518
              12.19970074                9.95632277               45.79540735                0.39682588                1.20789807                0.62595963               -2.70422236               -0.52940011               29.26631444                0.76544958
              13.20928325                9.63632750               45.85385356                0.46945625                0.63779673                1.05377838               -3.46553517               -0.86453371               32.11585020                1.58660036
              14.21245667                9.31102032               45.94547837                0.58422016                0.40890362                1.43432441               -4.78990943               -1.27020690               22.35159572                3.37104669
              15.21746132                8.99731537               45.79335314                0.68616098                0.69320303                0.71778359               -2.48458327               -0.65776094                5.53840661                1.04616614
              16.22632073                8.69985411               45.54618292                0.88829449                0.88594140                1.02363971               -3.48640163                0.17990721                0.87339218               -1.20627385
               3.32645709                1.87140799               47.68285251                1.00000000               -0.52414495               -0.59734412                2.05257785               -0.12932030               -1.21923302                1.11460081
               4.32121564                1.55747353               47.52798371                1.00000000               -0.44846125               -0.36298568                1.34029134               -0.07255533               -1.67513801                0.19348115
               5.31748787                1.24277248               47.36475269                1.00000000               -0.32089347               -0.14245288                0.63661424               -0.09282769               -1.77038582               -0.20966274
               6.31479777                0.92510485               47.20853746                0.69388086               -0.47859145                0.15380875               -0.06511651               -0.64039708               -1.38540349               -0.92929087
               7.30791604                0.59310506               47.05362972                0.75420535               -0.28970997                0.23849759               -0.62663524               -0.22729811               -0.99335955                0.14988931
               8.30900357                0.25177426               46.90917406                0.77068936                0.35464712                0.41069410               -1.19838973               -0.26607686               -0.30555228               -0.02209077
               9.31500898               -0.09145809               46.77264695                0.67789754                0.94658930                0.60379395               -1.75812788               -0.13638540                0.94386312               -0.50019981
              10.32793536               -0.42973564               46.65806970                0.64103282                1.37550934                0.60759711               -1.96160524                0.03145337                2.11228181               -0.49832980
              11.34251917               -0.74774452               46.54874352                1.00000000                0.94843556                0.17677804               -0.87477441               -0.36710708                1.28053531                0.86071847
              12.34690407               -1.05568481               46.40820902                1.00000000                0.44708865                0.33167853               -1.22468370               -0.05426221               -0.44816977                0.10238751
              13.35146094               -1.36186953               46.26441484                1.00000000                0.45568693                0.46961880               -1.67404258               -0.09863117               -0.60070795               -0.56752158
               3.63909835                2.86543455               47.61588132                1.00000000               -0.42905052               -0.57788203                1.81265128               -0.00610243               -0.29949113                1.48414443
               4.63480785                2.55384367               47.46108306                1.00000000               -0.31772095               -0.33540620                1.10047568                0.04151661               -0.48502650                0.28554887
               5.63274393                2.24134795               47.30316708                1.00000000               -0.07901669               -0.11016890                0.38625048                0.00711951               -0.43472961               -0.37870707
               6.63322751                1.92664293               47.14952566                0.42670374                0.47822093                0.17786394               -0.32115791               -0.75011824                0.77746186               -1.29716195
               7.64230835                1.59549004               47.01564165                0.53573774                0.76984335                0.10209945               -1.04148052               -0.34800470                1.60089560                0.34146008
               8.64862438                1.25588120               46.88080862                0.57146243                0.60458636                0.47228459               -1.72257422               -0.36020874                1.91410701               -0.00931487
               9.65440008                0.91457985               46.75392537                0.42449505                0.38843669                0.80324073               -2.37891338               -0.27364307                3.92841184               -1.11903773
              10.65639311                0.57634033               46.65855054                0.33495395               -0.12886982                1.09452785               -2.51076515               -0.23460517                6.28724521               -1.21981566
              11.65182268                0.25402326               46.57793745                1.00000000               -0.14845797                0.15863813               -0.56887784               -0.68604218                3.44861449                0.94097508
              12.65342395               -0.05236802               46.43700989                1.00000000                0.24183348                0.28618079               -0.92751476               -0.00708429                0.23707014                0.23215558
              13.65665935               -0.35717334               46.29338442                1.00000000                0.32353977                0.43528814               -1.39324001               -0.04365129                0.08083739               -0.60052612
               3.94951680                3.85985035               47.55719357                1.00000000               -0.33842230               -0.53528474                1.56052525               -0.01041748               -0.02517264                1.84872162
               4.94613257                3.55076540               47.39628754                1.00000000               -0.23429009               -0.26865578                0.86187949                0.01547038                0.07973663                0.31722449
               5.94483100                3.24056910               47.23788892                0.80002108               -0.02396262               -0.00905486                0.14880679               -0.06959737                0.33437224               -0.92921905
               6.94565332                2.92866212               47.08195029                0.00010000                1.34433405                0.23680711               -0.55614702               -1.19321714                3.16301725               -1.73830147
               7.97171768                2.59514705               46.97931564                0.00010000                1.85281299                0.18440474               -1.55255053               -2.35809938                4.55695494               -0.48743324
               8.98270958                2.26121995               46.85077166                0.00010000                0.86796569                0.74770118               -2.28413878               -2.39563741                3.27808170                0.57793578
               9.98907699                1.92460673               46.71978763                0.00010000                0.05451357                1.29301750               -2.98361651               -2.43012360                5.87970924                1.22347284
              10.98379985                1.59215492               46.63964875                0.00010000               -1.57851562                1.68914331               -4.15088537               -2.63858676               11.27586479                0.98220522
              11.95750668                1.25542824               46.60998820                0.26696363               -1.29204338                0.04369824               -0.20534026               -1.73776444                6.57338665                1.26597579
              12.95795899                0.95003881               46.46859418                1.00000000                0.13459375                0.17930960               -0.61385146               -0.10415762                0.63007843                0.61283774
              13.96019855                0.64683623               46.32090088                1.00000000                0.22395676                0.35429200               -1.09827717               -0.05102542                0.28873755               -0.57171047
               4.25705989                4.85472885               47.49830381                1.00000000               -0.26613883               -0.47865876                1.30622723               -0.03126347                0.11021937                1.63773732
               5.25439850                4.54847056               47.33023007                0.99976640               -0.18023133               -0.17945799                0.62142881               -0.01315024                0.23296543                0.09662813
               6.25345526                4.24116685               47.16489184                0.33254129                0.01933590                0.10167615               -0.04875612               -0.14448769                1.05937665               -1.39241502
               7.25478522                3.93137908               47.01316587                0.00010000                0.45666359                0.33637745               -0.78621888               -1.35198214                4.87425742               -2.15221717
               8.26258854                3.59917813               46.92343973                0.00010000                0.82333656                0.58501553               -1.48516147               -3.32314153                8.00487187               -0.53083029
               9.27125195                3.27083523               46.83289410                0.00010000                0.61370530                0.91059068               -2.05223072               -3.53733551                8.15245543                1.56231106
              10.27486264                2.94044020               46.74576522                0.00010000                0.07739578                1.27997235               -2.44343022               -3.70104572                9.09870221                3.63793881
              11.27279987                2.61012320               46.67564745                0.00010000               -0.78395697                1.13865179               -1.98564883               -4.49711859               11.65700372                3.47928214
              12.25918350                2.25489722               46.64715912                0.02286470               -0.64335294                0.87890172               -0.29677677               -2.02751541                7.39918141               -0.93375677
              13.25993281                1.95121817               46.50541485                0.31531080                0.14302451                0.06241050               -0.45093616                0.06918244                0.85258680                1.45789834
              14.26204399                1.64991250               46.35020416                0.78734524                0.21111841               -0.15663775               -0.83207850                0.33207695                0.13024363                0.01229381
               4.56140812                5.85027717               47.43602612                1.00000000               -0.19765520               -0.40932575                1.05186120               -0.05419545                0.24637662                1.27339351
               5.55943157                5.54717624               47.26109152                0.64938657               -0.11877006               -0.06404254                0.37717785               -0.06607861                0.41753185               -0.38104632
               6.55903272                5.24260262               47.08980212                0.12707950                0.05854146                0.24289949               -0.25995353               -0.23189877                1.49142137               -1.80036919
               7.56060240                4.93538967               46.93605375                0.00010000                0.33829874                0.30080293               -0.93044473               -1.36755549                7.49795482               -0.80245318
               8.56579870                4.60684736               46.88415101                0.00010000                0.50491992                0.72084456               -1.37984947               -2.49034285               12.05268948                0.90731495
               9.57070080                4.27943177               46.81910773                0.00010000                0.49847039                0.78960397               -1.85256373               -2.65081622               11.47683472                2.11146874
              10.57576811                3.95020618               46.75459039                0.00010000                0.43498321                0.76675988               -2.03248104               -2.89530830               11.80731396                2.96773434
              11.57940046                3.61492795               46.69679926                0.00010000                0.00466469                0.50728865               -1.78195536               -3.17662384               11.76708332                2.59615158
              12.57586140                3.27300627               46.63293218                0.02173793               -0.75365520                1.45511708               -1.28603216               -1.84486757               10.36705591               -0.50233874
              13.56432736                2.95128702               46.55481996                0.25686276               -0.32049821                0.07305041               -0.49572012               -0.46410002                4.52993950                2.36591971
              14.56945143                2.64370348               46.38963696                0.74447363                0.51240752               -0.78181634               -0.94718017                0.44440907                0.13930952               -0.07877298
               4.86217784                6.84654234               47.37022110                1.00000000               -0.14263593               -0.32896001                0.80638829               -0.04190176                0.06273526                0.95322139
               5.86075148                6.54718971               47.18537865                0.48544565               -0.07869904                0.03895320                0.14434397               -0.07209061                0.42889843               -0.75457376
               6.86060386                6.24602484               47.00797811                0.04675611                0.12189467                0.41150256               -0.50272191               -0.49562032                3.93515669               -2.35037667
               7.86318937                5.93739513               46.89285881                0.00010000                0.40678639                0.19619178               -0.52305584               -1.41935707               10.98310886                1.88023922
               8.86873959                5.61359502               46.85428099                0.00010000                0.58437185                0.60257708               -1.32974960               -2.23877529               14.58560037                1.70850342
               9.87487681                5.28662730               46.80775058                0.00010000                0.63603511                0.63270122               -1.74429541               -2.43209147               14.29490769                2.46995314
              10.88146029                4.95577540               46.76032096                0.00010000                0.57952406                0.50901015               -1.94935161               -2.68561390               14.28911764                3.02068816
              11.88646729                4.62026897               46.71174466                0.00010000                0.22333985                0.50807796               -1.91117422               -2.75661041               14.00739993                2.85309721
              12.88592709                4.28399956               46.65951460                0.03143437               -0.32568438                0.81323202               -1.60438826               -2.11009683               13.37388973                2.48600388
              13.87995360                3.95267918               46.60436159                0.26835815                0.00860837                0.20546798               -0.94176638               -0.60865843                6.42836692                2.31472701
              14.88609925                3.63427617               46.42288841                0.76039847                0.61456490               -0.52407552               -1.65825664                0.11812837                0.08038317               -1.01417503
               5.15927536                7.84369797               47.30173820                1.00000000               -0.07680993               -0.24267148                0.57147128               -0.03551451                0.01579992                0.76801240
               6.15850726                7.54795531               47.10855471                0.41014199               -0.01802344                0.10255536               -0.07321704               -0.03803704                0.31031827               -0.81034767
               7.15891489                7.25083267               46.92129886                0.01245676                0.30689115                0.51030063               -0.71047111               -0.76152787                7.35887040               -2.64019239
               8.16464508                6.93931351               46.86864538                0.00010000                0.64380674                0.31763065               -0.88391554               -1.57682892               14.97960075                1.56690077
               9.17179102                6.61889890               46.82876270                0.00010000                0.76167559                0.48995504               -1.35524284               -2.08966374               16.31201552                1.88084275
              10.17987859                6.29208579               46.79793342                0.00010000                0.83115702                0.49008996               -1.75645226               -2.40023505               17.00234997                2.58861757
              11.18841416                5.96038638               46.76686200                0.00010000                0.80827510                0.42168825               -2.01453823               -2.59431800               17.04883368                3.24074045
              12.19604409                5.62508951               46.73304832                0.00010000                0.64175468                0.39574028               -2.11681224               -2.50410450               16.67636787                3.62262073
              13.20124926                5.28927091               46.69336663                0.04276871                0.29167456                0.36452650               -2.01360997               -1.87549487               15.77831363                3.48294728
              14.20187758                4.95539638               46.64452892                0.28451078                0.36853794                0.34835846               -1.45009878               -0.58295337                7.59965712                1.77940579
              15.20862001                4.63322197               46.44580474                0.77566692                0.67424303                0.18256352               -2.33214583                0.07773470                0.11517845               -1.66464834
               5.45295288                8.84168891               47.23237636                0.97944306               -0.00968407               -0.16071703                0.34044770               -0.03498052                0.01401556                0.71320187
               6.45285604                8.54924081               47.03150848                0.39401281                0.05311105                0.15296499               -0.28663443                0.00451536                0.13408940               -0.80265318
               7.45401510                8.25623085               46.83300725                0.00010000                0.53652648                0.52509383               -0.91084375               -0.91234855                9.39653955               -2.65270778
               8.46358657                7.94374775               46.81690613                0.00010000                1.00794653                0.44556685               -1.17226785               -1.81472724               18.87256182               -0.04980077
               9.47417403                7.62339412               46.80105681                0.00010000                1.08990319                0.39319643               -1.50252199               -2.10247604               19.37323125                1.48217010
              10.48538463                7.29642910               46.78748229                0.00010000                1.11980883                0.37651668               -1.85026463               -2.31054282               19.90783002                2.39590538
              11.49657021                6.96420917               46.77486986                0.00010000                1.10580170                0.36517587               -2.16869350               -2.48853150               20.12084828                3.26286927
              12.50750067                6.62818377               46.75902284                0.00010000                1.07700579                0.30078350               -2.44755159               -2.45633233               19.65023820                4.17306813
              13.51811032                6.29129009               46.73288346                0.05614727                0.84214090                0.14861179               -2.60023429               -1.76093096               17.74000161                4.58313499
              14.52434349                5.95964635               46.67887800                0.29794147                0.69462217                0.49932260               -1.89160001               -0.51295470                8.18098265                1.45292288
              15.53200277                5.63792744               46.46295247                0.78394557                0.76592826                0.63255887               -2.85392026                0.07245905                0.11718989               -1.93299221
               5.74347194                9.84048363               47.16292821                0.96687425                0.05836794               -0.07717035                0.11420562               -0.03327829                0.00641802                0.71362306
               6.74405562                9.55101461               46.95455104                0.42863077                0.13445210                0.19896961               -0.50635874                0.02399145               -0.03217313               -0.76094344
               7.74616098                9.26133455               46.74530141                0.00010000                0.85658240                0.47903544               -1.11008834               -1.07137533               11.11054885               -2.31528349
               8.76118727                8.94822485               46.75924241                0.00010000                1.54495821                0.32759109               -1.36663864               -1.97743904               22.41748846               -0.35641856
               9.77706014                8.62676283               46.76722490                0.00010000                1.58327129                0.18641169               -1.66808529               -1.94378594               22.55030366                0.93400857
              10.79285269                8.29961612               46.77381249                0.00010000                1.49143579                0.25726328               -1.99522549               -1.96405436               23.03373575                1.86593012
              11.80688886                7.96768990               46.78126429                0.00010000                1.34919137                0.37002340               -2.36627115               -2.14786567               23.57288995                2.77802206
              12.81983652                7.63110518               46.78920031                0.00010000                1.38396028                0.42321779               -2.87917392               -2.38463248               23.34762132                4.07678991
              13.83456807                7.29224315               46.78458235                0.07421597                1.25723120                0.26145664               -3.53120745               -1.73459280               19.36204086                6.51054523
              14.84498114                6.96538283               46.71008096                0.31000907                0.94694697                0.63812434               -2.25942500               -0.39384625                7.98077440                1.33409098
              15.85350701                6.64587314               46.47741473                0.78511071                0.85258625                0.89216455               -3.26394473                0.05627917                0.11919868               -2.03796473
               6.03122536               10.84014550               47.09369936                0.94641501                0.12595869                0.00918075               -0.11839825               -0.03409039               -0.01018936                0.63444590
               7.03248495               10.55322020               46.87797323                0.47991590                0.20759964                0.24407558               -0.72450058                0.01118343                0.03234442               -0.61637975
               8.03537736               10.26581156               46.66292756                0.00010000                1.30622794                0.44663310               -1.30942967               -1.34027166               12.79046668               -1.42144792
               9.05860951                9.95029957               46.70178922                0.00010000                2.42648395               -0.21371929               -1.56253407               -1.65308279               25.50118663               -0.24340125
              10.08390704                9.62712236               46.72985331                0.00010000                2.32834850               -0.08960148               -1.85120815               -1.31613193               25.43291466                0.46752316
              11.10517648                9.30157437               46.75442876                0.00010000                1.91084008                0.13601093               -2.17155955               -1.15436485               25.97830242                1.03758582
              12.12212384                8.97160963               46.78092574                0.00010000                1.50391419                0.41482543               -2.57816542               -1.30184227               26.97532184                1.64024816
              13.13525476                8.63664813               46.81359153                0.00010000                1.35084921                0.70366852               -3.23078105               -1.69713312               28.55391441                2.68551737
              14.14914082                8.29651923               46.86074452                0.10674208                1.37909013                0.90841517               -4.82383071               -1.37160606               21.26567873                5.57818636
              15.16283657                7.97240883               46.74051198                0.32934829                1.15034492                0.73986097               -2.53165249               -0.39910144                6.45744898                1.17419442
              16.17214772                7.65577073               46.49030276                0.77407694                0.93111537                1.05203692               -3.59415716                0.03217359                0.01426520               -1.71728861
               6.31664073               11.84066725               47.02274932                0.98326702                0.19724996                0.05217463               -0.34806058                0.06442338                0.33177775                0.54715509
               7.31861323               11.55589612               46.80350607                0.78971239                0.28177283                0.26759156               -0.95159524                0.09282570                0.74616181               -0.48844965
               8.32227618               11.27026721               46.59230320                0.47368684                2.41007958                0.44556497               -1.53373239               -1.90740039               14.54041103               -0.79475923
               9.36681482               10.94395046               46.64828668                0.36929157                3.85932620               -0.63491087               -1.79144953               -1.44428990               27.95247868               -0.27078605
              10.39946271               10.62497080               46.68980715                0.35973787                2.92316503               -0.21515565               -2.08214257               -0.52513883               27.74225090                0.12792976
              11.42527812               10.30233634               46.72743623                0.36878346                2.31577734                0.07619733               -2.39729100               -0.43905598               28.37939807                0.44133741
              12.44577825                9.97598640               46.76786240                0.39581590                1.78530735                0.43767706               -2.79365896               -0.49244793               29.70653378                0.77815459
              13.46098426                9.64517855               46.81856968                0.45811331                1.27984952                0.85304208               -3.50177220               -0.70579744               32.11929485                1.45989971
              14.47137524                9.31041145               46.89450414                0.57565302                0.83816721                1.38922272               -5.01761160               -1.02648299               23.90447064                3.28771435
              15.47774761                8.98018005               46.76738561                0.68454830                0.80257175                0.77712154               -2.69306604               -0.68377428                7.35272046                1.04776634
              16.48742668                8.66691388               46.50960194                0.88484290                0.96790699                1.11431506               -3.78233045                0.20127933                0.88758801               -1.32393976
               3.47273006                1.95065253               48.70416017                1.00000000               -0.56264702               -0.64277556                2.21160617               -0.14581185               -1.20144216                1.09419209
               4.46710359                1.62749106               48.54170452                1.00000000               -0.48112383               -0.37596879                1.40361744               -0.08478748               -1.64929428                0.18842212
               5.46310759                1.30349999               48.37105224                1.00000000               -0.34798178               -0.12598906                0.62097570               -0.10879761               -1.72990162               -0.21245657
               6.46014396                0.97618070               48.20746516                0.69652500               -0.58648695                0.21319030               -0.15409649               -0.63954287               -1.23246910               -0.91472923
               7.45137785                0.63453299               48.04716624                0.75625902               -0.51093155                0.35423219               -0.67650910               -0.23622776               -0.73125979                0.10989756
               8.44992533                0.28260219               47.89695543                0.77376169                0.07859955                0.51100425               -1.25343073               -0.29058703               -0.09989894               -0.02084177
               9.45294984               -0.07466948               47.75444836                0.67401088                0.63192285                0.75832305               -1.87500702               -0.32512864                1.17985026               -0.48086103
              10.46256378               -0.43376705               47.63658001                0.58555469                1.48764048                0.89640017               -2.32190170                0.08556962                3.01610120               -0.67644940
              11.48270265               -0.76996849               47.54070162                1.00000000                1.21392481                0.08697356               -0.70046400               -0.90569435                2.19393809                0.83544671
              12.48684228               -1.08486326               47.39607611                1.00000000                0.43711709                0.31199595               -1.16052621               -0.05875685               -0.40099275                0.14341042
              13.49144499               -1.39779166               47.24706794                1.00000000                0.46027105                0.52530714               -1.86922897               -0.11901189               -0.56959328               -0.52937517
               3.79443342                2.94422478               48.63471024                1.00000000               -0.46014286               -0.62054583                1.95575433               -0.00422663               -0.30046907                1.45455335
               4.78983199                2.62373137               48.47231783                1.00000000               -0.33793127               -0.34646981                1.14657691                0.04716953               -0.48642242                0.28119117
               5.78767479                2.30224010               48.30683473                1.00000000               -0.07999785               -0.09078494                0.34516194                0.01262664               -0.43436814               -0.37354076
               6.78823203                1.97831261               48.14568499                0.44720186                0.40650181                0.22925103               -0.45065257               -0.71411040                0.79136484               -1.27069342
               7.79580483                1.63807531               48.00462883                0.55936652                0.66943313                0.19849081               -1.15664264               -0.31606341                1.56846290                0.27283810
               8.80162069                1.28771223               47.86269220                0.59518444                0.60391733                0.54842268               -1.88557283               -0.35778345                1.83318530                0.00001975
               9.80788317                0.93291375               47.72846108                0.44146042                0.47241460                0.91882088               -2.68198676               -0.45247726                4.00658437               -1.02223611
              10.81106898                0.57519695               47.62951756                0.30025276               -0.43446835                1.42360824               -3.28185498               -0.40183610                8.03529042               -1.84293782
              11.79919381                0.23090124               47.57274242                0.85463079               -0.54513453                0.06191369               -0.57130311               -1.47805340                4.95589936                1.00592836
              12.80016629               -0.08174330               47.42821032                1.00000000                0.19947338                0.26912365               -0.83616830                0.01117838                0.27715609                0.29118896
              13.80318327               -0.39253859               47.27911395                1.00000000                0.30169796                0.46959248               -1.50103555               -0.01789156                0.05763757               -0.54200958
               4.11363234                3.93824162               48.57337442                1.00000000               -0.36006806               -0.57142370                1.67897277               -0.00834295               -0.02800843                1.81119357
               5.11003166                3.62056167               48.40504222                1.00000000               -0.24267246               -0.27436115                0.88818523                0.02102937                0.06579373                0.31148693
               6.10877889                3.30168430               48.23905082                0.80244888               -0.00025582                0.01868004                0.08117347               -0.07571670                0.31498697               -0.88926734
               7.11002654                2.98076572               48.07561681                0.00010000                1.34390324                0.28450356               -0.72023378               -1.18223331                3.01840114               -1.70210981
               8.13565695                2.63850281               47.96287141                0.00010000                1.89523411                0.27007065               -1.71875339               -2.35058780                4.23438784               -0.27870258
               9.14793122                2.29357064               47.82659212                0.00010000                1.03793117                0.84411542               -2.52126015               -2.58910699                3.03133353                0.98690251
              10.15641558                1.94370694               47.68823995                0.00010000                0.43041723                1.42521053               -3.29973227               -2.95974704                5.23659184                1.90967820
              11.15653957                1.59470511               47.59244378                0.00010000               -2.31668754                2.11815839               -4.85028397               -4.11548223               13.43313719                2.00117116
              12.11008183                1.23126978               47.60891616                0.23967523               -2.30169446                0.10901606               -0.11552104               -2.63797955                9.07826437                1.09046221
              13.11050568                0.92051922               47.46351724                1.00000000                0.12979575                0.15566186               -0.42912750               -0.05471695                0.60320867                0.59336713
              14.11267774                0.61160019               47.30982775                1.00000000                0.21720627                0.35306922               -1.13030077               -0.03622023                0.18868387               -0.51437163
               4.42962646                4.93279630               48.51182879                1.00000000               -0.28165631               -0.50398996                1.39934611               -0.03134538                0.10326226                1.60165126
               5.42680989                4.61824415               48.33644032                0.96168383               -0.18350295               -0.17822685                0.62756735               -0.01197242                0.23942595                0.08566726
               6.42595640                4.30261371               48.16408965                0.32236665                0.04794787                0.14114683               -0.11332725               -0.16866279                1.03293895               -1.34881382
               7.42776885                3.98400268               48.00432736                0.00010000                0.50158758                0.40020267               -0.98113740               -1.37167957                4.85077604               -2.06895194
               8.43598815                3.64347673               47.90741940                0.00010000                0.84327864                0.69733256               -1.71104421               -3.35156543                8.01617789               -0.01314590
               9.44463442                3.30459454               47.81091169                0.00010000                0.57828064                1.08522284               -2.34066729               -3.82634069                8.24831245                2.31264098
              10.44755376                2.96141796               47.71938748                0.00010000               -0.17189652                1.55047205               -2.82174872               -4.26393853                9.75875049                4.69991371
              11.44119649                2.61756012               47.65467925                0.00010000               -1.34668267                1.48552285               -2.30097039               -6.18250449               13.44064171                5.30516751
              12.42062011                2.23308157               47.64448859                0.01044570               -1.12274744                1.54854378               -0.38733402               -2.62655461                8.87149664               -1.60148614
              13.41874155                1.92136994               47.50200092                0.27238425               -0.01615944                0.23554447               -0.22104366                0.24113419                1.06275901                1.21945932
              14.42029692                1.61452280               47.34219511                0.75402888                0.15553755               -0.31475333               -0.77632895                0.60525757                0.14083579               -0.18477007
               4.74210973                5.92816182               48.44691373                1.00000000               -0.21349281               -0.42286395                1.12609817               -0.05337171                0.22891382                1.24149260
               5.73997481                5.61699713               48.26471713                0.62836353               -0.12313139               -0.05761902                0.35550161               -0.05294744                0.42467022               -0.38147385
               6.73964711                5.30450723               48.08669920                0.11774557                0.08775604                0.27280889               -0.37022444               -0.23448057                1.50654506               -1.77680077
               7.74172993                4.98876978               47.92588023                0.00010000                0.41933369                0.36933660               -1.11287043               -1.33109760                7.61827152               -0.37207581
               8.74803378                4.65244946               47.86925270                0.00010000                0.58666243                0.83880012               -1.60197099               -2.45083677               12.25157709                1.41058058
               9.75346318                4.31527510               47.79927732                0.00010000                0.50687243                0.97074691               -2.11826434               -2.70822433               11.81379751                2.76923824
              10.75817123                3.97471638               47.73298258                0.00010000                0.38813480                1.02525305               -2.31363761               -3.12599762               12.54615177                3.76434426
              11.76122587                3.62441557               47.67807438                0.00010000               -0.22151601                0.74300686               -2.02576538               -3.65093464               12.93345195                3.07952448
              12.75374091                3.26224066               47.62000135                0.01396749               -1.36693716                2.33429860               -1.41905766               -2.12791789               11.85703330               -0.95429083
              13.73388713                2.92523011               47.55057786                0.23261985               -0.76318651                0.51552944               -0.38891379               -0.45950737                5.38250852                2.05425015
              14.73847718                2.60530513               47.37977308                0.72478225                0.45900500               -0.94455472               -1.08441043                0.59853923                0.21540093               -0.84282896
               5.05088840                6.92433902               48.37854540                1.00000000               -0.14828701               -0.33725439                0.86132345               -0.03965796                0.05394213                0.93290780
               6.04940553                6.61709177               48.18669234                0.46951169               -0.06971303                0.04793054                0.11642265               -0.06105061                0.42595853               -0.73948694
               7.04949414                6.30806988               48.00240918                0.03800717                0.18995717                0.43291292               -0.61005156               -0.48451044                4.27204404               -2.31232979
               8.05320467                5.99138941               47.88709237                0.00010000                0.54859761                0.28882843               -0.64119500               -1.27639698               11.24763931                2.20948579
               9.06046609                5.66025273               47.83998007                0.00010000                0.74991734                0.68550948               -1.53986210               -2.08517089               14.64769884                2.12465204
              10.06820302                5.32400948               47.78924025                0.00010000                0.77136248                0.74209617               -1.97012466               -2.36530662               14.70629591                2.98440656
              11.07589334                4.98192302               47.73989354                0.00010000                0.62252504                0.64118614               -2.15901232               -2.72874922               14.98525798                3.51545068
              12.08065352                4.63242025               47.69207455                0.00010000                0.06769366                0.75262992               -2.06671773               -2.98832131               15.03949154                3.12869281
              13.07724721                4.27976754               47.64348880                0.02601596               -0.70832953                1.32335702               -1.66224847               -2.34177092               14.77016589                2.43932449
              14.06648693                3.93168053               47.59482000                0.25355785               -0.25647727                0.58078713               -0.99203004               -0.58503777                7.27663908                1.96121389
              15.07211767                3.59563170               47.40482393                0.74642148                0.56307386               -0.42064344               -1.97552127                0.12380939                0.13063029               -1.78077500
               5.35581108                7.92141673               48.30765457                1.00000000               -0.07881475               -0.24994182                0.61321988               -0.03530061                0.01182643                0.75767108
               6.35502294                7.61795574               48.10763600                0.39651466               -0.00759116                0.11458647               -0.11145012               -0.03159844                0.31090810               -0.78953900
               7.35565926                7.31316549               47.91363788                0.00426760                0.44981028                0.54276147               -0.82476599               -0.72305605                7.59165887               -2.58387928
               8.36401914                6.99454635               47.85876793                0.00010000                0.90255165                0.40566547               -1.09479772               -1.42904880               15.33567827                1.55365278
               9.37371029                6.66615965               47.81428771                0.00010000                1.02338054                0.52531765               -1.55190449               -1.93390480               16.60535317                2.17864556
              10.38448675                6.33011702               47.77947271                0.00010000                1.07375881                0.51770816               -1.94986566               -2.26842273               17.44735600                2.96416463
              11.39518547                5.98754010               47.74605346                0.00010000                0.95640886                0.48311870               -2.16628372               -2.51738052               17.71411083                3.57357128
              12.40361493                5.63946817               47.71167876                0.00010000                0.62298726                0.56093801               -2.18694130               -2.50443295               17.60149217                3.77077622
              13.40764521                5.28870780               47.67358077                0.03870161                0.13536388                0.65061777               -1.98844222               -1.98038000               17.06422881                3.32576083
              14.40632221                4.93684585               47.62961659                0.27494959                0.27029027                0.53229652               -1.52994270               -0.60873064                8.39530099                1.49603105
              15.41305102                4.59689226               47.42090339                0.76480936                0.67288130                0.39067167               -2.62739264                0.09809598                0.14077404               -2.11740015
               5.65710437                8.91934019               48.23592097                0.97241084               -0.00795682               -0.16731544                0.37006126               -0.03602145                0.01741122                0.70763733
               6.65702480                8.61938350               48.02841229                0.38144861                0.06690226                0.16930541               -0.33404613                0.00998020                0.14008306               -0.78281585
               7.65844241                8.31892511               47.82332231                0.00010000                0.73023702                0.56334315               -1.02772078               -0.87579354                9.59315842               -2.59714637
               8.67162954                7.99950272               47.80433787                0.00010000                1.38874523                0.45818346               -1.34976256               -1.71990075               19.26380662                0.03946116
               9.68621732                7.67075908               47.78513553                0.00010000                1.49122875                0.36071691               -1.69475445               -1.99064376               19.78764830                1.69129956
              10.70145411                7.33436364               47.76819917                0.00010000                1.49886345                0.32344339               -2.02013329               -2.16520559               20.40319882                2.67294841
              11.71619459                6.99158539               47.75270474                0.00010000                1.39715246                0.33545569               -2.27534288               -2.31854909               20.73712312                3.49205725
              12.72939716                6.64363901               47.73471021                0.00010000                1.20336731                0.34265060               -2.42973501               -2.29293990               20.43559385                4.17826244
              13.74026193                6.29277989               47.70793782                0.05229120                0.83653477                0.29997123               -2.42635485               -1.81095698               18.98498767                4.18316064
              14.74612786                5.94232646               47.65944153                0.29156432                0.68624212                0.59746964               -1.97495614               -0.60393027                9.01191022                1.24617819
              15.75398677                5.60344514               47.43301533                0.77485942                0.78589156                0.78072703               -3.08706019                0.08103885                0.11949704               -2.19412644
               5.95500403                9.91807042               48.16415513                0.96136188                0.06335849               -0.08260045                0.13294679               -0.03397653                0.00582241                0.70718093
               6.95563761                9.62134185               47.94921678                0.41603888                0.15100703                0.21834059               -0.56214298                0.02818826               -0.02283939               -0.74351171
               7.95802417                9.32443235               47.73360570                0.00010000                1.10747705                0.51985138               -1.23186570               -1.08281529               11.31336870               -2.26337467
               8.97778716                9.00371001               47.74479582                0.00010000                2.05061615                0.26160205               -1.53434465               -1.95611354               22.83659203               -0.24301483
               9.99903649                8.67337399               47.74971579                0.00010000                2.12845858                0.06361979               -1.84850806               -1.87658603               23.01775830                1.10316519
              11.02035633                8.33658589               47.75315196                0.00010000                2.02513105                0.11855220               -2.14951710               -1.83517050               23.56435008                2.06948996
              12.03953911                7.99424921               47.75721867                0.00010000                1.81026528                0.23423186               -2.44343570               -1.95487559               24.12090233                2.93970312
              13.05656163                7.64632118               47.76075527                0.00010000                1.65997568                0.32458413               -2.78370965               -2.12011471               23.89451762                4.02663911
              14.07273863                7.29470722               47.75154407                0.06880993                1.35083617                0.27695570               -3.08798122               -1.68710328               20.66037176                5.70312329
              15.08357836                6.94879524               47.68686153                0.30579183                0.98479078                0.69951581               -2.35075030               -0.51408606                9.02846297                1.19772042
              16.09243444                6.61250680               47.44352524                0.77729644                0.88560873                0.98197991               -3.45168888                0.06002365                0.11088735               -2.21390457
               6.24988198               10.91768818               48.09254417                0.93958450                0.13446481                0.00616717               -0.11077084               -0.03561561               -0.00780151                0.62544634
               7.25122663               10.62375031               47.87041046                0.46618353                0.22679788                0.26563557               -0.78974665                0.01306823                0.04701736               -0.60324380
               8.25441794               10.32932214               47.64920404                0.00010000                1.61695027                0.48763562               -1.43824158               -1.43841651               12.99375340               -1.38406799
               9.28356564               10.00473476               47.68538522                0.00010000                3.06958899               -0.38613832               -1.73118842               -1.70517951               25.93366895               -0.17214088
              10.31580972                9.67203148               47.71053220                0.00010000                3.01549210               -0.28665004               -2.02863704               -1.28971935               25.93562375                0.57078295
              11.34387548                9.33673469               47.73203567                0.00010000                2.57760331               -0.07466684               -2.31873041               -1.07298866               26.54343673                1.15999239
              12.36736179                8.99627003               47.75480594                0.00010000                2.13306913                0.18816674               -2.63870968               -1.17225698               27.50862841                1.74060472
              13.38653686                8.65013070               47.78154942                0.00010000                1.83420093                0.46240078               -3.11226791               -1.47426311               28.67021224                2.63504563
              14.40404580                8.29831901               47.81470555                0.09801917                1.57548517                0.72740677               -4.16280223               -1.24111978               22.69526788                4.94489604
              15.41804656                7.95631678               47.71441947                0.32798277                1.18591670                0.78640964               -2.64676646               -0.46973461                8.01016246                1.11814426
              16.42776414                7.62308474               47.45317032                0.76765310                0.97175748                1.11350874               -3.75758694                0.03706563               -0.01720319               -1.82225348
               6.54216745               11.91819376               48.01923758                0.97909091                0.20975660                0.05055849               -0.35243955                0.07462649                0.32273567                0.53852209
               7.54426502               11.62665456               47.79361048                0.78254683                0.30519703                0.29042473               -1.02870124                0.10340391                0.74976858               -0.47977330
               8.54827139               11.33418507               47.57627879                0.47066608                2.83546047                0.48629267               -1.67566333               -2.14802027               14.72911678               -0.76893330
               9.60097423               10.99598725               47.62953016                0.36924038                4.64853934               -0.87475110               -1.97214220               -1.58634486               28.37665273               -0.24693809
              10.64124218               10.66764099               47.66811853                0.35981515                3.68418865               -0.43904919               -2.26976699               -0.50148868               28.25387286                0.17036051
              11.67465800               10.33509255               47.70273261                0.36852394                3.07278919               -0.16421313               -2.55257511               -0.40316961               28.98256351                0.49016275
              12.70269796                9.99801255               47.73953417                0.39481610                2.51846978                0.17425168               -2.86093335               -0.44255018               30.28518539                0.80594886
              13.72502740                9.65556920               47.78381811                0.44857627                1.95160946                0.54384985               -3.37151048               -0.58880594               32.27867212                1.36012040
              14.74173015                9.30925536               47.84512613                0.57039032                1.21952695                1.09363519               -4.51293164               -0.78385319               25.38874632                2.94047687
              15.74941794                8.96452344               47.73949182                0.68513963                0.89548434                0.82066584               -2.84830798               -0.58678217                9.00881332                1.02382030
              16.75963984                8.63477697               47.47053631                0.88204349                1.02219043                1.16922366               -3.95637914                0.21292376                0.87707542               -1.40579554
               3.62733955                2.03219169               49.72708463                1.00000000               -0.60018592               -0.68803212                2.37181069               -0.16420698               -1.16570200                1.06205810
               4.62133769                1.70001537               49.55605606                1.00000000               -0.51051742               -0.38855702                1.46425173               -0.09994388               -1.59406150                0.18080058
               5.61712920                1.36695837               49.37717220                1.00000000               -0.36516466               -0.10798160                0.59853468               -0.12621657               -1.64498158               -0.21509349
               6.61403439                1.03037061               49.20545553                0.69578376               -0.66643119                0.27068020               -0.25630023               -0.60639581               -0.97104777               -0.90059446
               7.60380057                0.68037783               49.04009954                0.75120307               -0.71554584                0.48637965               -0.76330465               -0.23735392               -0.28854123                0.05951867
               8.59972348                0.31988389               48.88410544                0.76737113               -0.24095848                0.63610161               -1.35630329               -0.30069324                0.30542161               -0.03119731
               9.59898140               -0.04910075               48.73514681                0.66223176                0.11403222                0.94442986               -2.02208157               -0.57868059                1.57621625               -0.41559069
              10.60200412               -0.42913972               48.61163167                0.53609642                1.39602130                1.27575280               -2.66728409               -0.21947484                4.34837929               -0.65210672
              11.62690183               -0.79511718               48.53473424                0.74116646                1.52568909                0.10444632               -0.96364695               -1.86265773                2.88710335                0.95301919
              12.63251790               -1.11708503               48.38499849                1.00000000                0.55917976                0.30996552               -1.28766679               -0.06382945               -0.38729301                0.13290284
              13.63808543               -1.43654906               48.22703026                1.00000000                0.55675224                0.57757108               -2.11714667               -0.15445996               -0.67015805               -0.43358149
               3.95787380                3.02531137               49.65499641                1.00000000               -0.49188930               -0.66180100                2.10059253               -0.00408383               -0.29387236                1.41128176
               4.95295491                2.69612980               49.48401460                1.00000000               -0.35921962               -0.35713590                1.19096354                0.05007708               -0.47294748                0.27269005
               5.95068941                2.36587855               49.31007032                1.00000000               -0.08471007               -0.07147703                0.29923448                0.01872829               -0.41187613               -0.36928949
               6.95126071                2.03307741               49.14051261                0.46329274                0.29904937                0.28034711               -0.58850752               -0.62352857                0.88599434               -1.24565032
               7.95667040                1.68524162               48.99250879                0.57412482                0.50975639                0.32023034               -1.27464577               -0.26014791                1.66503009                0.19767595
               8.96145583                1.32624490               48.84309716                0.60718575                0.55180040                0.64273091               -2.04127942               -0.33269167                1.80722592                0.02334000
               9.96770640                0.96034354               48.70028563                0.44675454                0.56808756                1.04873252               -2.95607253               -0.68256678                3.87029677               -0.77860316
              10.97281759                0.58361780               48.59291344                0.26955197               -0.77292501                1.80781856               -3.99470313               -1.23170019                9.74039952               -1.72623483
              11.95224790                0.20592728               48.56651139                0.56390285               -1.01110199                0.03042431               -1.19321931               -2.82532476                7.23401244                1.57165028
              12.95259555               -0.11398537               48.42028652                1.00000000                0.18784760                0.26002906               -0.80190398               -0.00534774                0.52315941                0.34743573
              13.95600486               -0.43077335               48.26336371                1.00000000                0.34093098                0.50083471               -1.64745870               -0.01550813                0.02980385               -0.45274794
               4.28562102                4.01895567               49.59077303                1.00000000               -0.38489737               -0.60443996                1.80060064               -0.00688857               -0.02868231                1.75613062
               5.28177204                3.69287265               49.41405125                1.00000000               -0.25324361               -0.28103997                0.91344243                0.02722041                0.05576223                0.30294680
               6.28055615                3.36552883               49.23951239                0.81021190                0.02143542                0.03318236                0.01230955               -0.06787499                0.29619601               -0.83789668
               7.28220075                3.03597755               49.06754561                0.00010000                1.24369895                0.33296024               -0.89376493               -1.07680516                2.92730170               -1.65194389
               8.30543012                2.68678243               48.94494057                0.00010000                1.78834848                0.36461529               -1.85042500               -2.17908417                3.96177919               -0.07893786
               9.31796772                2.33273851               48.80034646                0.00010000                1.12635219                0.90789718               -2.71191320               -2.60571268                2.73442739                1.44655916
              10.32795717                1.97187390               48.65379299                0.00010000                0.69093286                1.46761502               -3.58689512               -3.35790838                4.50171427                2.84265121
              11.33178638                1.60701665               48.54264307                0.00010000               -2.99793292                2.34890710               -5.02956249               -6.13442961               15.25115222                3.95150929
              12.26799851                1.20549131               48.60767778                0.20905315               -3.13374015                0.29275141               -0.13445669               -4.09286139               12.06183614                1.33765429
              13.26911158                0.88811556               48.46001163                1.00000000                0.16763510                0.12660513               -0.30515352               -0.05688689                0.81550072                0.59398925
              14.27135121                0.57346764               48.29829486                1.00000000                0.22396357                0.35225552               -1.15667855               -0.04141814                0.10700190               -0.42918256
               4.60990208                5.01322257               49.52629073                1.00000000               -0.29759183               -0.52826279                1.49522946               -0.03342856                0.10748398                1.55329443
               5.60692616                4.69050900               49.34278142                0.93145764               -0.18375366               -0.17889480                0.63617022               -0.01564542                0.25858214                0.06839580
               6.60622700                4.36654220               49.16262530                0.31125104                0.07724207                0.16091253               -0.19127863               -0.16640017                0.99617033               -1.31085228
               7.60847100                4.03973662               48.99354313                0.00010000                0.50503786                0.46027987               -1.16613759               -1.28973475                4.82903022               -1.94214218
               8.61632776                3.69253393               48.88921884                0.00010000                0.78895594                0.78579301               -1.91644793               -3.16653715                8.04937209                0.51936175
               9.62425012                3.34440285               48.78608076                0.00010000                0.49711674                1.18747352               -2.60738924               -3.87794680                8.31501949                3.14220031
              10.62627010                2.98969585               48.68933024                0.00010000               -0.38692668                1.65565511               -3.16615895               -4.69349960               10.37771900                6.03938178
              11.61651158                2.63059595               48.62962804                0.00010000               -1.84891633                1.60532464               -2.72612940               -7.93245920               15.49403287                7.54249686
              12.58929177                2.21178231               48.63941244                0.00010000               -1.65150542                2.47144712               -1.02071944               -3.47745687               11.03627773               -1.76408888
              13.58348148                1.88854673               48.50099398                0.23592623               -0.24097205                0.57186892               -0.00323808                0.37918412                1.60717370                0.86374815
              14.58447233                1.57627177               48.33467758                0.72573191                0.09908514               -0.46247846               -0.69662916                0.97339366                0.16276164               -0.52712657
               4.93037960                6.00839042               49.45854808                1.00000000               -0.22400905               -0.43814582                1.20095870               -0.05652948                0.21344804                1.20379409
               5.92813951                5.68929475               49.26820155                0.60381719               -0.11895378               -0.05139500                0.34128452               -0.05813110                0.42985216               -0.38964789
               6.92800052                5.36874708               49.08239764                0.10741901                0.11374122                0.31486832               -0.48146069               -0.23469472                1.53581380               -1.76877811
               7.93041433                5.04518315               48.91379635                0.00010000                0.47163160                0.44802662               -1.30250547               -1.20742579                7.77536033                0.13144650
               8.93743315                4.70249829               48.85211160                0.00010000                0.64162703                0.92595632               -1.82101480               -2.27386255               12.48595849                1.95254018
               9.94324687                4.35648798               48.77674244                0.00010000                0.52304629                1.08585992               -2.38145459               -2.63360754               12.17824280                3.52836691
              10.94789408                4.00498700               48.70831764                0.00010000                0.39019296                1.16588429               -2.61811295               -3.26518930               13.35925560                4.76395805
              11.95105073                3.63912314               48.65628396                0.00010000               -0.36977453                0.93212490               -2.37831763               -4.14582377               14.24640273                3.89936557
              12.94049859                3.25492025               48.60455103                0.00701055               -1.94224624                3.37121611               -1.75982769               -2.51385111               13.75705271               -0.98289292
              13.91220580                2.89955293               48.54704168                0.21247365               -1.25647842                1.21589941               -0.41175184               -0.50162007                6.60614318                1.68346636
              14.91536902                2.56421807               48.36794876                0.70675316                0.31632142               -0.93707031               -1.30489533                0.67809680                0.30291696               -1.77803133
               5.24696281                7.00445965               49.38744757                1.00000000               -0.15559422               -0.34572935                0.92033955               -0.03938456                0.04524766                0.90812197
               6.24540687                6.68948110               49.18770710                0.45218273               -0.06590519                0.05749140                0.08642025               -0.05087412                0.42870911               -0.72228202
               7.24564471                6.37283957               48.99577708                0.02874864                0.25821992                0.47474383               -0.72598504               -0.45841672                4.64576412               -2.26139966
               8.25057127                6.04869715               48.88003491                0.00010000                0.69504871                0.39789552               -0.78213896               -1.07460136               11.54129471                2.56025909
               9.25954568                5.71105306               48.82348374                0.00010000                0.92589964                0.74090322               -1.76465350               -1.84084741               14.73423436                2.57235533
              10.26908926                5.36612005               48.76834808                0.00010000                0.93927309                0.79610935               -2.21228060               -2.21132195               15.18910590                3.56422819
              11.27833115                5.01301353               48.71714071                0.00010000                0.72862987                0.70298044               -2.40399839               -2.71426775               15.78880323                4.13837690
              12.28366186                4.64923844               48.67041031                0.00010000                0.01269039                0.93731188               -2.29346383               -3.21555001               16.25320708                3.61699137
              13.27858495                4.27920663               48.62626963                0.02180584               -0.97553029                1.82084323               -1.82937452               -2.61381552               16.43060959                2.64636836
              14.26415125                3.91286472               48.58452099                0.24147909               -0.49404798                1.05712694               -1.10581824               -0.57105458                8.31032496                1.62632260
              15.26870399                3.55753036               48.38337798                0.73300073                0.45527393               -0.07677500               -2.30744478                0.14120826                0.21643327               -2.41038510
               5.55954902                8.00147583               49.31400260                1.00000000               -0.08069113               -0.25592831                0.65567193               -0.03534192                0.00906022                0.74514893
               6.55874211                7.69044458               49.10632571                0.38247003                0.00335553                0.12613096               -0.15048216               -0.01921937                0.31483407               -0.76305837
               7.55961613                7.37824196               48.90480354                0.00010000                0.59833525                0.57402649               -0.94500828               -0.64977718                7.81962738               -2.51503353
               8.57070881                7.05314106               48.84674943                0.00010000                1.17885886                0.49059679               -1.31276999               -1.22236893               15.71955844                1.52724035
               9.58319331                6.71731636               48.79772461                0.00010000                1.31755707                0.53694847               -1.77058393               -1.71054396               16.97262692                2.49408591
              10.59705996                6.37241016               48.75893611                0.00010000                1.36485081                0.50443872               -2.16918759               -2.07398064               17.97960504                3.37412185
              11.61049032                6.01904661               48.72353632                0.00010000                1.17433357                0.49357846               -2.35387999               -2.40351512               18.51161878                3.97662270
              12.62054663                5.65786938               48.68930950                0.00010000                0.70528384                0.67170346               -2.31482125               -2.51959476               18.71153213                4.04720483
              13.62459600                5.29133711               48.65359779                0.03638033                0.09571802                0.88916883               -2.04990187               -2.13400497               18.51711084                3.34704573
              14.62246099                4.92069547               48.61393007                0.26767082                0.21329526                0.72301236               -1.60494061               -0.66508089                9.26120935                1.28139064
              15.62886191                4.56268257               48.39325689                0.75412964                0.64009190                0.69463510               -2.85598848                0.12576511                0.17089225               -2.33851785
               5.86831847                8.99934109               49.23977759                0.96541196               -0.00621164               -0.17358863                0.40223529               -0.03793333                0.02072136                0.70178760
               6.86825636                8.69200372               49.02482755                0.36820600                0.08171062                0.18508106               -0.38363655                0.01925798                0.15115196               -0.75700138
               7.86995268                8.38432010               48.81245284                0.00010000                0.93965669                0.59716877               -1.15175244               -0.81307215                9.80172391               -2.52758391
               8.88704949                8.05850909               48.78991088                0.00010000                1.80565089                0.45880701               -1.54332801               -1.57139347               19.68170684                0.15554541
               9.90606570                7.72179202               48.76716172                0.00010000                1.94149556                0.30565512               -1.91251566               -1.82172034               20.26196691                1.90858651
              10.92587940                7.37620882               48.74707962                0.00010000                1.93679632                0.23796294               -2.21843745               -1.96650320               20.99336453                2.96349978
              11.94480163                7.02288510               48.72936300                0.00010000                1.75500296                0.26680731               -2.40938326               -2.11615185               21.49900517                3.75362744
              12.96097946                6.66267251               48.71042814                0.00010000                1.41385654                0.34646853               -2.45036107               -2.15201204               21.42046064                4.27787808
              13.97307876                6.29699001               48.68435637                0.05101386                0.92623604                0.41003853               -2.32689419               -1.91371544               20.29988987                4.01821364
              14.97950418                5.92732497               48.63937888                0.28758952                0.70831718                0.68319089               -2.01337314               -0.72293524                9.80034632                1.09561289
              15.98724510                5.57142306               48.40121127                0.76587886                0.77409226                0.93787448               -3.20997961                0.08658137                0.11820216               -2.26443455
               6.17346510                9.99800406               49.16558715                0.95551153                0.06831605               -0.08845546                0.15535645               -0.03487171                0.00525600                0.70198176
               7.17414826                9.69414620               48.94330818                0.40306522                0.16921091                0.23789578               -0.62105745                0.03451723               -0.00811361               -0.72137910
               8.17684932                9.39018533               48.72066409                0.00010000                1.38303789                0.55685116               -1.36027031               -1.07520093               11.53345000               -2.20109517
               9.20180902                9.06231720               48.72855552                0.00010000                2.61049250                0.18066579               -1.72471410               -1.89253155               23.28433145               -0.11828684
              10.22905917                8.72342946               48.73025474                0.00010000                2.74138997               -0.08283717               -2.05867219               -1.76222093               23.53927266                1.27941039
              11.25663682                8.37716942               48.73082215                0.00010000                2.63222135               -0.05076273               -2.33141758               -1.65773169               24.18453304                2.27676825
              12.28170359                8.02438275               48.73239557                0.00010000                2.33823300                0.06105652               -2.53057935               -1.71948265               24.82954103                3.11445813
              13.30340148                7.66479875               48.73352612                0.00010000                1.99828223                0.18068452               -2.66547784               -1.85324668               24.71400004                4.03511227
              14.32166924                7.29953788               48.72282273                0.06726472                1.50838775                0.24225350               -2.68367859               -1.66710443               21.92181670                5.24540381
              15.33356923                6.93435929               48.66306596                0.30449455                1.03640537                0.74082336               -2.36907412               -0.65134806                9.85977743                1.09130475
              16.34239735                6.58144006               48.40838095                0.76979742                0.88281149                1.04457614               -3.50312400                0.06091943                0.09511676               -2.25023936
               6.47533675               10.99757198               49.09148394                0.93252578                0.14286769                0.00233988               -0.09945302               -0.03680690               -0.00506160                0.61717642
               7.47676542               10.69676163               48.86217830                0.45118924                0.24704591                0.28772101               -0.85796617                0.01521380                0.06772002               -0.58714764
               8.48027766               10.39545712               48.63416273                0.00010000                1.95946528                0.52768597               -1.57423419               -1.52748586               13.21631771               -1.34172412
               9.51595473               10.06212240               48.66716545                0.00010000                3.78456990               -0.57976973               -1.92451396               -1.73113625               26.39603141               -0.09461120
              10.55596906                9.72013528               48.68928057                0.00010000                3.79083722               -0.51120544               -2.23712181               -1.23251425               26.48927169                0.67780313
              11.59177147                9.37519357               48.70805415                0.00010000                3.34067933               -0.32118558               -2.49100549               -0.95760602               27.19341752                1.28340835
              12.62278265                9.02410623               48.72815154                0.00010000                2.84939613               -0.08669151               -2.69333393               -1.01072480               28.19847452                1.84500420
              13.64875940                8.66628620               48.75134617                0.00010000                2.36967399                0.15224172               -2.89559049               -1.23534420               29.20561820                2.62152464
              14.67017613                8.30183508               48.77748848                0.09495750                1.79078240                0.44209723               -3.23310354               -1.11687721               23.96644087                4.50459956
              15.68457504                7.94214143               48.68757665                0.33025422                1.20629131                0.80762374               -2.67200298               -0.52880171                9.09070156                1.06022615
              16.69430196                7.59231458               48.41515102                0.76201701                0.97269112                1.13129643               -3.76343871                0.04140715               -0.05298429               -1.83678934
               6.77434966               11.99805085               49.01570053                0.97470564                0.22177371                0.04788744               -0.35267692                0.08626777                0.31356253                0.52983488
               7.77656739               11.69990062               48.78293205                0.77410762                0.32945862                0.31389902               -1.10777970                0.11460691                0.75677271               -0.46915090
               8.78093883               11.40073905               48.55878993                0.46772930                3.29703688                0.52819309               -1.82681400               -2.39282430               14.93591687               -0.74316154
               9.84250813               11.05072181               48.60884383                0.36912050                5.51994449               -1.14005950               -2.17517643               -1.72134479               28.83241951               -0.21468200
              10.89133772               10.71320535               48.64441181                0.35988031                4.55028081               -0.69299295               -2.48400287               -0.46193923               28.81790207                0.21994074
              11.93351375               10.37074571               48.67638472                0.36830360                3.95293707               -0.44478549               -2.72552912               -0.35359405               29.66769176                0.54629596
              12.97039646               10.02264892               48.71064373                0.39383946                3.37259979               -0.14573069               -2.91037383               -0.38372532               31.01833641                0.84766370
              14.00096574                9.66784358               48.75113947                0.44104917                2.65400021                0.15573791               -3.11661603               -0.49282008               32.81518590                1.31382540
              15.02347646                9.30837983               48.80424551                0.56861720                1.57739751                0.65447484               -3.52234292               -0.53655740               26.67924571                2.65700529
              16.03251369                8.95051177               48.71041945                0.68791494                0.97013633                0.83703306               -2.91160621               -0.42182715               10.15629283                0.97683459
              17.04287919                8.60406599               48.43047435                0.87978874                1.03654974                1.17514033               -3.97005897                0.21314573                0.84274927               -1.42849991
               3.79147317                2.11607015               50.75159639                1.00000000               -0.63383719               -0.73081281                2.52442998               -0.18337461               -1.11332221                1.02035907
               4.78513480                1.77518999               50.57098956                1.00000000               -0.53323396               -0.40000057                1.51742042               -0.11697968               -1.51172117                0.17140478
               5.78080849                1.43340189               50.38302294                1.00000000               -0.36695681               -0.08877721                0.56474753               -0.14368971               -1.52091051               -0.21627007
               6.77779566                1.08805465               50.20233916                0.69203194               -0.69256925                0.32548623               -0.37883093               -0.55307379               -0.62246829               -0.88463927
               7.76695711                0.73090486               50.03190015                0.73935247               -0.84045865                0.62829383               -0.92556849               -0.24661575                0.31660246                0.01334547
               8.76098649                0.36399481               49.86982936                0.74794450               -0.50045836                0.79432139               -1.58395771               -0.30800163                0.95661361               -0.05601344
               9.75694794               -0.01325894               49.71400673                0.62988977               -0.55212747                1.19544475               -2.34184360               -0.81588655                2.35701101               -0.35284579
              10.74994394               -0.40937272               49.58323433                0.45493511                0.50649777                1.90335685               -3.18809760               -1.08944493                6.38997105               -0.28535029
              11.76707789               -0.81446240               49.52142868                0.39952652                1.84282314                0.38531127               -2.23452781               -2.22812001                2.96045277                2.05277665
              12.78680040               -1.15278127               49.37032277                1.00000000                1.34501994                0.29735459               -1.54789798               -0.53571359                0.24767406                0.26134138
              13.79397829               -1.47913019               49.20472500                1.00000000                0.71778907                0.62720433               -2.31883572               -0.27022369               -0.43102255               -0.34314964
               4.13051958                3.10876202               50.67672209                1.00000000               -0.52204509               -0.70001226                2.23935834               -0.00574968               -0.27893846                1.35683736
               5.12529913                2.77118999               50.49613710                1.00000000               -0.37901583               -0.36681039                1.22984454                0.05124176               -0.44361491                0.26227351
               6.12293926                2.43251412               50.31281942                1.00000000               -0.08928445               -0.05152573                0.24733024                0.02597426               -0.36670914               -0.36274705
               7.12351344                2.09130952               50.13391484                0.47364244                0.17908043                0.33208365               -0.73607112               -0.49887956                1.06401191               -1.22109607
               8.12652087                1.73718780               49.97913592                0.57795485                0.32374659                0.46545704               -1.43026762               -0.21184558                1.93593198                0.12472203
               9.12998837                1.37193802               49.82186661                0.59979715                0.44759819                0.77617131               -2.25746007               -0.28557108                1.94886313                0.03074179
              10.13547284                0.99869551               49.66933963                0.42187091                0.48314244                1.23871436               -3.29618475               -0.75359320                3.78119027               -0.51473347
              11.13965122                0.60966085               49.54962350                0.18599788               -0.94859345                2.31967061               -4.74935758               -2.57854573               11.34912707               -0.92076008
              12.11650097                0.18939071               49.54887803                0.25470186               -1.29370301               -0.02078899               -4.05003664               -4.62982349               11.05838656                4.77674579
              13.11377716               -0.14980772               49.41217224                1.00000000                0.05620065                0.22364084               -0.84379830               -0.64253246                1.46689847                0.44240880
              14.11762498               -0.47285815               49.24616477                1.00000000                0.38478192                0.54164301               -1.76119957               -0.09139141                0.03449473               -0.34643852
               4.46650224                4.10206990               50.60938643                1.00000000               -0.40947108               -0.63374420                1.91907458               -0.00785264               -0.02294771                1.68657961
               5.46240753                3.76785379               50.42331107                1.00000000               -0.26468982               -0.28641114                0.93553952                0.03246575                0.05651553                0.29098366
               6.46120845                3.43237138               50.23929701                0.81889126                0.03684297                0.04986483               -0.05671000               -0.04893119                0.28440966               -0.78271332
               7.46314439                3.09469633               50.05774151                0.00010000                1.04416213                0.37997906               -1.06124759               -0.89574520                2.91674616               -1.58789596
               8.48209169                2.74021400               49.92586291                0.00010000                1.53114821                0.47525716               -1.97037197               -1.86305031                3.86155764                0.08516328
               9.49376736                2.37951823               49.77235386                0.00010000                1.10307776                0.95522698               -2.91160747               -2.39318057                2.55580778                1.87914068
              10.50415324                2.01151535               49.61650204                0.00010000                0.69552321                1.44927192               -3.93004361               -3.32047578                4.04703132                3.83780312
              11.50767782                1.63702069               49.49185253                0.00010000               -3.51016265                2.25541618               -5.36912925               -8.25248941               17.79601412                6.33986029
              12.43394999                1.18512182               49.60622703                0.17565989               -3.57396051                0.57679122               -0.59025676               -6.59251885               15.37954667                3.51408142
              13.43619861                0.85169155               49.45741417                1.00000000                0.21506625                0.07112845               -0.27149424               -0.57882164                1.13584089                0.53880759
              14.43825132                0.53170267               49.28669417                1.00000000                0.20527064                0.35922585               -1.12744663               -0.07088970                0.03699076               -0.31507326
               4.79879476                5.09608714               50.54173338                1.00000000               -0.31477953               -0.54945195                1.59229232               -0.03406187                0.11212278                1.49078363
               5.79564697                4.76546176               50.34916373                0.90399009               -0.18383333               -0.17876496                0.63824379               -0.01304797                0.27840538                0.04911374
               6.79511810                4.43351142               50.16026408                0.29927825                0.10544719                0.18042578               -0.28379432               -0.14962637                0.96009629               -1.25315855
               7.79775591                4.09890910               49.98100461                0.00010000                0.46599310                0.51052988               -1.33667260               -1.12198469                4.84600819               -1.79365063
               8.80443796                3.74669294               49.86909044                0.00010000                0.65337499                0.85106808               -2.10083503               -2.75756877                8.14995574                1.00393296
               9.81082341                3.39104256               49.75876391                0.00010000                0.35614495                1.20284399               -2.84195821               -3.59786805                8.44274276                3.95136530
              10.81156086                3.02768095               49.65606430                0.00010000               -0.49142260                1.53348622               -3.46097284               -4.73059010               11.04198734                7.42712734
              11.80099496                2.65476917               49.60015666                0.00010000               -2.07905643                1.22999608               -3.15119148               -9.22558493               17.28590497                9.96683369
              12.76997973                2.20092654               49.62407421                0.00010000               -2.26875425                3.53018911               -2.20070626               -4.94900404               13.99037048               -0.75998328
              13.75561988                1.85161485               49.50193615                0.20051019               -0.68973922                1.18404332                0.15009635               -0.00932551                2.78698740                0.26869751
              14.75618495                1.53432637               49.32826252                0.69392004                0.05650701               -0.53292867               -0.56408547                1.49465505                0.17245115               -1.08358010
               5.12707175                6.09108086               50.47093290                1.00000000               -0.23494587               -0.45200951                1.27683320               -0.05626222                0.19652211                1.15893352
               6.12472229                5.76427849               50.27154282                0.57716200               -0.11515822               -0.04698975                0.32594331               -0.05488693                0.43107533               -0.39704705
               7.12476859                5.43597989               50.07706998                0.09594321                0.14004404                0.34622835               -0.58488648               -0.22040216                1.55782380               -1.73670536
               8.12752317                5.10490692               49.89983012                0.00010000                0.50191321                0.53662047               -1.48564202               -1.00882721                7.96414063                0.67527793
               9.13480685                4.75723536               49.83283240                0.00010000                0.66494080                0.96969404               -2.02990419               -1.94660849               12.77887374                2.47203498
              10.14082199                4.40357511               49.75164823                0.00010000                0.55039889                1.10289082               -2.62480163               -2.37727656               12.59698821                4.28451703
              11.14581483                4.04218507               49.68062032                0.00010000                0.45492713                1.08954626               -2.90408959               -3.19540874               14.19680749                5.83274512
              12.14992053                3.66162061               49.63050803                0.00010000               -0.38452980                0.84826831               -2.76301036               -4.54328458               15.60170078                4.97978140
              13.13812423                3.25572560               49.58480480                0.00010000               -2.36541334                4.13608042               -2.12486076               -3.22396021               15.96823437               -0.28778082
              14.10261227                2.87537242               49.54234282                0.19260521               -1.77014295                2.28518735               -0.71016729               -0.73581491                8.24123867                1.33300485
              15.10272137                2.52104410               49.35367517                0.68788966                0.01091089               -0.61052496               -1.64549519                0.69453857                0.51790650               -2.80662923
               5.45127428                7.08704695               50.39695219                1.00000000               -0.16240770               -0.35455910                0.98093280               -0.03878253                0.03444135                0.88044816
               6.44965020                6.76452197               50.18842074                0.43270487               -0.05963308                0.06478169                0.05627365               -0.04072921                0.42821051               -0.70223197
               7.45008162                6.44043598               49.98788948                0.01873242                0.33368497                0.51045826               -0.85129831               -0.40104813                5.05464226               -2.20541307
               8.45632390                6.10964151               49.87144959                0.00010000                0.83779929                0.51541280               -0.96136162               -0.81915469               11.88447059                2.91780023
               9.46683760                5.76608682               49.80468700                0.00010000                1.10021355                0.75640132               -1.99537123               -1.51859161               14.86545229                2.99995330
              10.47832817                5.41310038               49.74499464                0.00010000                1.13847896                0.76464068               -2.45827813               -1.95849009               15.74194245                4.13486029
              11.48960718                5.04947187               49.69181357                0.00010000                0.91302843                0.63325952               -2.66154979               -2.60681049               16.67436116                4.80258710
              12.49658874                4.67173454               49.64620527                0.00010000                0.10707704                0.93869095               -2.54951766               -3.39800772               17.58913771                4.25658318
              13.49174872                4.28364815               49.60690131                0.01772904               -1.05018289                2.09181889               -2.08153147               -2.95866583               18.28698673                3.09052314
              14.47558508                3.89731860               49.57270364                0.22970370               -0.65081823                1.61216797               -1.31893981               -0.61286213                9.49946415                1.41738886
              15.47873236                3.52211587               49.35867504                0.71906469                0.31472756                0.56222580               -2.64185562                0.23442046                0.39566391               -2.77759633
               5.77134606                8.08398968               50.32076800                0.99237840               -0.08273848               -0.26277791                0.70083061               -0.03432701                0.01281267                0.73210243
               6.77051867                7.76557412               50.10462635                0.36766045                0.01410160                0.13695173               -0.19051705               -0.00391168                0.32344305               -0.73344316
               7.77162809                7.44618906               49.89473771                0.00010000                0.74852853                0.60384500               -1.07445002               -0.55234954                8.04552926               -2.43900726
               8.78548924                7.11521518               49.83251253                0.00010000                1.46740309                0.55830162               -1.53610855               -0.97973893               16.12982907                1.47997134
               9.80097615                6.77236339               49.77887603                0.00010000                1.63889480                0.51569274               -2.00844345               -1.44484704               17.40938936                2.79135268
              10.81826714                6.41886793               49.73608896                0.00010000                1.70341534                0.43236133               -2.41034376               -1.83605857               18.58986496                3.76523920
              11.83504446                6.05485026               49.69897586                0.00010000                1.47584836                0.41634100               -2.57269830               -2.26272521               19.41175137                4.39273286
              12.84778411                5.68039443               49.66538234                0.00010000                0.91612011                0.66227071               -2.49450471               -2.55320060               19.94699236                4.39796086
              13.85336686                5.29756198               49.63258273                0.03488404                0.20515956                1.01355416               -2.18603743               -2.36091932               20.10002845                3.50845574
              14.85188730                4.90761578               49.59751778                0.26104193                0.22241871                0.88921172               -1.68672026               -0.77892813               10.19306346                1.18152932
              15.85781523                4.53228861               49.36378362                0.74287674                0.59279367                1.04582550               -2.99363755                0.16496780                0.22273229               -2.28210714
               6.08741886                9.08179139               50.24396568                0.95837410               -0.00462735               -0.17929880                0.43877944               -0.03698704                0.02615965                0.69918346
               7.08737259                8.76726100               50.02073955                0.35511830                0.09873506                0.19947012               -0.43634643                0.03006114                0.16634882               -0.72838060
               8.08939357                8.45251288               49.80028727                0.00010000                1.15911006                0.62557478               -1.28321579               -0.73178609               10.02051360               -2.45071135
               9.11055479                8.12080754               49.77347131                0.00010000                2.24471752                0.44372635               -1.75272804               -1.38591585               20.12003688                0.27701881
              10.13428792                7.77640068               49.74688521                0.00010000                2.42826667                0.22399801               -2.15474148               -1.62403842               20.78561493                2.10456212
              11.15912013                7.42174760               49.72383042                0.00010000                2.42691267                0.11393987               -2.44812458               -1.74814825               21.66477091                3.23019729
              12.18282617                7.05779869               49.70451707                0.00010000                2.18464429                0.14497850               -2.58182911               -1.91930733               22.37856993                4.01535711
              13.20281301                6.68497995               49.68570299                0.00010000                1.72414113                0.28554803               -2.52558065               -2.06245437               22.54718316                4.45904025
              14.21730899                6.30391923               49.66139994                0.05158274                1.12334370                0.44606048               -2.30261811               -2.08044272               21.66922328                4.06997343
              15.22527989                5.91510283               49.61917406                0.28498789                0.76885242                0.74038945               -2.01165643               -0.87792313               10.56462196                1.01867776
              16.23268604                5.54303238               49.36881574                0.75661750                0.74061549                1.06368194               -3.21114147                0.08753312                0.12437010               -2.14343671
               6.39966708               10.08040371               50.16726226                0.94986294                0.07313139               -0.09365305                0.18073761               -0.03536021                0.00431714                0.69860548
               7.40039840                9.76956352               49.93679563                0.38931019                0.18893737                0.25612438               -0.68168478                0.04132466                0.01260385               -0.69547714
               8.40344583                9.45870055               49.70640030                0.00010000                1.67423666                0.59244676               -1.49553735               -1.05551194               11.76670917               -2.13168355
               9.43388313                9.12408971               49.71030153                0.00010000                3.20547430                0.08733400               -1.93667384               -1.80217841               23.74864587                0.00144355
              10.46755532                8.77684335               49.70854235                0.00010000                3.40115131               -0.24851016               -2.29915443               -1.62622245               24.10229415                1.43905740
              11.50190616                8.42114672               49.70652361                0.00010000                3.29353207               -0.24536639               -2.54710120               -1.46703951               24.88391262                2.46089481
              12.53342596                8.05774983               49.70660708                0.00010000                2.92541619               -0.14383658               -2.64870950               -1.49141201               25.68910702                3.28641895
              13.56041448                7.68610539               49.70744571                0.00010000                2.41045834               -0.00160541               -2.57954839               -1.63836815               25.75995492                4.13479303
              14.58163513                7.30648319               49.69787049                0.06882991                1.74005994                0.15344922               -2.34896672               -1.69233376               23.13340280                5.21147912
              15.59521568                6.92242357               49.63948005                0.30537595                1.10358339                0.75324884               -2.31650642               -0.80013877               10.50414580                1.02332228
              16.60370679                6.55356225               49.37346276                0.76222333                0.84911135                1.06115819               -3.41630422                0.05735176                0.08197782               -2.15178587
               6.70839203               11.07991833               50.09055511                0.92475903                0.15102061               -0.00232114               -0.08446957               -0.03805471               -0.00181054                0.60979136
               7.70990224               10.77238349               49.85325114                0.43533577                0.26825559                0.31002611               -0.92818104                0.01780814                0.09478228               -0.56802572
               8.71375714               10.46436182               49.61771936                0.00010000                2.32330968                0.56834442               -1.71838347               -1.60985814               13.45387235               -1.29773433
               9.75636843               10.12255422               49.64689494                0.00010000                4.54746547               -0.78764332               -2.14040253               -1.74068703               26.87504030               -0.01883807
              10.80470645                9.77143047               49.66578976                0.00010000                4.62522107               -0.75330173               -2.47675365               -1.16049659               27.08071095                0.77487529
              11.84887285                9.41684027               49.68221556                0.00010000                4.16664033               -0.58946963               -2.69397368               -0.83173772               27.92121325                1.39163168
              12.88803926                9.05492196               49.70093926                0.00010000                3.62197206               -0.38841901               -2.76472177               -0.85042200               29.06326461                1.94393353
              13.92131229                8.68494784               49.72363761                0.00010000                2.95524432               -0.19231409               -2.66128823               -1.03094486               30.19418297                2.67422627
              14.94714414                8.30698821               49.75004348                0.09680329                2.04428772                0.11991031               -2.30154622               -1.01900391               25.08101571                4.43089964
              15.96219805                7.93016781               49.66097941                0.33561756                1.22057792                0.79754800               -2.60379418               -0.58166994                9.66847348                1.00490841
              16.97155570                7.56425555               49.37790155                0.75672500                0.93576558                1.09990317               -3.61780332                0.04268497               -0.08098439               -1.76199175
               7.01397566               12.08035728               50.01218405                0.97005293                0.23354072                0.04389564               -0.34867294                0.09903927                0.30488716                0.52215066
               8.01631107               11.77576404               49.77145488                0.76548692                0.35511399                0.33805525               -1.18881219                0.12639134                0.76729887               -0.45647886
               9.02107794               11.47006744               49.53974251                0.46489920                3.78448333                0.57056240               -1.98302234               -2.63928013               15.15832598               -0.72022153
              10.09200074               11.10833684               49.58602664                0.36899583                6.44906941               -1.42173780               -2.39716116               -1.85127577               29.31174608               -0.17551429
              11.15005933               10.76177731               49.61843847                0.35997847                5.48895904               -0.96531597               -2.72240000               -0.41368759               29.42593132                0.27167486
              12.20177992               10.40935733               49.64822203                0.36805597                4.91253094               -0.74829443               -2.91817042               -0.29908648               30.43195415                0.60383273
              13.24830995               10.04998145               49.68132669                0.39279357                4.29747078               -0.49405078               -2.95946559               -0.32784176               31.92999650                0.90024633
              14.28772933                9.68225911               49.72148579                0.43549862                3.38625676               -0.26887326               -2.81600873               -0.41329885               33.83257458                1.33346546
              15.31603508                9.30888140               49.77467927                0.57001995                1.92928083                0.18931827               -2.41072702               -0.30513526               27.75520866                2.61750401
              16.32631495                8.93837453               49.68125969                0.69251803                1.01749668                0.82067182               -2.86375030               -0.25436375               10.67534126                0.91436474
              17.33638502                8.57556032               49.39113514                0.87789286                1.00700690                1.13047704               -3.82037034                0.20151054                0.79302820               -1.38575247
               3.96628676                2.20234746               51.77757323                1.00000000               -0.66100441               -0.76893860                2.66081499               -0.20208082               -1.04916019                0.97256420
               4.95967671                1.85314838               51.58640447                1.00000000               -0.54626841               -0.40946314                1.55867638               -0.13451598               -1.41077948                0.16134273
               5.95536139                1.50304000               51.38846715                1.00000000               -0.34844484               -0.06904643                0.51659940               -0.15948595               -1.37393368               -0.21448348
               6.95270782                1.14952647               51.19787891                0.68617984               -0.63594867                0.37266667               -0.52467268               -0.49167692               -0.24244478               -0.86512940
               7.94264242                0.78617320               51.02158817                0.72331639               -0.79793237                0.76000997               -1.19598804               -0.26238235                0.98037119               -0.01096867
               8.93674917                0.41468913               50.85242629                0.71837617               -0.49628784                0.96461183               -2.00321126               -0.30181239                1.71552468               -0.08762924
               9.93271666                0.03317652               50.68830994                0.57674710               -0.71837911                1.43770385               -2.97871703               -0.83004306                3.36383018               -0.30525907
              10.92238159               -0.36762506               50.54786972                0.33587660               -1.68471092                2.42094637               -4.31244912               -2.31882914                8.97005649                0.12539684
              11.89902244               -0.80896034               50.49004369                0.12922770                1.58967392                2.56241964               -3.72076707               -0.21215894                6.16713226                2.50126345
              12.95417507               -1.19555714               50.35404053                1.00000000                3.08190397                0.33285497               -1.62244054               -2.81939128                1.73910613                0.30632005
              13.96066052               -1.52629159               50.18065355                1.00000000                0.64854546                0.66203007               -2.41802926               -0.26852797               -0.18786275               -0.24947590
               4.31346502                3.19465807               51.69978357                1.00000000               -0.54797413               -0.73357416                2.36406019               -0.00913081               -0.25666457                1.29560753
               5.30798528                2.84905375               51.50861149                1.00000000               -0.39437681               -0.37413456                1.25954694                0.05032609               -0.40073183                0.25031776
               6.30557749                2.50234954               51.31501692                1.00000000               -0.08804170               -0.03050492                0.18817089                0.03259447               -0.30457255               -0.35452339
               7.30622445                2.15325313               51.12579118                0.47926175                0.09298872                0.38016967               -0.89189882               -0.36571403                1.29464443               -1.19313258
               8.30743726                1.79377330               50.96390344                0.57297828                0.20024671                0.61789909               -1.66349055               -0.17556849                2.34086132                0.07136416
               9.31022938                1.42433525               50.79794796                0.57575550                0.40680306                0.93674463               -2.59889413               -0.22620778                2.25380251                0.00281083
              10.31557332                1.04755356               50.63436194                0.36880205                0.50161727                1.43643851               -3.78761568               -0.55341908                3.80842976               -0.37314518
              11.32026173                0.65658440               50.49792628                0.06184127               -0.23532177                2.54528748               -5.65826556               -2.76448095               11.61106918               -0.22253616
              12.31086689                0.21666385               50.48551065                0.00010000               -1.78074767                0.47685520               -7.89333107               -6.89038098               15.58899919               10.21168760
              13.28464677               -0.19222859               50.40341056                1.00000000               -1.10785972                0.23424657               -0.92584995               -3.95744786                4.65437552                0.43575757
              14.28870969               -0.51967129               50.22813972                1.00000000                0.40629185                0.56800052               -1.80664019               -0.10074572                0.01425685               -0.23294501
               4.65731278                4.18767597               51.62915452                1.00000000               -0.43210096               -0.65831494                2.02847149               -0.01008733               -0.01155090                1.60795360
               5.65299177                3.84566569               51.43276204                1.00000000               -0.27494425               -0.28971141                0.95087429                0.03661042                0.06803995                0.27526227
               6.65181390                3.50242990               51.23837819                0.82400439                0.04890014                0.06782625               -0.12812937               -0.02626366                0.28820290               -0.73150912
               7.65396977                3.15712986               51.04632066                0.00010000                0.81175189                0.42609317               -1.21789580               -0.67791815                2.99000293               -1.51771417
               8.66804893                2.79853118               50.90553314                0.00010000                1.22374877                0.59349021               -2.13393929               -1.47877637                3.98103253                0.21040516
               9.67844475                2.43342402               50.74211431                0.00010000                1.06750939                0.99002694               -3.17754912               -2.03620788                2.57050649                2.23696701
              10.68939912                2.06190529               50.57519212                0.00010000                0.97684628                1.32832780               -4.40186630               -2.99997837                3.81719276                4.71150304
              11.69798168                1.68328069               50.43526049                0.00010000               -3.96856567                1.73463606               -5.64054223               -9.36852414               20.52268150                8.66706862
              12.61002781                1.20057676               50.59587264                0.14365821               -4.33102134                0.06705128               -3.23245596              -10.88500469               18.94722098                7.32669886
              13.61136125                0.80912780               50.45458174                0.92414342                0.17516008                0.06103062               -0.32501402               -3.25611033                1.91137074                0.45575010
              14.61353101                0.48506842               50.27574593                1.00000000                0.21697613                0.36452285               -1.12369374               -0.07799143                0.05265406               -0.20819563
               4.99728384                5.18149177               51.55813658                1.00000000               -0.33202780               -0.56628510                1.68493703               -0.03435397                0.11911640                1.41909651
               5.99396356                4.84325952               51.35554629                0.87585907               -0.18478984               -0.17844489                0.63666291               -0.00767778                0.30202301                0.02553559
               6.99358805                4.50370606               51.15694941                0.28632372                0.13006216                0.19788360               -0.37926513               -0.12143651                0.93913423               -1.19788045
               7.99656481                4.16177500               50.96680967                0.00010000                0.39897647                0.55569348               -1.50045240               -0.90490056                4.92100954               -1.63800807
               9.00156758                3.80564310               50.84720214                0.00010000                0.47831521                0.89056246               -2.27990589               -2.22478121                8.35720087                1.39416494
              10.00613111                3.44413578               50.72924159                0.00010000                0.20747569                1.12617853               -3.06765664               -3.12845082                8.71383290                4.65836979
              11.00571709                3.07412012               50.62011079                0.00010000               -0.59556673                1.19936682               -3.69242015               -4.46436790               11.84470802                8.70984178
              11.99421978                2.69127712               50.56660421                0.00010000               -1.91987017                0.46947344               -3.61784768               -9.75983234               18.74631096               12.26080475
              12.96731969                2.21800488               50.59539831                0.00010000               -2.95934354                3.28803825               -3.12564378               -7.21422117               17.39373154                0.62498364
              13.93503291                1.80899203               50.50399590                0.15846516               -1.60255361                2.31588763                0.23982146               -1.67933761                4.71701810               -0.65820860
              14.93526861                1.48761917               50.32339587                0.65797089                0.02357068               -0.36977267               -0.48534817                2.33928643                0.23698442               -1.99082382
               5.33309020                6.17635027               51.48408474                1.00000000               -0.24662722               -0.46291304                1.35267202               -0.05381282                0.18014359                1.10744559
               6.33062393                5.84209679               51.27472042                0.55083518               -0.11102542               -0.04533018                0.30805315               -0.04462356                0.43589876               -0.40654861
               7.33086969                5.50638757               51.07069991                0.08376058                0.16553971                0.36787595               -0.69165603               -0.18662005                1.59313470               -1.70406972
               8.33393472                5.16824373               50.88408351                0.00010000                0.51614150                0.62978742               -1.65594255               -0.75733964                8.19334300                1.21988372
               9.34119252                4.81634243               50.81151351                0.00010000                0.67319977                0.96826981               -2.23718830               -1.52770162               13.15521958                2.90868241
              10.34739872                4.45594759               50.72424641                0.00010000                0.58889518                1.01203689               -2.85027123               -1.98896845               13.11416080                4.92916587
              11.35297043                4.08589263               50.65023584                0.00010000                0.57507743                0.82948072               -3.16653195               -2.91933970               15.11144965                6.76441480
              12.35890027                3.69267016               50.60102375                0.00010000               -0.24709724                0.41093384               -3.09233808               -4.67090036               17.08192499                5.98006726
              13.34802848                3.26633752               50.56205381                0.00010000               -2.53700306                3.76171411               -2.43039248               -4.33589841               18.28818948                0.79870690
              14.30816021                2.85544555               50.53283834                0.16944209               -2.24830137                3.85227563               -1.44981897               -1.06653263               10.16948909                0.98725019
              15.30306245                2.47767297               50.33503885                0.66754188               -0.50977518                0.21254078               -2.29908190                0.69303468                1.12959169               -3.87243788
               5.66471454                7.17223351               51.40706622                1.00000000               -0.16807500               -0.36229391                1.04133915               -0.03814058                0.02414004                0.85043258
               6.66303379                6.84235292               51.18883258                0.41298754               -0.05029172                0.06800546                0.02584829               -0.02762979                0.42681800               -0.68162111
               7.66370871                6.51106358               50.97875111                0.00834367                0.42146835                0.53382270               -0.97683260               -0.31056632                5.46813918               -2.14910507
               8.67146316                6.17437075               50.86080768                0.00010000                0.98004868                0.62375177               -1.19877696               -0.54113634               12.26477154                3.24870017
               9.68330968                5.82500850               50.78357632                0.00010000                1.26691913                0.73013866               -2.22930792               -1.16910372               15.07084989                3.35200299
              10.69680154                5.46437652               50.71918252                0.00010000                1.36490237                0.64657876               -2.70882672               -1.64700319               16.37589287                4.60069468
              11.71060773                5.09070973               50.66390971                0.00010000                1.17776655                0.41525689               -2.92255104               -2.42095890               17.64866420                5.35844668
              12.72035687                4.69949580               50.61941996                0.00010000                0.36092978                0.68303634               -2.81431300               -3.52456175               19.00264308                4.83379328
              13.71782633                4.29323916               50.58463900                0.01282826               -0.89950316                2.03350395               -2.39484040               -3.35128073               20.21477322                3.48101145
              14.70236681                3.88603754               50.55814220                0.21560775               -0.65759290                2.12050420               -1.68786544               -0.72040044               10.76684281                1.39723647
              15.70467447                3.49186998               50.33054087                0.70388064                0.23076567                1.46133802               -2.99599374                0.46936576                0.68692401               -2.81144307
               5.99208857                8.16910439               51.32801921                0.98244176               -0.08473081               -0.27015068                0.74977090               -0.03578097                0.01749911                0.72098102
               6.99124127                7.84345690               51.10251537                0.35235658                0.02759832                0.14569546               -0.23257989                0.00937903                0.33117486               -0.70366936
               7.99264054                7.51706403               50.88331454                0.00010000                0.89629064                0.62898507               -1.21120131               -0.44078230                8.27293336               -2.36001338
               9.00916708                7.18071877               50.81602726                0.00010000                1.75820655                0.59448572               -1.76124602               -0.73648535               16.56494126                1.40877974
              10.02780467                6.83094520               50.75755574                0.00010000                1.97951712                0.46042233               -2.26641785               -1.18651938               17.90510532                3.02290190
              11.04875742                6.46887917               50.71072924                0.00010000                2.08136499                0.30007960               -2.67525617               -1.60030081               19.26945727                4.06766053
              12.06943197                6.09419777               50.67208236                0.00010000                1.85610908                0.24256443               -2.82645060               -2.13277775               20.38887422                4.72491969
              13.08587960                5.70633088               50.63941940                0.00010000                1.25145781                0.51470705               -2.72781651               -2.62533895               21.25441934                4.69934908
              14.09446113                5.30700760               50.60987704                0.03325257                0.46208850                0.99312783               -2.39659023               -2.66547138               21.75848127                3.70903781
              15.09512137                4.89785563               50.58019566                0.25315711                0.31618755                0.98493558               -1.80734275               -0.95469333               11.16402924                1.19819809
              16.10078488                4.50689973               50.33338413                0.73072479                0.56635057                1.35026012               -3.05839662                0.19314420                0.30143922               -1.98191990
               6.31529391                9.16683050               51.24855318                0.95124704               -0.00321645               -0.18588299                0.47839647               -0.03656016                0.02701536                0.69850945
               7.31526174                8.84526683               51.01610063                0.34144170                0.11686473                0.21340867               -0.49061305                0.04169086                0.18558207               -0.69768794
               8.31763120                8.52364328               50.78678852                0.00010000                1.37952688                0.65277716               -1.42149014               -0.64846563               10.24716585               -2.36757949
               9.34285228                8.18626046               50.75485632                0.00010000                2.68938469                0.41018390               -1.97705947               -1.19767663               20.56821172                0.37804141
              10.37141889                7.83421694               50.72406689                0.00010000                2.93453413                0.11804291               -2.42238352               -1.44020202               21.34589711                2.24487125
              11.40154296                7.47037811               50.69811713                0.00010000                2.95407817               -0.04384935               -2.71600880               -1.55815049               22.39800735                3.42547118
              12.43050046                7.09556102               50.67772642                0.00010000                2.67486477               -0.02544120               -2.80700660               -1.77282589               23.34205761                4.22262397
              13.45504026                6.70978994               50.65991653                0.00010000                2.12458453                0.16145503               -2.67357937               -2.05008700               23.75982922                4.66456380
              14.47299215                6.31310172               50.63830400                0.05284384                1.41702811                0.40581587               -2.36601248               -2.31059294               23.07464620                4.27368936
              15.48338082                5.90573625               50.59914575                0.28216167                0.87285052                0.75823772               -1.99530790               -1.06440087               11.32095175                1.00284553
              16.49044916                5.51887519               50.33698844                0.74658627                0.70683395                1.12094003               -3.12031544                0.07822431                0.14501347               -1.89015017
               6.63448471               10.16538673               51.16920190                0.94392797                0.07775910               -0.09922380                0.20823603               -0.03543733                0.00501214                0.69567002
               7.63526230                9.84772508               50.92967448                0.37513492                0.20964433                0.27375173               -0.74270614                0.04839560                0.03988395               -0.66513335
               8.63867760                9.53011957               50.69075334                0.00010000                1.96887911                0.62584720               -1.63883180               -1.03612629               12.00708096               -2.06006211
               9.67463988                9.18892244               50.68982204                0.00010000                3.81026900               -0.01199613               -2.16891220               -1.71403305               24.21636068                0.09962887
              10.71488298                8.83330606               50.68427166                0.00010000                4.08052262               -0.42401384               -2.57232656               -1.50382471               24.69287748                1.55599258
              11.75625034                8.46800218               50.67988012                0.00010000                3.98403254               -0.45251677               -2.80655206               -1.30569193               25.64575670                2.59221478
              12.79456363                8.09368894               50.67942138                0.00010000                3.55434147               -0.36478631               -2.82313710               -1.31583838               26.67197769                3.42970858
              13.82733716                7.70955998               50.68193515                0.00010000                2.88696655               -0.20296433               -2.57328170               -1.50332210               26.97803798                4.31217198
              14.85230296                7.31512392               50.67584339                0.07229599                2.03613601                0.02712878               -2.12145608               -1.75385507               24.29920366                5.56592536
              15.86805989                6.91302039               50.61673583                0.30696992                1.18842670                0.73618556               -2.22170982               -0.95498825               11.00574771                0.98115641
              16.87607149                6.52931853               50.34005487                0.75419139                0.80116073                1.02635917               -3.23135451                0.04925612                0.08039344               -1.96568561
               6.94990847               11.16484602               51.08979455                0.91662795                0.15883432               -0.00753750               -0.06608053               -0.03936498                0.00183614                0.60404255
               7.95149682               10.85074186               50.84361468                0.41856973                0.29014166                0.33192376               -0.99917461                0.02034051                0.12738654               -0.54758527
               8.95571131               10.53616022               50.59979506                0.00010000                2.69441553                0.60843739               -1.86832942               -1.69326644               13.70084041               -1.25312696
              10.00538513               10.18602054               50.62435740                0.00010000                5.32756784               -0.99871577               -2.37799167               -1.75081757               27.35845236                0.04632385
              11.06226266                9.82573667               50.63974549                0.00010000                5.48305559               -0.99823131               -2.74985264               -1.09573904               27.69786150                0.84781553
              12.11504624                9.46132778               50.65417468                0.00010000                5.01816104               -0.85963772               -2.93842735               -0.72285501               28.71754369                1.46915344
              13.16262589                9.08826529               50.67285711                0.00010000                4.42462977               -0.69049769               -2.88390191               -0.72140626               30.09387425                2.02765175
              14.20353884                8.70573065               50.69812041                0.00010000                3.59143790               -0.53717229               -2.49629661               -0.88467564               31.58944561                2.79535652
              15.23445464                8.31364429               50.73145755                0.10247380                2.32738052               -0.18327999               -1.51207531               -0.93834574               26.05757027                4.72389404
              16.25008645                7.92045996               50.63550077                0.34281249                1.21916763                0.76090570               -2.47159276               -0.63685748                9.80817350                0.94742204
              17.25883800                7.53940237               50.34279496                0.75127441                0.87515498                1.02826174               -3.36917525                0.04010965               -0.09174575               -1.62789811
               7.26190573               12.16523598               51.00872707                0.96500958                0.24491807                0.03899621               -0.34052641                0.11248209                0.29672885                0.51567488
               8.26435491               11.85436355               50.75915580                0.75581071                0.38139327                0.36216886               -1.27056477                0.13842575                0.78478175               -0.44382710
               9.26953359               11.54228832               50.51912948                0.46223863                4.28460903                0.61280932               -2.14101607               -2.88854264               15.39406501               -0.69578333
              10.35004709               11.16894813               50.56090061                0.36893726                7.40636802               -1.70724095               -2.63643561               -1.98114815               29.80614761               -0.13314802
              11.41766095               10.81334143               50.58996381                0.36004320                6.46087598               -1.23952336               -2.98627886               -0.36710625               30.07302365                0.32000160
              12.47926461               10.45080942               50.61802132                0.36783439                5.90358366               -1.05183547               -3.14025240               -0.25128538               31.27405045                0.65650996
              13.53573263               10.07987899               50.65145442                0.39177994                5.25000217               -0.83863046               -3.03900536               -0.28897017               33.02270173                0.96029123
              14.58426465                9.69881654               50.69481929                0.43160614                4.15370541               -0.69141162               -2.56307723               -0.34845168               35.31050029                1.42058988
              15.61880674                9.31145832               50.75603097                0.57385791                2.26500026               -0.21859708               -1.43273597               -0.09369266               28.62806098                2.82212387
              16.62956466                8.92823850               50.65314444                0.69826872                1.00910666                0.77785389               -2.72280074               -0.13090674               10.62417250                0.84380548
              17.63898887                8.54988376               50.35406695                0.87596406                0.94242110                1.04813939               -3.54804506                0.17961358                0.74334787               -1.29057353
               4.15282749                2.29110075               52.80481268                1.00000000               -0.68022030               -0.80078645                2.77456104               -0.21949936               -0.98010998                0.92292407
               5.14602529                1.93400280               52.60216308                1.00000000               -0.54860578               -0.41640295                1.58556903               -0.15181808               -1.30347516                0.15127445
               6.14185538                1.57601268               52.39335492                1.00000000               -0.30997730               -0.05000731                0.45525897               -0.17249027               -1.22726785               -0.20950283
               7.13982575                1.21492751               52.19184570                0.68015464               -0.49191159                0.40776006               -0.68675533               -0.42848053                0.08913127               -0.84141518
               8.13201715                0.84605495               52.00798039                0.70562950               -0.56252658                0.86151702               -1.56303346               -0.27001446                1.52113795               -0.01029647
               9.12857521                0.47119888               51.82976514                0.68407489               -0.16180164                1.11073414               -2.58161754               -0.27308216                2.25140686               -0.10975053
              10.12878111                0.08853188               51.65443239                0.51589163               -0.04819457                1.58185460               -3.85161940               -0.62064036                3.76365090               -0.28772545
              11.12761132               -0.30697792               51.49698535                0.21317323               -2.22656948                2.47972713               -5.64971442               -2.88389117               10.93193129                0.30390420
              12.08424972               -0.75537107               51.44701334                0.00010000                0.16806712                4.31665769               -5.17755830               -3.06615491               11.35332876               -0.65429047
              13.13097266               -1.24539492               51.33787396                1.00000000                2.63726427                0.37611371               -1.67108466               -7.85975497                3.48144496                0.29059410
              14.13699501               -1.57909205               51.15636442                1.00000000                0.60223454                0.64826260               -2.40841571               -0.22403506               -0.11983696               -0.24787331
               4.50773045                3.28309289               52.72400330                1.00000000               -0.56793062               -0.76123907                2.46867209               -0.01397725               -0.23000725                1.23273917
               5.50205115                2.92983877               52.52132804                1.00000000               -0.40311655               -0.37892866                1.27774954                0.04695429               -0.35030633                0.23752699
               6.49966812                2.57551261               52.31658284                1.00000000               -0.07656686               -0.01019900                0.12192909                0.03624243               -0.23620263               -0.34503205
               7.50051981                2.21900511               52.11607686                0.48380257                0.07565998                0.41980202               -1.04980328               -0.24393647                1.51634014               -1.15810789
               8.50118132                1.85467012               51.94586611                0.56280491                0.20430582                0.75342278               -1.97412635               -0.13986753                2.74177072                0.04529054
               9.50460592                1.48230622               51.76988873                0.54358307                0.52408938                1.08825314               -3.04754721               -0.16881984                2.54594352               -0.04328702
              10.51166311                1.10435043               51.59358732                0.30822960                0.80589812                1.57323385               -4.37688593               -0.29585299                3.69707234               -0.38720881
              11.52072389                0.71781935               51.43645818                0.00010000                0.55667841                2.43310270               -6.26686797               -2.33576604               10.62059769                0.38887167
              12.52279668                0.28779551               51.39101141                0.00010000               -2.82441401               -1.14303941               -6.62032082              -12.50648523               18.39834620                9.77035578
              13.46423561               -0.24163378               51.39365524                1.00000000               -2.71724402                0.28080636               -1.02146592               -9.84124289                9.30303831                0.41869173
              14.46845180               -0.57260943               51.21003197                1.00000000                0.42161888                0.56873306               -1.81714319               -0.09851360                0.01400336               -0.21533824
               4.85905618                4.27587597               52.64995586                1.00000000               -0.45115256               -0.67770241                2.12336755               -0.01381379                0.00426724                1.52645114
               5.85454466                3.92642423               52.44232856                1.00000000               -0.28211472               -0.29123373                0.95846004                0.03780901                0.08903897                0.25623133
               6.85341389                3.57580870               52.23673443                0.82353763                0.06224267                0.08597427               -0.20128339               -0.00656966                0.30883351               -0.68853306
               7.85578951                3.22332355               52.03338360                0.00010000                0.62524024                0.46904870               -1.36669758               -0.46408670                3.10178355               -1.44820181
               8.86591869                2.86112340               51.88318413                0.00010000                0.98644986                0.69628738               -2.36408171               -1.11954381                4.22504417                0.32096947
               9.87551851                2.49296394               51.70880287                0.00010000                1.07161137                0.98858160               -3.50979050               -1.67706714                2.67285796                2.52558695
              10.88735092                2.11999656               51.52846472                0.00010000                1.09662087                1.12418131               -4.87359515               -2.59252551                4.00327002                5.45064853
              11.89745092                1.74168414               51.37904169                0.00010000               -4.68888817                0.82013267               -5.42176143              -10.91593238               21.10821786               10.52421314
              12.79357316                1.22176814               51.54157791                0.11534141               -5.14490909               -2.02752337               -5.45669689              -16.18984667               23.60062071               10.30518422
              13.79455274                0.76022121               51.45091389                0.81043631                0.17014386                0.09139323               -0.40662717               -6.58792312                4.87264085                0.45916598
              14.79697603                0.43228261               51.26422030                1.00000000                0.24232910                0.39131993               -1.20318379               -0.11021504                0.09035149               -0.17562154
               5.20635766                5.26953884               52.57543212                1.00000000               -0.34830672               -0.57879192                1.76828890               -0.03511944                0.13005987                1.34349557
               6.20287459                4.92401410               52.36189698                0.84590226               -0.18601291               -0.17814987                0.63196393               -0.00131470                0.33112095               -0.00348727
               7.20263740                4.57723210               52.15267878                0.27205638                0.15243904                0.21440500               -0.47502073               -0.08868520                0.93720688               -1.15371596
               8.20592337                4.22838609               51.95099556                0.00010000                0.32563271                0.59915214               -1.66205770               -0.69246553                5.05304350               -1.48664410
               9.20915006                3.86859586               51.82349232                0.00010000                0.31340252                0.89557159               -2.47563355               -1.72392953                8.66308377                1.69469457
              10.21219143                3.50207785               51.69741078                0.00010000                0.09711716                0.96267804               -3.30832975               -2.64487216                9.15848559                5.23547947
              11.21109240                3.12683405               51.58221590                0.00010000               -0.57788840                0.68389416               -3.89501010               -4.19701376               12.72949717                9.85732123
              12.20063366                2.73422201               51.52779971                0.00010000               -1.53148650               -0.66389605               -4.02119773               -9.86494381               20.42374843               13.67778256
              13.18046267                2.24724504               51.56156133                0.00010000               -3.93354894                3.03454530               -4.21274905               -9.77638232               20.73143054                2.31319210
              14.12196268                1.76019408               51.50673258                0.11757872               -2.91689858                4.03749596                0.29724428               -3.67818998                6.97674411               -2.07262394
              15.12212470                1.43521697               51.31855556                0.62913815                0.01620206                0.20838676               -0.52598736                3.69909616                0.31048924               -3.40284846
               5.54940328                6.26430013               52.49798634                1.00000000               -0.25781707               -0.47088533                1.42333291               -0.05055476                0.16528006                1.05094059
               6.54682511                5.92286123               52.27770388                0.52730036               -0.10675418               -0.04597521                0.28870896               -0.02881259                0.44636774               -0.41987674
               7.54726819                5.58009680               52.06323686                0.07138557                0.18756615                0.38035763               -0.80215441               -0.13613689                1.65506084               -1.68048354
               8.55057643                5.23530660               51.86671127                0.00010000                0.52400722                0.71428342               -1.81283108               -0.50956106                8.46866286                1.71332106
               9.55774834                4.87903483               51.78808864                0.00010000                0.69032220                0.92443946               -2.45526292               -1.11796992               13.61425012                3.23195287
              10.56438287                4.51221750               51.69464280                0.00010000                0.67590743                0.82767973               -3.08163983               -1.60195923               13.74344051                5.40221328
              11.57126649                4.13367444               51.61728968                0.00010000                0.76790948                0.39801197               -3.42603937               -2.62803266               16.17267227                7.37443316
              12.57974106                3.72840622               51.56866127                0.00010000                0.04034733               -0.21036298               -3.41752494               -4.79683700               18.69530729                6.63088311
              13.57207343                3.28245905               51.53619695                0.00010000               -2.33620262                2.91000548               -2.71689805               -5.52879063               20.41774157                1.36473198
              14.53301701                2.84097113               51.51334644                0.14449980               -2.55806255                5.88559581               -2.72429663               -1.14756548               12.08526894                0.03226512
              15.52091218                2.43645034               51.30769353                0.64909714               -1.21048282                1.61623787               -3.20546683                0.82536112                2.15936033               -5.07054353
               5.88822437                7.26012113               52.41777898                1.00000000               -0.17226973               -0.36888938                1.09811761               -0.03763211                0.01657587                0.81704377
               6.88650167                6.92309459               52.18893771                0.39498430               -0.03775346                0.06857252               -0.00497314               -0.01300776                0.42618147               -0.66134903
               7.88746930                6.58483925               51.96835283                0.00010000                0.51462250                0.54272886               -1.09946086               -0.20580821                5.85422285               -2.09790013
               8.89679412                6.24267176               51.84747405                0.00010000                1.12052267                0.70177673               -1.48657556               -0.28920773               12.66170356                3.51189668
               9.90987975                5.88708465               51.76010084                0.00010000                1.43592552                0.66480098               -2.47259244               -0.87061841               15.36766034                3.59064932
              10.92551263                5.51863145               51.69081810                0.00010000                1.62316389                0.45345145               -2.97712446               -1.37717833               17.08965883                4.88623320
              11.94234303                5.13479429               51.63336255                0.00010000                1.51998397                0.09287553               -3.21124228               -2.28757051               18.70793584                5.67603826
              12.95591231                4.73001475               51.58991901                0.00010000                0.74894570                0.27393136               -3.11962841               -3.70061995               20.46246080                5.11063027
              13.95732195                4.30544515               51.55900450                0.00613551               -0.54461192                1.78093442               -2.81684156               -3.82109787               22.07852788                3.54498886
              14.94502007                3.87790600               51.53894633                0.19836129               -0.48242262                2.48025289               -2.30095878               -0.96298219               11.99331833                1.55835374
              15.94767349                3.46754173               51.29875516                0.68858346                0.26534197                2.48761524               -3.36925277                0.79131760                1.04471054               -2.54809449
               6.22270371                8.25692235               52.33576342                0.97307444               -0.08568779               -0.27711236                0.79592876               -0.03697109                0.02125450                0.70963085
               7.22184684                7.92423268               52.09997476                0.33795869                0.04355764                0.15267689               -0.27493061                0.01881258                0.33734684               -0.67241945
               8.22357487                7.59095138               51.87051368                0.00010000                1.03500162                0.64416215               -1.34617253               -0.33893308                8.49882274               -2.27971662
               9.24254687                7.24934213               51.79728761                0.00010000                2.04007065                0.59509144               -1.98781719               -0.53869963               17.01220662                1.31542571
              10.26437628                6.89233085               51.73354767                0.00010000                2.32913989                0.37487664               -2.54725521               -0.99951526               18.43826024                3.14633864
              11.28912967                6.52128653               51.68258383                0.00010000                2.48777464                0.12373470               -2.97493263               -1.44453942               19.99962541                4.21998979
              12.31413177                6.13553195               51.64244685                0.00010000                2.29740712                0.00589255               -3.13469337               -2.09383979               21.41256419                4.87973541
              13.33507781                5.73388484               51.61082601                0.00010000                1.68142254                0.28703654               -3.04248190               -2.79672594               22.58404141                4.82425716
              14.34776022                5.31807774               51.58465093                0.03010748                0.82914891                0.89907582               -2.71069910               -3.05289549               23.43767899                3.81114844
              15.35166079                4.89057619               51.56137092                0.24240055                0.48534272                1.03567888               -2.01593710               -1.19403376               12.15263773                1.32266350
              16.35746708                4.48620265               51.30261568                0.71747017                0.58062911                1.55084599               -3.10005419                0.17401810                0.40921917               -1.55019286
               6.55286428                9.25457889               52.25353360                0.94423764               -0.00153865               -0.19233034                0.51570539               -0.03715328                0.02527924                0.69863108
               7.55284889                8.92614813               52.01092729                0.32822041                0.13584570                0.22570609               -0.54199289                0.04707008                0.20398211               -0.66417094
               8.55558119                8.59772249               51.77185746                0.00010000                1.58958834                0.67706951               -1.56378151               -0.58547599               10.47462021               -2.28318308
               9.58464066                8.25457358               51.73393012                0.00010000                3.11819299                0.36195363               -2.21486038               -1.04975696               21.01479910                0.43405298
              10.61794505                7.89458219               51.69843754                0.00010000                3.43900447               -0.00231277               -2.71935972               -1.32444694               21.92205356                2.29764342
              11.65342075                7.52110614               51.66951024                0.00010000                3.49614363               -0.21765316               -3.03366392               -1.45640724               23.16541528                3.50415304
              12.68786792                7.13491214               51.64837694                0.00010000                3.20056326               -0.21593189               -3.10611194               -1.73359756               24.35137731                4.31844752
              13.71743201                6.73575548               51.63223140                0.00010000                2.58523855                0.01300550               -2.92195835               -2.15050272               25.00905498                4.82266366
              14.73957269                6.32342666               51.61407969                0.05353083                1.77912383                0.32852068               -2.55086341               -2.60388005               24.50992723                4.54987632
              15.75301449                5.89861958               51.57926791                0.27748717                1.01641202                0.75577460               -2.00287125               -1.27048218               12.09425019                1.02729551
              16.75990093                5.49855865               51.30640943                0.73549581                0.68864464                1.11196866               -2.99281477                0.05438264                0.18243096               -1.58897324
               6.87882216               10.25307574               52.17142698                0.93782316                0.08224748               -0.10524382                0.23715436               -0.03668278                0.00591249                0.69461965
               7.87964463                9.92874680               51.92194151                0.36107865                0.23088679                0.29011678               -0.80275385                0.05087962                0.06874029               -0.63289254
               8.88343989                9.60449277               51.67362366                0.00010000                2.25237005                0.66003253               -1.78626228               -1.03577813               12.24624824               -1.98593838
               9.92469203                9.25658120               51.66692329                0.00010000                4.39574463               -0.10857296               -2.42118128               -1.66308907               24.67332459                0.15988077
              10.97135479                8.89228460               51.65709582                0.00010000                4.74897647               -0.59437783               -2.88323780               -1.43731922               25.29107620                1.60570609
              12.01967156                8.51693347               51.65039257                0.00010000                4.67278476               -0.65119951               -3.12407375               -1.21899593               26.44498557                2.64220110
              13.06481048                8.13121332               51.65014434                0.00010000                4.19408354               -0.57350910               -3.08057935               -1.23427100               27.73922321                3.51368001
              14.10355323                7.73414495               51.65598008                0.00010000                3.40040212               -0.38923214               -2.68582003               -1.47482074               28.31043337                4.52521813
              15.13281852                7.32464815               51.65544137                0.07631973                2.37829630               -0.10740750               -2.05465215               -1.85553889               25.43411252                6.22955529
              16.15111916                6.90569168               51.59504586                0.30768450                1.29290331                0.70440285               -2.12769310               -1.10982527               11.42167763                0.94364737
              17.15867659                6.50844202               51.30883567                0.74516741                0.75574299                0.95634276               -3.00812297                0.03660769                0.09173988               -1.75325023
               7.20078849               11.25247401               52.08923349                0.90828521                0.16609590               -0.01349999               -0.04482898               -0.04082370                0.00541314                0.60070772
               8.20244945               10.93195047               51.83326764                0.40085702                0.31213682                0.35292240               -1.06930791                0.02043946                0.16504367               -0.52708810
               9.20703123               10.61092314               51.58035277                0.00010000                3.05687981                0.64950844               -2.02237032               -1.78869009               13.94979357               -1.20774255
              10.26358705               10.25240213               51.59933511                0.00010000                6.09075873               -1.19968728               -2.63734046               -1.78155929               27.83034086                0.09186876
              11.32884640                9.88269463               51.61079271                0.00010000                6.32625319               -1.22719423               -3.06272142               -1.06378325               28.32481639                0.88361707
              12.39011211                9.50808215               51.62344701                0.00010000                5.85623067               -1.10696059               -3.24107887               -0.65769557               29.56496068                1.50150375
              13.44597102                9.12344196               51.64326122                0.00010000                5.21943257               -0.96103271               -3.08392028               -0.64778933               31.25736719                2.08439582
              14.49450076                8.72797084               51.67371168                0.00010000                4.24720877               -0.84359078               -2.45857328               -0.81769484               33.30910608                2.96501634
              15.53091519                8.32127852               51.71980197                0.11031873                2.62616746               -0.42355565               -0.95923578               -0.89052864               26.91622988                5.30378156
              16.54702411                7.91270763               51.61154756                0.34998878                1.21086062                0.71358007               -2.32720462               -0.69748748                9.61299784                0.88066710
              17.55513240                7.51768550               51.31051804                0.74479411                0.81082924                0.93814240               -3.08686582                0.03430583               -0.08362322               -1.47474091
               7.51905277               12.25280574               52.00537352                0.95974482                0.25515207                0.03317291               -0.32789560                0.12637909                0.28949323                0.51110076
               8.52160429               11.93580525               51.74604359                0.74551538                0.40808323                0.38547842               -1.35059372                0.14934404                0.80993209               -0.43167096
               9.52721443               11.61748294               51.49692219                0.45967197                4.78425350                0.65597975               -2.30440024               -3.14256902               15.64137111               -0.67427303
              10.61728936               11.23258746               51.53329792                0.36878347                8.35923320               -1.98146678               -2.89245439               -2.11687988               30.30618115               -0.09028926
              11.69439910               10.86774071               51.55871289                0.36015441                7.42404794               -1.49539159               -3.28289209               -0.33439053               30.75044289                0.35918690
              12.76577032               10.49479425               51.58541698                0.36759155                6.87834548               -1.32878942               -3.40990339               -0.22158175               32.18515989                0.69800413
              13.83196601               10.11199266               51.62054659                0.39073626                6.17962332               -1.14493017               -3.18508710               -0.27655662               34.27345945                1.02271018
              14.88936279                9.71727314               51.67022425                0.42898573                4.91525726               -1.06976986               -2.42156711               -0.30457885               37.15547614                1.56859434
              15.93027115                9.31617704               51.74602456                0.57917609                2.56998186               -0.51014785               -0.74618786                0.07010332               29.31798639                3.17437697
              16.94076242                8.91996328               51.62680368                0.70406021                0.95679086                0.72556451               -2.54407364               -0.07477721               10.15152708                0.77203437
              17.94940697                8.52720487               51.32017423                0.87340288                0.86445474                0.95193653               -3.22621899                0.15161555                0.70758073               -1.16876019
               4.35198376                2.38242472               53.83306445                1.00000000               -0.69187861               -0.82550368                2.86242051               -0.23491033               -0.91260467                0.87530394
               5.34506497                2.01784397               53.61811585                1.00000000               -0.54251713               -0.42051517                1.59821176               -0.16806586               -1.20100094                0.14219370
               6.34113341                1.65239411               53.39757233                1.00000000               -0.25999960               -0.03247224                0.38634246               -0.18328635               -1.10016529               -0.20133146
               7.33986498                1.28423585               53.18414380                0.67508129               -0.29938379                0.43172299               -0.84905319               -0.36961386                0.31000386               -0.81457025
               8.33514574                0.91019583               52.99032750                0.68668544               -0.22698367                0.92795362               -1.95828281               -0.26793854                1.80299144                0.00770975
               9.33532531                0.53224694               52.80079394                0.64909433                0.28118646                1.21848285               -3.17937235               -0.24401042                2.35984831               -0.12069466
              10.34076947                0.14911215               52.61127755                0.45618065                0.65569760                1.66649041               -4.64411048               -0.41939529                3.45785653               -0.30443047
              11.34843926               -0.24049265               52.43487543                0.09991037               -2.77845346                2.27981493               -6.30580842               -4.27668874               11.15788965                0.28037629
              12.28520040               -0.71004229               52.38649252                0.00010000               -1.69931844                2.75486897               -7.31478653               -9.39712271               13.34425227               -5.39285239
              13.31445289               -1.30130781               52.32061884                0.94523908                1.80412380                0.44131414               -2.03987544              -12.70368406                5.90220531                0.25880998
              14.32128287               -1.63858416               52.13248523                1.00000000                0.68299858                0.67502219               -2.68658131               -0.23229060               -0.01496896               -0.46627730
               4.71421540                3.37416968               53.74915702                1.00000000               -0.58157859               -0.78242724                2.54993807               -0.01963736               -0.20190919                1.17289619
               5.70839961                3.01363882               53.53416648                1.00000000               -0.40553942               -0.38113004                1.28437600                0.04143628               -0.29873291                0.22540229
               6.70610461                2.65206939               53.31745550                1.00000000               -0.05658153                0.00845921                0.05211142                0.03581860               -0.17210064               -0.33368209
               7.70726798                2.28855308               53.10479512                0.48666082                0.11780987                0.45056360               -1.20107169               -0.14516320                1.67674427               -1.11567986
               8.70846081                1.91947536               52.92442091                0.54830007                0.30795287                0.85642630               -2.30735002               -0.10682552                3.01037547                0.05025437
               9.71342704                1.54443177               52.73699702                0.51017756                0.72422517                1.20833847               -3.51165658               -0.12011477                2.68138334               -0.08855648
              10.72294531                1.16577705               52.54682422                0.25271766                1.09112747                1.65887674               -4.89782906               -0.18350150                3.56431793               -0.46215252
              11.73524959                0.78230550               52.37258892                0.00010000               -0.06542800                2.14580399               -6.25716925               -4.48385363               12.33496651                0.89416239
              12.72163675                0.31750640               52.35310424                0.00010000               -4.17813039               -2.69135930               -2.29965233              -17.71162722               20.57957622                2.00336637
              13.65168698               -0.29689467               52.38298124                1.00000000               -3.27002198                0.32707950               -1.17423754              -13.88107747               11.03574722                0.42810892
              14.65623631               -0.63183394               52.19179685                1.00000000                0.45493300                0.58082784               -1.92057708               -0.12180952                0.05084571               -0.34328249
               5.07265273                4.36677617               53.67162187                1.00000000               -0.46587465               -0.69192381                2.19979594               -0.01848442                0.02312378                1.44736864
               6.06799399                4.01022137               53.45193124                1.00000000               -0.28586030               -0.29121829                0.95846891                0.03634188                0.11648132                0.23651466
               7.06693553                3.65256330               53.23435253                0.81856572                0.07808786                0.10299565               -0.27403222                0.00773735                0.34043683               -0.65375082
               8.06955574                3.29324712               53.01898671                0.00010000                0.50975074                0.50806808               -1.51087848               -0.28473950                3.20616561               -1.38387153
               9.07713054                2.92732435               52.85825150                0.00010000                0.85327894                0.75785600               -2.62012018               -0.84400933                4.44874341                0.44336208
              10.08662132                2.55641371               52.67191850                0.00010000                1.10475855                0.92868392               -3.86373689               -1.39422317                2.79783605                2.77891387
              11.09922571                2.18228968               52.47772021                0.00010000                1.02057592                0.83322620               -5.23460171               -2.35087478                4.66042335                6.06754689
              12.10703284                1.80242343               52.32682526                0.00010000               -4.45288440               -0.35461512               -4.95175138              -12.90297195               22.14675634               11.46641849
              13.01016802                1.23613052               52.48673871                0.09084849               -6.04305819               -2.39283586               -5.73895875              -20.79054910               28.40895874                8.38272906
              13.98617168                0.70523378               52.44644920                0.72306684               -1.07214062                0.10008319               -0.44185069               -9.86057746                7.83030961                0.51016144
              14.98872521                0.37303240               52.25168225                1.00000000                0.25535352                0.39614522               -1.23836555               -0.14033101                0.11262092               -0.24388143
               5.42695532                5.36033120               53.59350236                1.00000000               -0.36159898               -0.58769715                1.83798673               -0.03627561                0.14542919                1.26762566
               6.42333933                5.00781445               53.36818557                0.82011552               -0.18608546               -0.17814176                0.62353526                0.00524386                0.36351241               -0.03537515
               7.42323361                4.65412931               53.14744900                0.25724907                0.17364061                0.22702766               -0.56712347               -0.05360088                0.94839183               -1.12359690
               8.42681214                4.29871444               52.93356852                0.00010000                0.25902145                0.63922702               -1.82080348               -0.52981782                5.22063037               -1.34396794
               9.42841404                3.93463248               52.79768947                0.00010000                0.18825549                0.85243027               -2.69596586               -1.36467707                9.02724992                1.93609319
              10.43057725                3.56300545               52.66307500                0.00010000                0.07520325                0.70854108               -3.57513019               -2.28728715                9.72594584                5.70600431
              11.42991810                3.18244158               52.54221059                0.00010000               -0.36139677               -0.00275242               -4.10232966               -4.23062793               13.76472246               10.72749093
              12.42334931                2.77521319               52.48618026                0.00010000               -1.34513397               -1.96274570               -4.26161087              -10.29627949               21.51495781               14.07350760
              13.40301542                2.26964968               52.51114333                0.00010000               -5.28878767                3.00292329               -5.22309290              -13.42880442               24.02734354                2.75325825
              14.31757356                1.70510699               52.50994079                0.08507604               -4.25914875                5.93216654                0.33544356               -5.06816948               10.10461644               -4.26673738
              15.31783245                1.37608897               52.31287612                0.61122854                0.02588872                1.15150472               -0.60175970                5.53971133                0.32960573               -5.34359419
               5.77696072                6.35502223               53.51255140                1.00000000               -0.26599584               -0.47669496                1.48356661               -0.04770530                0.15341996                0.99131489
               6.77430076                6.00665854               53.28049460                0.50841247               -0.09986002               -0.04796952                0.26949975               -0.01370669                0.45794332               -0.43673595
               7.77496352                5.65710385               53.05465682                0.05930345                0.20777222                0.38497254               -0.90487554               -0.08018269                1.74038377               -1.66431269
               8.77845621                5.30603166               52.84782688                0.00010000                0.52912372                0.76589485               -1.95117441               -0.32969066                8.77692232                2.12368612
               9.78554599                4.94437296               52.76240825                0.00010000                0.73051396                0.83649825               -2.68405806               -0.82711650               14.11945590                3.44675252
              10.79306649                4.57058453               52.66261361                0.00010000                0.84297064                0.55773544               -3.33752378               -1.36912792               14.45966626                5.68588034
              11.80240541                4.18223464               52.58171506                0.00010000                1.04163300               -0.16841258               -3.70671397               -2.58342931               17.28802382                7.63015273
              12.81389915                3.76316851               52.53267325                0.00010000                0.46463652               -0.78347641               -3.79457770               -5.27154110               20.39545376                6.74267377
              13.81169814                3.29618899               52.50771585                0.00010000               -1.77650723                2.30176368               -3.15956495               -6.59686288               21.93005054                1.80483967
              14.77836900                2.82387711               52.47835241                0.12122276               -2.70713272                8.20365701               -4.21324057               -0.76087690               13.38500214               -2.20669923
              15.75755548                2.39606249               52.27092952                0.63595417               -2.08135176                3.49484865               -4.00580497                1.62446668                3.41856392               -7.04875837
               6.12272860                7.35079730               53.42902857                1.00000000               -0.17450284               -0.37399232                1.14488850               -0.03771036                0.01138327                0.78041072
               7.12098357                7.00685506               53.18873311                0.37976538               -0.02358866                0.06801964               -0.03486272               -0.00156842                0.42643934               -0.64189784
               8.12225682                6.66182876               52.95676189                0.00010000                0.59828235                0.54306046               -1.21023941               -0.12410512                6.18563921               -2.04777165
               9.13294922                6.31403234               52.83107616                0.00010000                1.25310063                0.72697721               -1.78975250               -0.12726437               13.05136818                3.68266972
              10.14731884                5.95136245               52.73412447                0.00010000                1.61918984                0.55811577               -2.72801931               -0.70722614               15.74452695                3.69967067
              11.16533301                5.57416016               52.65964003                0.00010000                1.91733482                0.20011450               -3.27513656               -1.27524294               17.84186597                4.96522827
              12.18566553                5.17907333               52.59968487                0.00010000                1.93155617               -0.27282746               -3.55785820               -2.37904086               19.80034194                5.69536119
              13.20396414                4.75954367               52.55702739                0.00010000                1.23520178               -0.13324356               -3.52682966               -4.09655820               21.85462705                5.02296581
              14.21036957                4.31568496               52.52830217                0.00010000               -0.07408097                1.59832003               -3.40449496               -4.46959412               23.69821012                3.10571337
              15.20248252                3.86918013               52.51212302                0.17854851               -0.22092817                3.00551093               -3.27182859               -1.39293223               13.10645513                1.94448589
              16.20595101                3.44598594               52.26315581                0.67431899                0.34684885                3.60895572               -3.83264526                1.12679399                1.50688278               -2.30833991
               6.46409100                8.34754238               53.34393778                0.96319223               -0.08530531               -0.28288728                0.83459254               -0.03816974                0.02549896                0.69866139
               7.46323794                8.00801893               53.09701676                0.32529189                0.06065729                0.15807988               -0.31508670                0.02283172                0.34122872               -0.64021811
               8.46530414                7.66796506               52.85639109                0.00010000                1.15696411                0.65204419               -1.47242549               -0.27918840                8.71528962               -2.20016243
               9.48637722                7.32057121               52.77627092                0.00010000                2.29847566                0.56367510               -2.21573887               -0.44054106               17.44907796                1.19901762
              10.51127365                6.95553528               52.70661064                0.00010000                2.67367627                0.26296061               -2.85011823               -0.95116887               18.97634188                3.13670763
              11.53985075                6.57458682               52.65123058                0.00010000                2.90837131               -0.07538573               -3.32034242               -1.45891648               20.74175873                4.18664004
              12.56944108                6.17677809               52.60938849                0.00010000                2.77528007               -0.24204252               -3.52354643               -2.24709340               22.42790890                4.80922250
              13.59535635                5.76050364               52.57856977                0.00010000                2.16143540                0.07727371               -3.48126014               -3.15341122               23.87609703                4.70529332
              14.61266979                5.32815539               52.55566306                0.02462965                1.24265098                0.88119211               -3.18988081               -3.53658490               25.08484340                3.76137059
              15.62020937                4.88398732               52.53987692                0.22798002                0.69049768                1.17135497               -2.38056113               -1.47301091               13.15479671                1.61316269
              16.62647974                4.46824161               52.27138305                0.70360354                0.62703716                1.74448993               -3.19968372                0.11861465                0.57132835               -1.09723817
               6.80101211                9.34513956               53.25886729                0.93671174                0.00054130               -0.19815726                0.55049565               -0.03814386                0.02421858                0.70208259
               7.80101753                9.01001666               53.00526077                0.31590979                0.15543324                0.23539741               -0.59011877                0.04662827                0.21932189               -0.63035094
               8.80412078                8.67486964               52.75551289                0.00010000                1.77753276                0.69702181               -1.70200267               -0.56970915               10.68992193               -2.19764058
               9.83656818                8.32530584               52.71055911                0.00010000                3.50795341                0.30719334               -2.46415077               -0.99954917               21.43811280                0.42532463
              10.87427985                7.95662166               52.66967970                0.00010000                3.91718456               -0.12351306               -3.04885037               -1.33459153               22.48425816                2.23857471
              11.91491187                7.57265244               52.63744385                0.00010000                4.02635002               -0.38386945               -3.41323452               -1.50692060               23.92687280                3.43384090
              12.95480685                7.17423248               52.61560418                0.00010000                3.73033684               -0.38499146               -3.50440498               -1.86219030               25.35919860                4.26326934
              13.98951861                6.76108914               52.60147736                0.00010000                3.06736706               -0.09597881               -3.31039449               -2.40156135               26.24607030                4.88652561
              15.01615419                6.33330880               52.58728674                0.05226548                2.17087365                0.29186742               -2.90165710               -2.96161314               25.98903809                4.83337195
              16.03293608                5.89260723               52.55908832                0.26938313                1.18302730                0.78131786               -2.07914815               -1.47716429               12.92311901                1.10457214
              17.03981473                5.48087574               52.27713214                0.72299278                0.68786515                1.09516505               -2.88980253                0.01919715                0.24150540               -1.28306680
               7.13357391               10.34357924               53.17394499                0.93110181                0.08665130               -0.11129581                0.26678068               -0.03841976                0.00698224                0.69802556
               8.13444043               10.01272688               52.91361941                0.34733162                0.25234318                0.30406802               -0.86066699                0.04935761                0.09804087               -0.60267951
               9.13862078                9.68190550               52.65502810                0.00010000                2.50968954                0.69186053               -1.93212472               -1.07464314               12.47184235               -1.91385991
              10.18463422                9.32671507               52.64139842                0.00010000                4.93072228               -0.19112816               -2.69306250               -1.69283300               25.09620754                0.16841325
              11.23723522                8.95306501               52.62660690                0.00010000                5.37336529               -0.74148643               -3.23765746               -1.47191990               25.86856163                1.56713412
              12.29210152                8.56690943               52.61739865                0.00010000                5.32626764               -0.81595003               -3.51617354               -1.25108434               27.24540995                2.58630148
              13.34376058                8.16907826               52.61780980                0.00010000                4.80736388               -0.73407548               -3.45024947               -1.28118275               28.84666901                3.51165478
              14.38824880                7.75858406               52.62821875                0.00010000                3.90794290               -0.51511617               -2.95164141               -1.57119610               29.70068831                4.73996594
              15.42191943                7.33399274               52.63475035                0.07949879                2.74251709               -0.20860288               -2.20542561               -2.00906025               26.57640782                7.12495821
              16.44309914                6.89961368               52.57418197                0.30566477                1.42036161                0.68541254               -2.07832238               -1.25767885               11.82673996                0.90402409
              17.45032667                6.49014491               52.27989241                0.73443503                0.72275233                0.88466221               -2.80135302                0.02361400                0.11548925               -1.55030169
               7.46194844               11.34291364               53.08889797                0.89901531                0.17299782               -0.02006420               -0.02097598               -0.04248511                0.00941683                0.60153880
               8.46367842               11.01609802               52.82222852                0.38315946                0.33456384                0.37256855               -1.13830903                0.01788308                0.20545230               -0.50912321
               9.46863972               10.68870685               52.55934766                0.00010000                3.39367928                0.68792617               -2.17559319               -1.90644216               14.19015169               -1.16816223
              10.53155200               10.32148328               52.57161059                0.00010000                6.80036861               -1.37491833               -2.92005513               -1.85845648               28.27007785                0.11119145
              11.60464709                9.94179193               52.57849107                0.00010000                7.11624688               -1.41901051               -3.42447535               -1.09171523               28.93562781                0.87016876
              12.67387694                9.55633344               52.58935310                0.00010000                6.64307347               -1.30399321               -3.62348586               -0.66041878               30.43337413                1.47516053
              13.73750856                9.15955097               52.61117870                0.00010000                5.96516322               -1.16578950               -3.39982440               -0.64563257               32.51461106                2.10073994
              14.79318021                8.75078682               52.64894894                0.00010000                4.87174030               -1.07103849               -2.58462213               -0.83834111               35.26939964                3.16795872
              15.83494336                8.32913674               52.71227284                0.11883579                2.92250644               -0.57460192               -0.67676442               -0.89018689               27.72614880                6.08108568
              16.85163033                7.90631548               52.58895667                0.35527118                1.21405974                0.67766331               -2.22521646               -0.76106902                9.20950809                0.80005734
              17.85922456                7.49856898               52.28105764                0.73623630                0.75942251                0.85256351               -2.82831682                0.02898542               -0.06128265               -1.33412033
               7.78635546               12.34317795               53.00216916                0.95431969                0.26494265                0.02643106               -0.31108903                0.14073095                0.28499794                0.51040577
               8.78900488               12.02017825               52.73214393                0.73496283                0.43756112                0.40802260               -1.42950626                0.15694975                0.84029585               -0.42190829
               9.79510668               11.69566402               52.47304148                0.45714915                5.26875615                0.69571707               -2.46445506               -3.40138087               15.89157480               -0.66131738
              10.89438001               11.29921671               52.50305152                0.36868054                9.27220392               -2.22665708               -3.16905521               -2.26616070               30.79823102               -0.04919193
              11.98055076               10.92468480               52.52430597                0.36015770                8.33770553               -1.71071297               -3.62414223               -0.32899022               31.43785440                0.38347257
              13.06113412               10.54082957               52.54982325                0.36735810                7.79218968               -1.55038726               -3.75262031               -0.22039936               33.14270577                0.72180755
              14.13639455               10.14576247               52.58775267                0.38977501                7.03810446               -1.37884986               -3.43755165               -0.29471452               35.65293170                1.07995594
              15.20189621                9.73716329               52.64638795                0.42720917                5.60962407               -1.36235211               -2.43182865               -0.29148844               39.25370638                1.76733430
              16.24858703                9.32250070               52.74110721                0.58533256                2.82746576               -0.66360407               -0.39697275                0.16454936               29.91583957                3.55921011
              17.25844552                8.91316695               52.60226297                0.70903940                0.89061691                0.68514669               -2.39667338               -0.08370748                9.44400300                0.70072887
              18.26639937                8.50719618               52.28954257                0.86964100                0.79538496                0.86271949               -2.92116135                0.12040412                0.69032978               -1.04933150
               4.56447261                2.47642171               54.86206110                1.00000000               -0.69752125               -0.84283109                2.92355626               -0.24755764               -0.85026566                0.83203858
               5.55749740                2.10474541               54.63412732                1.00000000               -0.53242437               -0.42139817                1.59835306               -0.18203970               -1.10903039                0.13476356
               6.55382412                1.73221971               54.40108177                1.00000000               -0.21133731               -0.01609365                0.31734072               -0.19326180               -0.99883687               -0.18979709
               7.55327065                1.35733347               54.17486464                0.66824291               -0.11986423                0.45151374               -0.99655688               -0.32800646                0.41458932               -0.78623246
               8.55142684                0.97802232               53.96881473                0.66568282                0.07757399                0.97288871               -2.30528349               -0.27172304                1.83841412                0.03425439
               9.55482213                0.59637883               53.76617769                0.61428213                0.62149585                1.30317036               -3.67111879               -0.23280353                2.17900278               -0.13249569
              10.56385675                0.21134994               53.56155018                0.39929577                1.03660082                1.73147796               -5.17235855               -0.30873008                3.04733091               -0.37310122
              11.57555415               -0.17679738               53.37086918                0.00010000               -4.92326970                2.05501543               -6.37055132              -11.83116957                9.94984489                0.08151961
              12.46539136               -0.79645156               53.30071761                0.00010000               -3.62650439                2.40682042               -6.86311191              -13.54685445               14.91423015               -2.74974212
              13.50302406               -1.36494352               53.29707646                0.85852541                2.37857425                0.60415563               -3.08382064              -11.20607701                9.17267678                0.29089147
              14.51296285               -1.70704085               53.10263279                1.00000000                0.99387864                0.83687494               -3.76372801               -0.32226923                0.08671312               -0.71613963
               4.93367333                3.46799340               54.77500206                1.00000000               -0.58953324               -0.79718529                2.60690505               -0.02483190               -0.17444501                1.11874696
               5.92777800                3.10053143               54.54701556                1.00000000               -0.40379300               -0.38049887                1.28073986                0.03558003               -0.25000492                0.21512256
               6.92559747                2.73205877               54.31762507                1.00000000               -0.03443592                0.02602407               -0.01575657                0.03301085               -0.11719193               -0.31969404
               7.92708928                2.36184861               54.09205543                0.48053783                0.17947289                0.47696241               -1.33968530               -0.07821867                1.76747064               -1.07016135
               8.92918693                1.98775120               53.89971911                0.52950843                0.43705019                0.93498845               -2.61862104               -0.09515747                3.13337717                0.08521150
               9.93583029                1.60941053               53.69965559                0.47799492                0.90853142                1.30427046               -3.92657435               -0.09510520                2.70302216               -0.13238607
              10.94735756                1.22866472               53.49563074                0.20343588                1.26564560                1.73055969               -5.30170554               -0.19309454                3.66657276               -0.59684701
              11.96114320                0.84375277               53.31131480                0.00010000               -1.16808366                1.71092786               -6.01058335              -12.26173291               15.64981075                1.35937433
              12.92399589                0.22761665               53.34501836                0.00010000               -5.74426316                1.39175941               -2.85959556              -21.29588543               23.62148419                0.06993063
              13.84625793               -0.35890197               53.37017049                0.94845258               -3.60792029                0.42042057               -1.54884858              -12.15487088               11.13229700                0.51306820
              14.85183748               -0.69867210               53.17162043                1.00000000                0.55795449                0.66832792               -2.30011142               -0.18703811                0.13437903               -0.45911433
               5.29889991                4.46047800               54.69395178                1.00000000               -0.47562884               -0.70157898                2.25551538               -0.02293316                0.04397226                1.37395243
               6.29414362                4.09713543               54.46149793                1.00000000               -0.28663777               -0.28940949                0.95159990                0.03411927                0.14741617                0.21731170
               7.29316716                3.73274019               54.23125378                0.81354730                0.09351107                0.11985464               -0.34247836                0.01810543                0.37453218               -0.62472846
               8.29601385                3.36687272               54.00316603                0.00010000                0.43973057                0.54089701               -1.64542957               -0.15059383                3.28943971               -1.32782345
               9.30196177                2.99672209               53.83078173                0.00010000                0.79963350                0.77048862               -2.89955681               -0.67034197                4.62143471                0.58468979
              10.31200652                2.62246424               53.63152814                0.00010000                1.18454273                0.80461441               -4.22693051               -1.22010074                2.92537041                3.01804807
              11.32565262                2.24596113               53.42377268                0.00010000                0.96805209                0.43621566               -5.57792619               -2.45595151                5.81209994                6.60783902
              12.33136756                1.85742117               53.28000666                0.00010000               -4.17621172               -1.69543005               -4.08869678              -15.68603134               23.19242737               11.42692385
              13.24212839                1.23138363               53.42679873                0.06895553               -7.25760848                2.68582045               -5.82360341              -25.03515798               31.57039978                4.86523139
              14.18621539                0.64346489               53.44207687                0.65043026               -2.66830194                0.09290483               -0.45286517              -12.44968209               11.06568298                0.51148149
              15.18876235                0.30632571               53.23945299                1.00000000                0.25469622                0.38849608               -1.29704337               -0.16348471                0.21395923               -0.44884652
               5.65989981                5.45396182               54.61219186                1.00000000               -0.37016128               -0.59388953                1.89106774               -0.03758934                0.16325250                1.19403538
               6.65619820                5.09474324               54.37436769                0.79887341               -0.18387598               -0.17782306                0.61068799                0.01144893                0.39645875               -0.06824069
               7.65622229                4.73445587               54.14133631                0.24275520                0.19486550                0.23787324               -0.64607042               -0.02501318                0.96225719               -1.10072370
               8.66009551                4.37266655               53.91457949                0.00010000                0.19831419                0.66999760               -1.95861496               -0.44726466                5.38982993               -1.19894442
               9.66018858                4.00316098               53.76957300                0.00010000                0.10468590                0.74064000               -2.92109310               -1.18873880                9.38979356                2.14264293
              10.66218923                3.62550282               53.62590817                0.00010000                0.15465070                0.34529186               -3.86011592               -2.17545346               10.36519694                6.10862067
              11.66328159                3.23738903               53.50016930                0.00010000               -0.00945788               -0.85789581               -4.28377013               -4.71719716               14.88923990               11.32647799
              12.66200007                2.80984417               53.44256749                0.00010000               -1.30162900               -3.25043061               -4.37501133              -11.28870942               22.34808264               13.65296334
              13.63724901                2.28133306               53.45709947                0.00010000               -6.98389280                3.50066833               -5.20090730              -17.20105704               27.44126124                2.70081717
              14.52232221                1.64295613               53.51344146                0.06198745               -5.72014333                7.55950109                0.36735048               -6.04736150               13.48050360               -7.27790565
              15.52284614                1.30909782               53.30652037                0.60334539                0.05239301                1.94348873               -0.77670167                7.38251375                0.36157747               -7.76084226
               6.01658529                6.44860021               54.52765767                1.00000000               -0.27067304               -0.48094266                1.53213562               -0.04496701                0.14344473                0.92931318
               7.01387856                6.09357897               54.28309388                0.49304434               -0.09208529               -0.05043819                0.24898194               -0.00018089                0.47018001               -0.45464990
               8.01474358                5.73749766               54.04513935                0.04761738                0.22424420                0.38468387               -0.98507084               -0.03447786                1.84166754               -1.64443707
               9.01836344                5.38027267               53.82768778                0.00010000                0.53035717                0.76072839               -2.04946827               -0.27996847                9.08249756                2.45016786
              10.02535072                5.01153489               53.73440747                0.00010000                0.79529769                0.68573539               -2.90745301               -0.74423758               14.61620230                3.57530198
              11.03426939                4.62937007               53.62789233                0.00010000                1.08083020                0.19081118               -3.60560369               -1.40656734               15.20080719                5.81118028
              12.04696733                4.22880321               53.54315540                0.00010000                1.36899736               -0.81804719               -4.01095509               -2.96382929               18.36338074                7.56893386
              13.06164934                3.79241256               53.49276971                0.00010000                0.90139792               -1.26333115               -4.17217532               -6.25093681               21.92672964                6.35545919
              14.06499529                3.30139700               53.47300565                0.00010000               -1.20729752                1.91395774               -3.78885495               -7.94080733               22.70892918                1.62359093
              15.03750339                2.79465491               53.42908163                0.10188846               -3.04330228               10.61575348               -5.23126094               -0.31140955               13.94700559               -5.66861047
              16.00412924                2.34519549               53.22757743                0.62922608               -3.33741497                5.59117856               -4.68253808                2.69902837                4.71745248              -10.30193760
               6.36904296                7.44434297               54.44067675                0.99577182               -0.17458161               -0.37716765                1.17930492               -0.03732629                0.01250642                0.74219463
               7.36729714                7.09373447               54.18824045                0.36777148               -0.01019612                0.06608462               -0.06145888                0.00730621                0.42948506               -0.62363243
               8.36883903                6.74214954               53.94414804                0.00010000                0.65808846                0.53497390               -1.30093300               -0.09852174                6.45228782               -1.99632458
               9.38045891                6.38788112               53.81167900                0.00010000                1.36836956                0.67834311               -2.06757271               -0.11642076               13.41687828                3.75276569
              10.39620642                6.01687569               53.70554046                0.00010000                1.81653221                0.39874463               -2.98344203               -0.74846755               16.16619695                3.67933896
              11.41678955                5.62931904               53.62531537                0.00010000                2.23780456               -0.10772798               -3.59705811               -1.44650034               18.57422548                4.84570737
              12.44096252                5.22102809               53.56220539                0.00010000                2.37989983               -0.65030611               -3.96244751               -2.81790277               20.83202978                5.42262714
              13.46438755                4.78457755               53.51938242                0.00010000                1.76139993               -0.44359124               -4.06006066               -4.83700174               23.06388452                4.56558228
              14.47619051                4.31961221               53.49091461                0.00010000                0.39539931                1.64617931               -4.16047368               -5.30758491               24.84197299                2.31147502
              15.47229554                3.85527120               53.47350976                0.15703942               -0.02224751                4.06096126               -4.67072001               -1.85787397               14.04164859                2.31852599
              16.47574556                3.42092139               53.22210226                0.66187255                0.34500287                5.25430350               -4.59584627                1.65262673                2.23780693               -2.51492429
               6.71705574                8.44105686               54.35245527                0.95221045               -0.08376397               -0.28648154                0.86769045               -0.03968328                0.03297539                0.69284334
               7.71621810                8.09490066               54.09367302                0.31472997                0.07853793                0.16019947               -0.35215643                0.02164277                0.34274832               -0.61010800
               8.71862650                7.74819713               53.84106517                0.00010000                1.25453894                0.64915645               -1.58141094               -0.29094383                8.91166073               -2.12495551
               9.74130888                7.39383954               53.75297283                0.00010000                2.51584738                0.50357292               -2.43914105               -0.49550788               17.85158696                1.05157101
              10.76894345                7.01950978               53.67654531                0.00010000                2.99390521                0.12408660               -3.16460492               -1.10424855               19.48451151                2.98455139
              11.80118699                6.62721551               53.61617698                0.00010000                3.32036590               -0.28520747               -3.70873840               -1.72342607               21.44189204                3.95503088
              12.83535077                6.21579709               53.57197592                0.00010000                3.25690968               -0.46359305               -4.00432597               -2.68094543               23.35979112                4.49770994
              13.86632518                5.78354074               53.54120080                0.00010000                2.63995836               -0.03702716               -4.07562104               -3.75965982               25.03848461                4.33502261
              14.88814994                5.33432058               53.52085331                0.01628966                1.63557739                1.06973014               -3.90711536               -4.10573124               26.64704779                3.52705448
              15.89903673                4.87587414               53.51375970                0.20915964                0.88657270                1.55673876               -3.02695467               -1.73515518               14.20436254                2.18342740
              16.90588139                4.45028156               53.23862201                0.68904550                0.68446605                2.17332812               -3.48285080                0.08563394                0.86089947               -0.61942827
               7.06056168                9.43861334               54.26454352                0.92870421                0.00280392               -0.20256456                0.58471225               -0.03962619                0.02263388                0.71271659
               8.06058972                9.09693846               53.99912492                0.30505371                0.17598011                0.24123991               -0.63590170                0.04117855                0.23048904               -0.60089899
               9.06408129                8.75513267               53.73781741                0.00010000                1.93231917                0.70918364               -1.83066008               -0.62573285               10.88232384               -2.11941484
              10.09923611                8.39795258               53.68464711                0.00010000                3.83320951                0.25292267               -2.71879639               -1.10233768               21.81423700                0.33872480
              11.14074548                8.01935742               53.63746054                0.00010000                4.33988065               -0.23469330               -3.40719465               -1.52776734               22.99609147                2.04979417
              12.18603372                7.62361489               53.60124555                0.00010000                4.51364542               -0.52326352               -3.85874911               -1.77056576               24.62987674                3.19196906
              13.23101838                7.21175622               53.57828884                0.00010000                4.23185710               -0.49626020               -4.02180874               -2.21024502               26.29877638                4.03106281
              14.27067086                6.78383700               53.56602351                0.00010000                3.53620534               -0.10340233               -3.88449553               -2.82240707               27.41354547                4.82902082
              15.30174249                6.34100681               53.55604654                0.04862443                2.54803004                0.39203148               -3.47205583               -3.35987483               27.52913278                5.08346167
              16.32163146                5.88640598               53.53768494                0.25651111                1.34504579                0.90148374               -2.28416300               -1.65718421               13.85428860                1.29141259
              17.32864341                5.46438796               53.24861338                0.70874857                0.70119450                1.16144662               -2.87606473               -0.01759649                0.34074135               -0.94352204
               7.39961296               10.43700557               54.17676260                0.92402631                0.09093766               -0.11663592                0.29703148               -0.04030867                0.00795715                0.70724872
               8.40052234               10.09972546               53.90472817                0.33402499                0.27423852                0.31525087               -0.91658458                0.04471606                0.12644241               -0.57882846
               9.40509773                9.76238081               53.63498117                0.00010000                2.72575227                0.72069233               -2.07451537               -1.17282845               12.67194741               -1.84977895
              10.45503738                9.39889799               53.61306204                0.00010000                5.38140274               -0.24898653               -2.98118704               -1.84779020               25.45882037                0.11128453
              11.51272579                9.01481591               53.59234267                0.00010000                5.91697403               -0.84792405               -3.63753105               -1.65383868               26.38723120                1.42158192
              12.57337686                8.61675024               53.58006910                0.00010000                5.90989844               -0.92270673               -3.99594161               -1.44428942               27.99463377                2.40103665
              13.63092376                8.20587189               53.58113935                0.00010000                5.36247923               -0.81211703               -3.96307076               -1.48142695               29.93569599                3.39698382
              14.68062645                7.78147269               53.59694725                0.00010000                4.37298552               -0.53380953               -3.41262794               -1.77934565               31.08286748                4.92943484
              15.71838347                7.34216121               53.61133286                0.08117472                3.09427262               -0.22317250               -2.61132430               -2.19404675               27.78010933                8.21195225
              16.74251190                6.89390381               53.55347941                0.29953625                1.55910157                0.71109009               -2.11178082               -1.39263603               12.30124712                0.87466969
              17.74956550                6.47351049               53.25280861                0.72120481                0.70535962                0.84824897               -2.64905322                0.01373797                0.15049010               -1.34957791
               7.73431572               11.43628062               54.08881398                0.89014714                0.17930829               -0.02670460                0.00549501               -0.04420247                0.01249790                0.60734127
               8.73610881               11.10324348               53.81050146                0.36495642                0.35682331                0.39054026               -1.20548064                0.01407243                0.25100317               -0.49754661
               9.74145219               10.76954652               53.53684090                0.00010000                3.68681943                0.72440726               -2.32691875               -2.06150161               14.40995471               -1.13440703
              10.80984520               10.39297285               53.54093400                0.00010000                7.41821288               -1.50881175               -3.22729685               -2.00977385               28.64747397                0.09451093
              11.88981645               10.00239894               53.54230320                0.00010000                7.81233802               -1.55177766               -3.84332782               -1.20767073               29.49229146                0.79544406
              12.96609196                9.60516076               53.55097729                0.00010000                7.34254751               -1.42300656               -4.10806302               -0.75420944               31.27200490                1.37507524
              14.03666740                9.19551388               53.57526474                0.00010000                6.63513332               -1.27140257               -3.87261429               -0.72318804               33.80844856                2.05978778
              15.09879462                8.77316081               53.62201924                0.00010000                5.43815188               -1.18654429               -2.91844091               -0.92572967               37.40938623                3.38426525
              16.14543044                8.33654336               53.70626669                0.12808847                3.18174227               -0.62343645               -0.60548750               -0.91017891               28.55620240                7.01353985
              17.16242947                7.90062778               53.56704323                0.35760257                1.21371894                0.67307250               -2.20751876               -0.82476003                8.68479945                0.70435066
              18.16970481                7.48135294               53.25395171                0.72439964                0.72753466                0.78689501               -2.61788941                0.02695964               -0.03011146               -1.20795305
               8.06480318               12.43647148               53.99915174                0.94868366                0.27347027                0.01908604               -0.28970797                0.15522499                0.28189581                0.51378139
               9.06753789               12.10753627               53.71745346                0.72410327                0.46675760                0.42927858               -1.50521637                0.16278166                0.88359347               -0.41797853
              10.07413834               11.77686895               53.44763309                0.45459690                5.72258019                0.73224331               -2.61946746               -3.67211111               16.13516096               -0.65181373
              11.18198949               11.36872175               53.46991682                0.36854822               10.11230629               -2.42510927               -3.47092831               -2.44000011               31.25160022               -0.01548583
              12.27638446               10.98378036               53.48623005                0.36029462                9.15941192               -1.86185761               -4.02333061               -0.36478069               32.10086852                0.38695493
              13.36517773               10.58829011               53.51036457                0.36712831                8.60377395               -1.68706459               -4.19791437               -0.25824889               34.10067237                0.72050345
              14.44845994               10.18044384               53.55179555                0.38874204                7.79523237               -1.50700472               -3.84515433               -0.34816111               37.11031017                1.12270796
              15.52108238                9.75774181               53.62158767                0.42566077                6.21264921               -1.54190085               -2.64104476               -0.30879222               41.51357086                2.00503477
              16.57271292                9.32969248               53.73808510                0.59246763                3.00623768               -0.68508792               -0.31362973                0.20942172               30.48399687                3.90055515
              17.58120713                8.90736526               53.57887021                0.71267044                0.79707252                0.67374836               -2.33331414               -0.14443869                8.62446560                0.62580722
              18.58865437                8.48924839               53.26175101                0.86379826                0.74472454                0.78954516               -2.65871233                0.08326866                0.68778000               -0.94062263
               4.79084599                2.57318356               55.89153558                1.00000000               -0.69823080               -0.85296281                2.95841818               -0.25672821               -0.79421696                0.79379166
               5.78386369                2.19476277               55.65008291                1.00000000               -0.52133174               -0.41921162                1.58784632               -0.19231684               -1.02820579                0.12880644
               6.78041936                1.81551159               55.40391914                1.00000000               -0.17199387               -0.00080829                0.25377546               -0.20150278               -0.91960356               -0.17579808
               7.78042381                1.43412963               55.16421266                0.65854102                0.00908048                0.47188357               -1.12099150               -0.31201610                0.43705704               -0.75788338
               8.78060097                1.04907217               54.94422183                0.64349427                0.28730531                1.01404339               -2.57237522               -0.28169907                1.73930971                0.05081230
               9.78616991                0.66264122               54.72737156                0.58012149                0.82118152                1.37923824               -4.02457120               -0.23856416                1.93048225               -0.15548421
              10.79702460                0.27348901               54.50783038                0.34434201                1.10494037                1.81286028               -5.51139294               -0.36043975                2.88043009               -0.48086522
              11.80826872               -0.11975350               54.30746440                0.00010000               -6.98734368                2.01090060               -6.35207191              -17.29743638               10.70794278               -0.15528682
              12.65727773               -0.85363864               54.24923028                0.00010000               -5.61387384                4.64625253               -5.70643349              -18.30292625               16.83378539               -0.05751962
              13.69599124               -1.44167806               54.25894243                0.77304080                2.73133705                1.00443364               -5.02478195              -11.68821792                9.91562542                0.60040398
              14.71190447               -1.79088222               54.05721067                1.00000000                1.59132214                1.30458018               -5.85524126               -0.50846007                0.11575730               -0.76701394
               5.16669950                3.56465394               55.80129512                1.00000000               -0.59229969               -0.80590709                2.63999024               -0.02863449               -0.14883925                1.07095320
               6.16077651                3.19057066               55.55978128                1.00000000               -0.39893002               -0.37736506                1.26861076                0.03130931               -0.20548747                0.20636958
               7.15872090                2.81550350               55.31714037                1.00000000               -0.01265747                0.04229502               -0.07724012                0.03082625               -0.07370580               -0.30449753
               8.16052336                2.43884846               55.07800141                0.47085596                0.24036397                0.50184797               -1.45886698               -0.04490593                1.78997623               -1.02411453
               9.16352818                2.05921260               54.87204849                0.50966578                0.55262478                1.00460439               -2.89933897               -0.09093528                3.15689937                0.10939888
              10.17157585                1.67643360               54.65846553                0.44844868                1.05446901                1.39404374               -4.28967536               -0.08135664                2.69633166               -0.19289375
              11.18461756                1.29161761               54.44079011                0.15897407                1.36411633                1.82094468               -5.66418696               -0.30567544                4.09339297               -0.77100383
              12.19885818                0.90035550               54.25237726                0.00010000               -2.47034103                0.97313576               -5.81432758              -16.96035537               17.20223623                2.22799780
              13.13521074                0.19282389               54.29591233                0.00010000               -7.55636602                3.74963399               -5.11297869              -25.48805738               27.08751789                3.06873220
              14.04773086               -0.43163373               54.35200427                0.77905700               -3.95933576                0.69352527               -2.60647887              -13.59102368               13.04354182                0.83115694
              15.05602403               -0.77783642               54.14579463                1.00000000                0.82931679                1.00188759               -3.49730227               -0.30288484                0.39610971               -0.51387413
               5.53843986                4.55706542               55.71673218                1.00000000               -0.47995583               -0.70739591                2.29010749               -0.02653535                0.06534700                1.30750821
               6.53364031                4.18721547               55.47096324                1.00000000               -0.28408940               -0.28584787                0.93870933                0.03198016                0.17891013                0.19778724
               7.53275808                3.81635749               55.22750296                0.80896514                0.10881435                0.13628793               -0.40274096                0.02485806                0.40632636               -0.59894261
               8.53581659                3.44416659               54.98607811                0.00010000                0.42195248                0.56826677               -1.75527755               -0.06722729                3.30851929               -1.27165090
               9.54119713                3.06916425               54.80026037                0.00010000                0.81605899                0.73234972               -3.22416367               -0.61457255                4.73114816                0.75387610
              10.55213777                2.69052209               54.58737989                0.00010000                1.28960317                0.61900351               -4.61762669               -1.17736606                3.05795144                3.27583564
              11.56698919                2.30990790               54.36616169                0.00010000                0.78587811               -0.10145943               -5.95819556               -3.21934326                7.76312733                7.20529171
              12.56785533                1.89970921               54.24505132                0.00010000               -4.37416916               -3.24230484               -2.60225349              -18.70156200               24.28954161               10.36223001
              13.47950581                1.22135404               54.37026664                0.04838999               -8.65121268                4.23176120               -5.15827196              -29.08804145               33.56704530                4.11533931
              14.39483108                0.57219244               54.43739190                0.58879946               -4.06268224                0.20889220               -0.71698501              -15.10833183               14.25392964                0.49212843
              15.39825216                0.22915553               54.22574138                1.00000000                0.34210798                0.52920506               -1.94391904               -0.15958413                0.52694631               -0.96526804
               5.90586870                5.55050602               55.63132371                1.00000000               -0.37446529               -0.59709099                1.92629184               -0.03936476                0.18187054                1.12635503
               6.90212405                5.18485370               55.38039933                0.77398441               -0.18008759               -0.17613491                0.59459880                0.01528102                0.43204193               -0.10422009
               7.90226695                4.81822926               55.13452759                0.22760637                0.21239986                0.25229464               -0.70787819               -0.00975057                0.98288769               -1.08163995
               8.90637204                4.45021380               54.89439622                0.00010000                0.13071389                0.68844624               -2.05638048               -0.46741131                5.53877749               -1.03027024
               9.90488123                4.07385959               54.73926761                0.00010000                0.04564210                0.53736450               -3.11675846               -1.24658785                9.70586279                2.36380852
              10.90728489                3.68881367               54.58587268                0.00010000                0.30811771               -0.15605772               -4.12556217               -2.40371213               11.04796734                6.51341434
              11.91104358                3.28958842               54.45653518                0.00010000                0.30479550               -1.91653351               -4.40559318               -5.77489098               16.12838148               11.80521558
              12.91338080                2.83550941               54.39868003                0.00010000               -1.50384491               -4.31232231               -4.35682795              -12.87005761               23.27403721               12.19505778
              13.88096668                2.27745911               54.40712518                0.00010000               -8.78090296                3.67458160               -4.61844902              -20.64531451               30.80182269                1.84601423
              14.73776274                1.57254412               54.51728780                0.04820753               -7.10302540                8.91220760                0.35134687               -6.84025925               16.86154785              -10.79182125
              15.73890617                1.23274768               54.29734209                0.60517927                0.11434370                2.26431595               -1.26087878                8.85339463                0.46742912              -10.74409454
               6.26895721                6.54512360               55.54319411                1.00000000               -0.27345242               -0.48312109                1.56749462               -0.04395237                0.13155738                0.86744400
               7.26622268                6.18369277               55.28547424                0.47725987               -0.08771216               -0.05252154                0.22637350                0.01288523                0.49007768               -0.47358011
               8.26720296                5.82140338               55.03495540                0.03561074                0.23076754                0.38735904               -1.04955796               -0.00800863                1.98096500               -1.63034531
               9.27083803                5.45793551               54.80683752                0.00010000                0.52312663                0.67944014               -2.08674255               -0.39847570                9.36911756                2.69706804
              10.27766550                5.07991154               54.70425919                0.00010000                0.87483351                0.44759024               -3.09603176               -0.92046966               15.06185301                3.63935943
              11.28833470                4.68740094               54.59050154                0.00010000                1.35650694               -0.30120129               -3.85003395               -1.77333031               15.92555873                5.82612817
              12.30479564                4.27157723               54.50149596                0.00010000                1.71243931               -1.54415355               -4.30686045               -3.83713380               19.38841818                7.23229599
              13.32258349                3.81346277               54.44922974                0.00010000                1.23845837               -1.65425931               -4.51459378               -7.67898706               23.27022677                5.48008130
              14.32956480                3.29484568               54.43193875                0.00010000               -0.99230807                1.83038401               -4.38690907               -9.54555789               23.22490070                0.51793149
              15.30273733                2.75043660               54.37372719                0.08657640               -3.73259361               12.91642303               -5.64251152               -0.30193643               14.13796682              -10.22512505
              16.25491293                2.27444185               54.17727875                0.62865224               -4.78243981                7.59475984               -5.54456639                3.13132349                5.97317623              -14.41749289
               6.62785131                7.54084360               55.45261467                0.97867619               -0.17493367               -0.37955623                1.21311255               -0.03614294                0.02590538                0.70768540
               7.62610197                7.18380327               55.18750394                0.35685057                0.00063617                0.06197651               -0.08618272                0.01965861                0.44306740               -0.60893577
               8.62786404                6.82597644               54.93074323                0.00010000                0.68961949                0.51966020               -1.37391183               -0.14830419                6.66840177               -1.95650891
               9.63989436                6.46380260               54.78972471                0.00010000                1.45711850                0.53495039               -2.28783563               -0.30371224               13.75708250                3.71498245
              10.65700641                6.08281140               54.67445563                0.00010000                2.01291145                0.16973412               -3.21142035               -1.04593594               16.59838925                3.53919099
              11.68015259                5.68278965               54.58769887                0.00010000                2.56163361               -0.48218408               -3.91420920               -1.95913889               19.24634852                4.54609153
              12.70823908                5.25870535               54.52043592                0.00010000                2.81900074               -1.04641977               -4.39388693               -3.67739891               21.73884607                4.87888611
              13.73653261                4.80242422               54.47582617                0.00010000                2.24213081               -0.64498804               -4.67812135               -5.99866972               24.02827831                3.71681837
              14.75308169                4.31406679               54.44509270                0.00010000                0.77976131                1.93594328               -5.05965354               -6.40322986               25.37309567                1.10967830
              15.75212783                3.83087258               54.41870862                0.13368510                0.02202226                5.65220456               -6.47864209               -2.28166604               14.79430596                1.93468711
              16.75352214                3.38464288               54.17123889                0.65124433                0.13943038                7.74500381               -5.95793127                2.33003907                3.39602399               -3.48894069
               6.98231500                8.53753248               55.36129159                0.94065891               -0.08319953               -0.28785145                0.90535195               -0.03748368                0.04425844                0.69914407
               7.98148301                8.18493230               55.08997363                0.30590962                0.09612706                0.15701350               -0.38789555                0.02577720                0.34996342               -0.58800605
               8.98423755                7.83179658               54.82476287                0.00010000                1.32229115                0.62944527               -1.67155754               -0.39583757                9.08598670               -2.06651519
              10.00792883                7.46863452               54.72748809                0.00010000                2.67610943                0.40942644               -2.64299932               -0.75874637               18.20363690                0.85802248
              11.03775973                7.08330623               54.64331854                0.00010000                3.26645719               -0.04956092               -3.46829916               -1.51402189               19.93846545                2.68744536
              12.07325798                6.67775726               54.57705582                0.00010000                3.69266745               -0.50949674               -4.11723551               -2.30644414               22.05173459                3.52239155
              13.11161308                6.25064883               54.52930197                0.00010000                3.69953380               -0.65075247               -4.55834452               -3.47144579               24.13705998                3.93203142
              14.14724865                5.80056300               54.49705735                0.00010000                3.07193812               -0.02505566               -4.82695989               -4.67925448               25.97135590                3.68348517
              15.17305185                5.33356454               54.47752075                0.00467116                1.96396358                1.52158452               -4.93063901               -4.75443009               28.02577748                3.03448838
              16.18652792                4.86348069               54.47933783                0.18541087                1.04606351                2.39215989               -4.24835348               -1.94477153               15.34581875                3.03971280
              17.19397312                4.42934192               54.20172603                0.67389318                0.74451927                3.15879129               -4.16688510                0.14865130                1.44341082               -0.03648601
               7.33230199                9.53508657               55.27056153                0.91989775                0.00514259               -0.20393617                0.61759795               -0.03995716                0.02038337                0.73175025
               8.33235341                9.18694354               54.99254273                0.29559313                0.19715390                0.24207298               -0.67872515                0.03732380                0.24153295               -0.57908646
               9.33624507                8.83856535               54.71889969                0.00010000                2.04281899                0.70449203               -1.94379226               -0.77320495               11.04589786               -2.06085758
              10.37320979                8.47199113               54.65618318                0.00010000                4.06790816                0.20096732               -2.96810328               -1.41124377               22.12382772                0.16303744
              11.41760323                8.08182018               54.60153580                0.00010000                4.67356544               -0.33261205               -3.77893590               -1.95891814               23.42488778                1.71675293
              12.46668110                7.67259971               54.56026887                0.00010000                4.92005925               -0.62794172               -4.35682140               -2.30951697               25.21828754                2.75780643
              13.51600441                7.24569030               54.53516801                0.00010000                4.66753546               -0.53033978               -4.65963617               -2.83466745               27.08407078                3.58811642
              14.56003181                6.80192311               54.52378745                0.00010000                3.95354975                0.03070140               -4.68078669               -3.43639123               28.42626373                4.60234891
              15.59507541                6.34449848               54.51784562                0.04218023                2.87116042                0.72235506               -4.35289877               -3.76348543               29.12869078                5.24694748
              16.61745502                5.87871578               54.51340506                0.23768154                1.48486402                1.21340516               -2.73377377               -1.77796816               14.94294697                1.69479686
              17.62477269                5.44781870               54.21961085                0.69221157                0.73176694                1.42365483               -3.04206119               -0.05445964                0.52785337               -0.47027534
               7.67780192               10.53345375               55.17988562                0.91681641                0.09487852               -0.12076192                0.32810357               -0.04192752                0.00902491                0.72281845
               8.67875070               10.18977376               54.89528772                0.32147534                0.29619669                0.32391283               -0.97048384                0.03754032                0.15517257               -0.56363492
               9.68372585                9.84588642               54.61353779                0.00010000                2.88492096                0.74007226               -2.20832215               -1.34793460               12.83658299               -1.80455329
              10.73644912                9.47265387               54.58177467                0.00010000                5.71234692               -0.27362075               -3.27964831               -2.17015242               25.73683413               -0.02636177
              11.79797279                9.07665399               54.55385628                0.00010000                6.33741967               -0.90033722               -4.07528862               -2.03045219               26.80635212                1.15022465
              12.86319752                8.66519842               54.53747982                0.00010000                6.38117737               -0.95301217               -4.56340322               -1.84687712               28.62467841                2.05915012
              13.92559634                8.24004204               54.53854838                0.00010000                5.82575632               -0.77998885               -4.64145918               -1.86951105               30.91605199                3.12922870
              14.97971264                7.80117703               54.55996619                0.00010000                4.76965637               -0.40457028               -4.12332728               -2.08481150               32.36533140                5.04838598
              16.02098947                7.34801164               54.58252386                0.08160766                3.39678484               -0.09215925               -3.31794737               -2.37301151               29.07445552                9.48739218
              17.04764834                6.88774879               54.53194635                0.28797234                1.68443025                0.81479575               -2.26299623               -1.50051696               12.91626210                0.88854519
              18.05467807                6.45781502               54.22691134                0.70437886                0.70297312                0.88244095               -2.58036860                0.00825719                0.20200418               -1.09502388
               8.01882342               11.53267133               55.08900787                0.88074532                0.18481301               -0.03378486                0.03453331               -0.04555320                0.01553933                0.61947682
               9.02067155               11.19342179               54.79811891                0.34654958                0.37914240                0.40704589               -1.26990845                0.00700815                0.29967116               -0.49303720
              10.02640627               10.85336679               54.51280928                0.00010000                3.91838160                0.75784805               -2.47976379               -2.26411964               14.59679063               -1.11646585
              11.09903918               10.46651872               54.50706465                0.00010000                7.90216794               -1.58562542               -3.55859167               -2.25937176               28.93549636                0.03089009
              12.18444963               10.06381344               54.50162451                0.00010000                8.36581616               -1.60418873               -4.32119710               -1.44158334               29.94750915                0.64564457
              13.26635551                9.65353947               54.50719184                0.00010000                7.90929776               -1.43666736               -4.70910428               -0.96691852               32.00498897                1.18213053
              14.34263558                9.23009052               54.53372642                0.00010000                7.20052356               -1.24435227               -4.54277595               -0.89632258               35.03993554                1.93416031
              15.41036598                8.79383170               54.59058012                0.00010000                5.92039190               -1.15249558               -3.52651815               -1.06348971               39.67958196                3.58379039
              16.46104342                8.34265530               54.70016309                0.13914329                3.36376620               -0.55683330               -0.69359402               -0.94125218               29.43244662                8.08703237
              17.47764130                7.89501169               54.54480630                0.35632046                1.18809751                0.71401698               -2.29892599               -0.87835956                8.05149240                0.59090589
              18.48480537                7.46546752               54.22869985                0.70781140                0.71640699                0.74850528               -2.45526877                0.03134816                0.01168144               -1.06824577
               8.35538992               12.53277806               54.99637500                0.94316779                0.28054798                0.01067288               -0.26326808                0.17031247                0.28339696                0.52298291
               9.35819540               12.19791468               54.70203960                0.71304243                0.49783074                0.44928861               -1.57743378                0.16565148                0.93745012               -0.41913942
              10.36534654               11.86104338               54.42065213                0.45193206                6.13098209                0.76765917               -2.78042853               -3.95463927               16.36154165               -0.65383629
              11.48081505               11.44094136               54.43363296                0.36835718               10.83869174               -2.55773578               -3.80157121               -2.64607258               31.63837469                0.00514114
              12.58212037               11.04457021               54.44383936                0.36036551                9.83835074               -1.92432255               -4.49051354               -0.45673967               32.69021353                0.36195139
              13.67758206               10.63646508               54.46586496                0.36688815                9.26286403               -1.70743913               -4.77141931               -0.34810560               34.98264523                0.68477909
              14.76737765               10.21515499               54.51084959                0.38780772                8.41480069               -1.49355296               -4.46109564               -0.44269079               38.55209854                1.14035430
              15.84587807                9.77812712               54.59356706                0.42403375                6.68033888               -1.57045796               -3.11524457               -0.36279132               43.85518530                2.27424804
              16.90098443                9.33687498               54.73483462                0.60163525                3.06954256               -0.57803222               -0.44475941                0.18920134               31.01803012                4.14408035
              17.90726893                8.90202913               54.55559669                0.71497764                0.67044717                0.70174375               -2.37462032               -0.24173023                7.72016916                0.53415046
              18.91439337                8.47278513               54.23636832                0.85514020                0.71244499                0.73176044               -2.42806996                0.03439991                0.68940488               -0.82706952
               5.03149361                2.67277847               56.92122946                1.00000000               -0.69438907               -0.85626025                2.96819694               -0.26230559               -0.74475447                0.76060153
               6.02454972                2.28792480               56.66588425                1.00000000               -0.50956542               -0.41463076                1.56823099               -0.19853082               -0.95784252                0.12375060
               7.02130230                1.90226129               56.40615728                1.00000000               -0.14203064                0.01237138                0.19809873               -0.20623208               -0.85756373               -0.16219127
               8.02170910                1.51459831               56.15244481                0.64866060                0.08759166                0.49025606               -1.21721725               -0.31664456                0.40910680               -0.72810588
               9.02305413                1.12338524               55.91736723                0.62210167                0.40570617                1.05154075               -2.75864743               -0.29518825                1.59817736                0.04626524
              10.02982323                0.73108121               55.68568627                0.54733945                0.91591923                1.44631235               -4.26076184               -0.25939570                1.71979092               -0.19143609
              11.04137252                0.33581318               55.45132232                0.29118392                0.92449371                1.91001553               -5.74993351               -0.64638454                2.96203564               -0.57910857
              12.04831310               -0.06972883               55.24382774                0.00010000               -9.53917357                2.04546358               -6.38637423              -21.16370063               11.01166431               -0.38853144
              12.85058905               -0.89096604               55.18658894                0.00010000               -7.74784617                5.89209768               -6.89397863              -21.91349614               17.14100310                0.94500260
              13.89335618               -1.53905913               55.19658082                0.69568938                3.40762278                1.83308287               -8.13474861              -14.04012044                9.99033001                0.94004021
              14.91874150               -1.89954904               54.98552797                1.00000000                2.53853230                2.20687437               -9.29508529               -0.70524545                0.09694494               -1.05296856
               5.41372422                3.66421587               56.82780186                1.00000000               -0.59012237               -0.80894478                2.65027825               -0.03118137               -0.12568547                1.02954098
               6.40782300                3.28377849               56.57238777                1.00000000               -0.39104976               -0.37258376                1.24958951                0.02852337               -0.16598026                0.19833079
               7.40590323                2.90238501               56.31608026                1.00000000                0.00788442                0.05564125               -0.12963417                0.02994416               -0.04174243               -0.29069880
               8.40798068                2.51950087               56.06287809                0.46516154                0.29787874                0.52232939               -1.54908531               -0.03833195                1.74076583               -0.97530261
               9.41186080                2.13390065               55.84173233                0.49374885                0.65173093                1.05976253               -3.12542567               -0.08638550                3.08912476                0.08660677
              10.42101530                1.74554433               55.61386209                0.42312699                1.17264454                1.47462956               -4.59574582               -0.07731627                2.66891556               -0.27725460
              11.43531369                1.35491333               55.38234700                0.11887796                1.45252000                1.92543572               -6.00552718               -0.64736551                4.81281752               -0.92343921
              12.45006570                0.95072581               55.19502825                0.00010000               -3.45972289               -0.59540843               -5.51218396              -21.11090279               18.85550382                3.75037266
              13.36611923                0.16795494               55.24275879                0.00010000               -9.64096157                4.67218014               -5.43084253              -30.04572145               29.76408357                3.42482234
              14.25724647               -0.52072830               55.31804092                0.62074261               -4.69701377                1.35415281               -4.91635059              -16.14860870               14.49731718                1.44166502
              15.27217896               -0.87748029               55.10167438                1.00000000                1.49324854                1.75109625               -6.11607791               -0.48215946                0.84481719               -0.70986406
               5.79174473                4.65659957               56.73975393                1.00000000               -0.47936838               -0.70944430                2.30467398               -0.02955682                0.08585685                1.24889576
               6.78695104                4.28047313               56.48027212                1.00000000               -0.27829601               -0.28153270                0.92103572                0.02933533                0.20893448                0.17787602
               7.78617881                3.90337412               56.22319896                0.80195167                0.12378903                0.14928080               -0.45206555                0.02758517                0.43715427               -0.57655886
               8.78942682                3.52504490               55.96806048                0.00010000                0.45520761                0.59004368               -1.83078104               -0.03216359                3.21953681               -1.20938399
               9.79528296                3.14458049               55.76629845                0.00010000                0.89186981                0.62688357               -3.52291171               -0.67512620                4.69114486                0.96693386
              10.80726422                2.76057380               55.53917560                0.00010000                1.39803866                0.35525600               -4.99186154               -1.26964528                3.15337894                3.60120504
              11.82324373                2.37432189               55.30460877                0.00010000                0.28946102               -0.83771278               -6.32713237               -5.22413097               10.78179340                7.99720484
              12.81305344                1.91836300               55.22796159                0.00010000               -5.10575057               -5.05794493               -1.20592648              -22.25096089               25.81148284                8.50524814
              13.72112872                1.20247756               55.32363330                0.02856087               -9.86171035                4.43131445               -4.38903603              -33.08903040               34.79214765                3.44793229
              14.61581923                0.48802393               55.42773717                0.53685220               -4.92632088                0.57563580               -1.55274616              -17.74574409               16.95261022                0.78246865
              15.62260230                0.13547289               55.20057461                1.00000000                0.67830696                1.00794286               -3.56865194               -0.25974494                0.80992905               -1.62572173
               6.16538598                5.65002698               56.65071769                1.00000000               -0.37508220               -0.59707209                1.94387301               -0.04234092                0.20134832                1.06559864
               7.16163516                5.27814784               56.38625966                0.74615496               -0.17514108               -0.17351799                0.57695250                0.01557112                0.47104814               -0.14445132
               8.16188316                4.90537062               56.12717875                0.21072183                0.22479410                0.26504938               -0.75720944               -0.00126534                1.01758587               -1.07325097
               9.16613104                4.53130174               55.87345188                0.00010000                0.04731068                0.69203243               -2.11952307               -0.59585640                5.67233369               -0.82556423
              10.16282937                4.14643832               55.70723783                0.00010000               -0.01250198                0.22767818               -3.25465881               -1.55057440                9.97375076                2.65861750
              11.16588100                3.75264945               55.54339693                0.00010000                0.51062485               -0.82536763               -4.32701713               -2.99998298               11.78448913                6.99987386
              12.17304187                3.33815907               55.41205744                0.00010000                0.55049067               -3.23867455               -4.48068398               -7.51593932               17.54145681               12.32527397
              13.17689081                2.84956691               55.35543093                0.00010000               -1.91820857               -4.67474780               -4.36589675              -14.90101069               24.73839140                9.57520414
              14.13467770                2.25658122               55.36473049                0.00010000              -10.37772745                3.56552757               -4.01207696              -23.74576773               34.35700599                0.09613363
              14.96933626                1.49078442               55.52046839                0.04353856               -8.12957774               10.03538297                0.04618829               -7.73995837               20.27400164              -14.54154037
              15.97208614                1.14267856               55.28130279                0.61668136                0.27498779                2.37379713               -2.33172616                9.88378101                0.80050584              -14.27212812
               6.53465619                6.64465813               56.55900756                1.00000000               -0.27373691               -0.48138927                1.58661907               -0.04570881                0.11997739                0.81689357
               7.53191882                6.27700277               56.28762135                0.45930020               -0.08282973               -0.05457374                0.20322853                0.02058715                0.51756015               -0.49776414
               8.53299960                5.90867511               56.02414819                0.02253166                0.22615883                0.39206350               -1.10667983               -0.00070431                2.18575294               -1.63536508
               9.53644200                5.53888554               55.78595293                0.00010000                0.49620822                0.51142248               -2.05078956               -0.68919644                9.65344171                2.86668090
              10.54292376                5.14913406               55.67248684                0.00010000                0.95509032                0.10809202               -3.21733287               -1.37242101               15.44322798                3.66359378
              11.55554381                4.74406645               55.55089165                0.00010000                1.65418642               -0.94814263               -4.03458407               -2.48652118               16.63178505                5.77928843
              12.57600749                4.30954840               55.45701819                0.00010000                2.05336357               -2.36796409               -4.56249812               -5.23140683               20.41366504                6.66913276
              13.59661108                3.82486805               55.40247784                0.00010000                1.44941831               -1.92402975               -4.82564501               -9.61773820               24.54863741                4.16687799
              14.60499586                3.27378811               55.38526747                0.00010000               -1.08441748                1.98212783               -4.92117767              -11.50220867               23.95236097               -1.64261351
              15.57492273                2.68873159               55.31623140                0.07516180               -4.42531121               14.87849419               -5.89555050               -0.90700409               14.46937006              -16.00333563
              16.51648963                2.18294883               55.11668610                0.63378807               -5.84330956                9.20083685               -6.61430566                2.74769248                7.15918506              -19.13133043
               6.89978254                7.64039920               56.46493900                0.96096566               -0.17526097               -0.37826250                1.24327296               -0.03825082                0.03403635                0.68844617
               7.89802993                7.27705636               56.18651680                0.34589365                0.01018788                0.05494889               -0.11076498                0.03199843                0.46454920               -0.60152474
               8.89998629                6.91321189               55.91666980                0.00010000                0.69291178                0.50176331               -1.43700177               -0.28469993                6.86484369               -1.94085970
               9.91188816                6.54153019               55.76592229                0.00010000                1.51068777                0.28279836               -2.42866506               -0.71138887               14.09021199                3.55859082
              10.93020005                6.14860016               55.64131205                0.00010000                2.19240356               -0.14777722               -3.37937495               -1.63111583               17.02306891                3.29309857
              11.95573623                5.73368660               55.54703119                0.00010000                2.87060421               -0.94865493               -4.18736077               -2.85529640               19.85085325                4.09405901
              12.98761213                5.29079979               55.47432765                0.00010000                3.22800510               -1.49213824               -4.80808470               -5.02586699               22.51866832                4.09632689
              14.02029634                4.81108631               55.42581999                0.00010000                2.65789239               -0.78094399               -5.32433227               -7.68267859               24.78415712                2.46212532
              15.04076998                4.29622378               55.38972153                0.00010000                1.08695653                2.42346594               -6.07018791               -8.06714336               25.32104462               -0.68366587
              16.04203547                3.78835430               55.34393691                0.10818942               -0.10822358                7.66201804               -8.46215758               -3.13516947               15.32238034                0.09740580
              17.03860551                3.32669530               55.10294363                0.64233451               -0.34299564               10.91155230               -8.12496788                2.50827801                5.05584355               -5.57105586
               7.26057684                8.63709288               56.37056231                0.92882223               -0.08307445               -0.28724395                0.94283755               -0.03789345                0.04296800                0.71166467
               8.25974609                8.27810174               56.08591511                0.29781748                0.11274669                0.14931425               -0.41940018                0.03348934                0.36197461               -0.57495662
               9.26283177                7.91871037               55.80763402                0.00010000                1.35399310                0.59643534               -1.74753647               -0.60938667                9.24924404               -2.03733285
              10.28682596                7.54454151               55.70011285                0.00010000                2.76566332                0.26982769               -2.80854196               -1.26717395               18.51319792                0.59807593
              11.31814504                7.14617851               55.60717932                0.00010000                3.47061451               -0.27227132               -3.73068299               -2.22453326               20.33288845                2.24893093
              12.35623825                6.72509335               55.53383227                0.00010000                3.99726994               -0.76697889               -4.50662214               -3.27209212               22.55014310                2.89808206
              13.39809044                6.27970563               55.48080903                0.00010000                4.06476359               -0.82638260               -5.14074987               -4.71375494               24.72114856                3.10395963
              14.43753352                5.80924917               55.44466161                0.00010000                3.41472817                0.09444105               -5.69340225               -6.06130082               26.58889169                2.68337792
              15.46638500                5.32225743               55.42224053                0.00010000                2.21071510                2.23594359               -6.27679129               -5.66742535               28.95834905                2.10829181
              16.48174782                4.84197195               55.42879263                0.15578368                1.17940971                3.96695455               -6.64280532               -2.21939248               16.58932472                3.86600630
              17.48997319                4.40117988               55.15528431                0.65806097                0.82253751                5.15509217               -5.73230031                0.32996255                2.67913356                0.60647850
               7.61700694                9.63465432               56.27689548                0.91129984                0.00752789               -0.20386401                0.64883230               -0.04054552                0.02006255                0.75380322
               8.61708222                9.28004265               55.98555042                0.28670995                0.21759246                0.23874240               -0.71752596                0.03569030                0.25928639               -0.56623175
               9.62135879                8.92514060               55.69894156                0.00010000                2.09971611                0.68348875               -2.04380331               -1.03026215               11.18173624               -2.03567813
              10.65907655                8.54692675               55.62528504                0.00010000                4.18993772                0.14738860               -3.19790596               -1.96781213               22.36288788               -0.11424824
              11.70515755                8.14315473               55.56188182                0.00010000                4.88453617               -0.42234049               -4.13721429               -2.67885367               23.75785179                1.23147708
              12.75676727                7.71834702               55.51410912                0.00010000                5.20118348               -0.70415382               -4.87243557               -3.19712550               25.65264594                2.11809371
              13.80918122                7.27427214               55.48509612                0.00010000                4.98756264               -0.49037919               -5.38544369               -3.83519541               27.63177796                2.89170188
              14.85651852                6.81297513               55.47240778                0.00010000                4.27587369                0.31992857               -5.70435935               -4.34527044               29.15436135                4.12026136
              15.89469869                6.34094265               55.46898857                0.03172927                3.11033258                1.36670797               -5.68951667               -4.18871609               30.73644805                5.21788736
              16.91872517                5.86769339               55.48300947                0.21121409                1.60451084                1.91507666               -3.75057133               -1.82218325               16.26605888                2.50727632
              17.92678891                5.42979714               55.18777215                0.67321258                0.80637350                2.06705645               -3.59107988               -0.10450458                0.95015882                0.28726627
               7.96898926               10.63301560               56.18332467                0.90953339                0.09843536               -0.12367719                0.35897234               -0.04402663                0.00880694                0.74640341
               8.96997362               10.28287659               55.88531849                0.30910916                0.31765855                0.32941011               -1.02086289                0.02915689                0.18728855               -0.56047720
               9.97534243                9.93238015               55.59081473                0.00010000                2.97409820                0.74811317               -2.33877648               -1.61519234               12.95968587               -1.79702919
              11.02945558                9.54748928               55.54746907                0.00010000                5.89026282               -0.25971897               -3.58018689               -2.69925484               25.91774178               -0.26083367
              12.09314769                9.13773170               55.51083690                0.00010000                6.58613749               -0.89129926               -4.53105531               -2.64985584               27.10102908                0.73717603
              13.16117833                8.71101027               55.48880103                0.00010000                6.68053638               -0.89643990               -5.19462378               -2.52555466               29.07114855                1.53347444
              14.22675842                8.26989805               55.48831017                0.00010000                6.13896339               -0.61881288               -5.47866203               -2.52329625               31.67123012                2.65296558
              15.28395760                7.81564774               55.51448071                0.00010000                5.05670018               -0.08696863               -5.13733872               -2.54376938               33.41238456                5.00993000
              16.32789242                7.34959159               55.54497391                0.08064392                3.62460335                0.25153013               -4.45723939               -2.51098766               30.47511533               10.96329027
              17.35644966                6.88027348               55.50821948                0.26939629                1.78915900                1.05510835               -2.59379148               -1.54366056               13.75956044                1.01744350
              18.36367560                6.44252100               55.20120123                0.68337048                0.72259362                1.03669495               -2.66199440               -0.00712655                0.29230718               -0.69744566
               8.31640443               11.63218077               56.08950464                0.87148456                0.18963829               -0.04093623                0.06591990               -0.04735954                0.01810329                0.63946271
               9.31830082               11.28663085               55.78510329                0.32837765                0.40189115                0.42177490               -1.33149095               -0.00208839                0.34965202               -0.49956960
              10.32444226               10.94010286               55.48724563                0.00010000                4.07195401                0.78631929               -2.64210490               -2.52325532               14.73800586               -1.12898360
              11.39973990               10.54173237               55.46976217                0.00010000                8.20985940               -1.59006566               -3.91524966               -2.63299696               29.11602695               -0.09303820
              12.48863944               10.12532875               55.45587926                0.00010000                8.71749658               -1.55710039               -4.84877149               -1.82525522               30.26393175                0.40668206
              13.57408983                9.70041822               55.45679521                0.00010000                8.27191921               -1.31854083               -5.42035108               -1.33953973               32.54757260                0.87424253
              14.65407783                9.26189588               55.48440922                0.00010000                7.59298830               -1.04467347               -5.43211548               -1.20705313               36.06807450                1.68638245
              15.72594959                8.81123576               55.55148888                0.00010000                6.28876829               -0.91974178               -4.48368344               -1.28395867               41.99173942                3.71691696
              16.77985319                8.34597326               55.69239481                0.15407061                3.44864779               -0.31802819               -1.06487605               -0.96443642               30.29568898                9.28833744
              17.79492255                7.88879556               55.52106471                0.35159462                1.11490698                0.80970041               -2.49744349               -0.89075333                7.30509452                0.45358749
              18.80215133                7.45053104               55.20484633                0.68562178                0.72287840                0.74245295               -2.34422574                0.03472872                0.07887265               -0.87211650
               8.65914191               12.63219688               55.99388638                0.93747194                0.28678434                0.00161046               -0.23218761                0.18526937                0.28836036                0.54039810
               9.66200976               12.29131209               55.68590479                0.70256189                0.53169495                0.46812381               -1.64724029                0.16637698                0.99867036               -0.43089655
              10.66977581               11.94810653               55.39202451                0.44922342                6.47799994                0.80036696               -2.95587702               -4.24785025               16.55461433               -0.67408456
              11.79156976               11.51568797               55.39388540                0.36813185               11.40904578               -2.60443959               -4.17037435               -2.89285600               31.93527919                0.00395264
              12.89795673               11.10658969               55.39641978                0.36038082               10.31253226               -1.87390559               -5.02802438               -0.62069726               33.15923952                0.29908259
              13.99782040               10.68463946               55.41493619                0.36661513                9.69215445               -1.57787682               -5.48418234               -0.50619823               35.69604978                0.60248699
              15.09179982               10.24900458               55.46257364                0.38676683                8.81903255               -1.28913028               -5.32792054               -0.59712870               39.84437078                1.11882918
              16.17420105                9.79725290               55.55928278                0.42184273                6.96220385               -1.39828595               -3.93463401               -0.46353175               46.16986386                2.59239719
              17.23104389                9.34323103               55.72918991                0.61424882                2.99378794               -0.27422281               -0.86668775                0.07979956               31.41192212                4.15989724
              18.23407681                8.89646749               55.53137780                0.71655889                0.49276571                0.76719315               -2.48468263               -0.37762198                6.73679857                0.40128517
              19.24089921                8.45737006               55.21318961                0.84321805                0.68223975                0.68390210               -2.20815983               -0.03495514                0.68328114               -0.67452177
               5.28664133                2.77525079               57.95089952                1.00000000               -0.68623166               -0.85305019                2.95456250               -0.26474038               -0.70201842                0.73238937
               6.27977901                2.38423074               57.68144753                1.00000000               -0.49669031               -0.40813393                1.54090334               -0.20150083               -0.89760485                0.11917931
               7.27670752                1.99242180               57.40788112                1.00000000               -0.11915058                0.02260499                0.15144828               -0.20766728               -0.80875760               -0.15027876
               8.27739600                1.59870096               57.13986832                0.63958780                0.13077674                0.50257867               -1.28302240               -0.32866522                0.35261714               -0.69714665
               9.27932306                1.20126727               56.88904888                0.60229942                0.46073200                1.07462391               -2.87117775               -0.31164316                1.45209703                0.02375863
              10.28661064                0.80246086               56.64215633                0.51621055                0.94003907                1.49383171               -4.40360204               -0.29760454                1.56086091               -0.23788348
              11.29812384                0.39985748               56.39283171                0.23974451                0.33123724                2.00048961               -5.90330833               -1.46090875                3.22677478               -0.63615256
              12.29323539               -0.02992515               56.17973692                0.00010000              -12.53895636                2.11542550               -6.37348028              -25.11467991               10.22336858               -0.88312512
              13.04734471               -0.94707828               56.11135071                0.00010000               -9.81882820                7.13542619               -7.64369917              -25.78011212               15.79788442                1.04002090
              14.09685882               -1.66579746               56.09624745                0.63463424                4.43021777                3.18406772              -12.21764790              -16.66752828                9.01185470                1.54712417
              15.13594907               -2.04423443               55.87130897                1.00000000                3.90902457                3.71540808              -13.96931604               -0.87325948               -0.14618586               -1.20111480
               5.67501398                3.76672029               57.85430068                1.00000000               -0.58354772               -0.80616405                2.63929531               -0.03312467               -0.10507005                0.99494023
               6.66917850                3.38014940               57.58477307                1.00000000               -0.38091187               -0.36648193                1.22489112                0.02612546               -0.13153463                0.19082935
               7.66739574                2.99264785               57.31454769                1.00000000                0.02540559                0.06530151               -0.17101391                0.02913148               -0.01833592               -0.27918260
               8.66968661                2.60372674               57.04701971                0.46390424                0.34654681                0.53520780               -1.60678670               -0.04612493                1.63696385               -0.92385056
               9.67432668                2.21201351               56.80953998                0.48328000                0.73264404                1.08650771               -3.26745910               -0.08728651                2.93095715                0.02683354
              10.68433949                1.81739917               56.56655061                0.40287585                1.26905386                1.52752487               -4.81372607               -0.09333728                2.58350614               -0.37295254
              11.69970775                1.41986237               56.32067956                0.08296431                1.56084861                2.01420397               -6.27756708               -1.52274162                5.89536013               -1.00523916
              12.71555646                0.99122911               56.14213358                0.00010000               -4.61140038               -3.03316810               -4.74337612              -26.18806543               20.60088523                5.06134227
              13.60747975                0.12427598               56.18729548                0.00010000              -11.83974268                5.77096338               -5.76717078              -34.84787116               30.23411442                3.16043653
              14.47876161               -0.63395678               56.25367726                0.47877723               -5.09131525                2.56058987               -9.23566623              -18.56365870               14.76260909                2.82314461
              15.50565344               -1.00708034               56.02347307                1.00000000                2.68918297                3.06235553              -10.88639727               -0.67101640                1.62860123               -0.55062217
               6.05912061                4.75912751               57.76282566                1.00000000               -0.47466528               -0.70779660                2.30022400               -0.03275373                0.10446921                1.19896214
               7.05437396                4.37690110               57.48938395                1.00000000               -0.27039041               -0.27669744                0.89966158                0.02528877                0.23663978                0.15870287
               8.05371281                3.99372783               57.21846165                0.79111322                0.13669389                0.15835829               -0.48937710                0.02673616                0.46937690               -0.55909953
               9.05710784                3.60940511               56.94946249                0.00010000                0.50960454                0.60416587               -1.87436487               -0.03286918                3.04461746               -1.14506027
              10.06390490                3.22299742               56.72980213                0.00010000                0.98935965                0.44150237               -3.70684380               -0.81546206                4.47470817                1.23343357
              11.07689503                2.83301135               56.48754266                0.00010000                1.49670876               -0.01520342               -5.25986766               -1.45201496                3.14893227                4.03363590
              12.09383907                2.44014155               56.23961904                0.00010000               -0.59172824               -1.80889460               -6.60345832               -8.67344516               14.41045398                9.02449559
              13.06506047                1.90941149               56.22093279                0.00010000               -5.91329479               -6.93659337               -1.18021894              -26.59407306               28.20623119                7.04239715
              13.97557318                1.16834099               56.28248592                0.00910677              -10.40592472                4.67358165               -4.19524671              -36.42037776               35.77504815                2.70429413
              14.85694197                0.38541434               56.40633697                0.49419939               -5.33986539                1.35879312               -2.96995571              -20.17097210               19.19321255                1.98946665
              15.86877587                0.01701269               56.15436835                1.00000000                1.18338955                1.91369834               -6.02038794               -0.46046280                0.89742137               -1.92211820
               6.43881172                5.75256435               57.67020117                1.00000000               -0.37277660               -0.59436688                1.94718691               -0.04446174                0.22161300                1.01291060
               7.43508396                5.37461545               57.39193838                0.71855394               -0.16926369               -0.17103709                0.55824706                0.01549774                0.51041819               -0.18706790
               8.43542645                4.99581501               57.11938340                0.19158946                0.23378373                0.27385959               -0.79705831                0.00341218                1.06332196               -1.07518696
               9.43975963                4.61581006               56.85200576                0.00010000               -0.05076275                0.66968066               -2.15792565               -0.82555372                5.80535256               -0.56538096
              10.43441119                4.22084356               56.67417443                0.00010000               -0.08022842               -0.19441116               -3.31319986               -2.05142557               10.22595989                3.05240327
              11.43815506                3.81709511               56.49933234                0.00010000                0.77137598               -1.68294514               -4.43244966               -3.88075276               12.57861272                7.62051322
              12.44983871                3.38368448               56.36692150                0.00010000                0.86602546               -4.87259399               -4.56491879               -9.84770950               19.08411256               13.00025758
              13.45547557                2.85249724               56.31136210                0.00010000               -2.33846861               -4.15001136               -4.50070859              -17.28451851               26.77675597                6.51511679
              14.40306934                2.21774761               56.32688364                0.00010000              -11.44025506                3.43306875               -3.87599528              -26.99964377               38.33382276               -2.06997563
              15.22667047                1.39321908               56.51821156                0.04836346               -8.49109231               11.07435104               -0.97559659               -9.13949362               23.76002014              -18.17176245
              16.23324749                1.03119362               56.25070757                0.63752100                0.65770242                2.65808555               -4.18162722               10.21802177                1.35032486              -17.95489447
               6.81412919                6.74724017               57.57492650                1.00000000               -0.26959335               -0.47532912                1.58415769               -0.04774570                0.10984398                0.77662594
               7.81143326                6.37348036               57.28953881                0.43946372               -0.07713775               -0.05682202                0.18376726                0.02715221                0.54691613               -0.52600587
               8.81258644                5.99920502               57.01282180                0.00817081                0.20674809                0.39292028               -1.14993118               -0.01763284                2.47309167               -1.65626427
               9.81556822                5.62279873               56.76582173                0.00010000                0.45024519                0.25022217               -1.92501276               -1.13995449                9.95300469                2.96796792
              10.82159134                5.21910920               56.63991254                0.00010000                1.04354167               -0.34313341               -3.25125130               -2.07492920               15.76321531                3.68327540
              11.83643905                4.79935245               56.50980986                0.00010000                1.99457030               -1.76824526               -4.14014201               -3.52102631               17.33433976                5.72364567
              12.86148275                4.34268968               56.41024599                0.00010000                2.44339545               -3.34217158               -4.76332973               -7.14781324               21.47390698                6.00284862
              13.88530696                3.82641126               56.35271684                0.00010000                1.66878560               -2.15071415               -5.14849243              -12.21705098               25.89665472                2.64358529
              14.89485846                3.23700236               56.33351520                0.00010000               -1.23004351                2.28363982               -5.45316139              -14.05967887               25.11237299               -4.54131077
              15.86070609                2.60690136               56.25581618                0.06750895               -4.88356172               16.35201903               -6.23228829               -2.40725468               15.18347931              -22.58899602
              16.79718722                2.07017440               56.04499264                0.64387409               -6.35188682               10.17149668               -7.60145424                1.49620734                8.15351056              -24.34157822
               7.18537644                7.74305777               57.47748013                0.94471004               -0.17142841               -0.37154388                1.25395971               -0.04089775                0.04039604                0.68214413
               8.18366215                7.37347901               57.18528864                0.33370085                0.01894930                0.04595991               -0.13206645                0.04165893                0.48861065               -0.59911788
               9.18575542                7.00367342               56.90200320                0.00010000                0.66971034                0.47865741               -1.49267706               -0.51131246                7.07194523               -1.95346525
              10.19705636                6.62081450               56.74115141                0.00010000                1.53017312               -0.07827204               -2.47799406               -1.33066291               14.44826233                3.27119826
              11.21635888                6.21398089               56.60686813                0.00010000                2.35488517               -0.56970613               -3.46363415               -2.49887840               17.43880252                2.96683938
              12.24415406                5.78173020               56.50395165                0.00010000                3.17323758               -1.53557445               -4.38415916               -4.14738818               20.40171718                3.54930456
              13.27982364                5.31684105               56.42427422                0.00010000                3.63339017               -2.03650579               -5.16917103               -6.92616332               23.20138174                3.15907828
              14.31682186                4.80948296               56.36933953                0.00010000                3.07810150               -0.93842409               -5.95199624              -10.05663082               25.37544650                0.90107654
              15.34138567                4.26342041               56.32368894                0.00010000                1.42657386                2.97304902               -7.15965720              -10.79970765               24.87720664               -3.10987340
              16.34535334                3.72025946               56.24946547                0.08110158               -0.23800472                9.74134496              -10.01892433               -5.21161529               15.43729344               -3.49065195
              17.33662557                3.23462356               56.00873953                0.63487230               -0.87277711               14.32342892              -10.63001391                1.30566987                6.78818098               -8.86636536
               7.55246877                8.73980929               57.38014834                0.91710751               -0.08179743               -0.28287481                0.97087745               -0.04012749                0.03838085                0.73376193
               8.55165079                8.37439955               57.08158563                0.28949945                0.12779630                0.13682590               -0.44369398                0.03998890                0.37931019               -0.57276085
               9.55502469                8.00877817               56.78981214                0.00010000                1.34983501                0.54988324               -1.81647238               -0.93882621                9.41251003               -2.05132104
              10.57864749                7.62123328               56.67131726                0.00010000                2.78366925                0.07677183               -2.92130126               -2.02960741               18.80809085                0.25722541
              11.61069808                7.20771508               56.56870488                0.00010000                3.59918193               -0.55943711               -3.92343928               -3.25075119               20.68755233                1.69160887
              12.65063113                6.76864096               56.48692337                0.00010000                4.22543230               -1.08686859               -4.83308540               -4.66949283               22.95028737                2.12928486
              13.69520672                6.30195956               56.42648697                0.00010000                4.34819269               -1.04089252               -5.69162017               -6.52402474               25.12225409                2.06380875
              14.73759498                5.80764278               56.38318930                0.00010000                3.64405386                0.25131375               -6.60475229               -8.15457482               26.86573335                1.32168540
              15.76808780                5.29646334               56.35198493                0.00010000                2.38378287                3.13512191               -7.80634074               -7.40487537               28.94298860                0.61820180
              16.78527064                4.80172826               56.34648172                0.12016305                1.32423182                6.45874951              -10.70083343               -3.05905480               17.82036235                3.87341452
              17.79457244                4.35664297               56.08708003                0.64183047                0.93017950                8.65117733               -9.23888814                0.37271755                5.28501596                0.69731004
               7.91539336                9.73740028               57.28353818                0.90290845                0.00996929               -0.20183169                0.67714623               -0.04239241                0.01913729                0.78256572
               8.91549305                9.37621553               56.97819222                0.27812985                0.23759021                0.23058931               -0.75104162                0.03132174                0.28028757               -0.56807980
               9.92014517                9.01467108               56.67802362                0.00010000                2.10171217                0.64318044               -2.13975558               -1.40606448               11.29496685               -2.06862460
              10.95752730                8.62234994               56.59222506                0.00010000                4.18955083                0.08633894               -3.39653594               -2.78723202               22.55448107               -0.49986591
              12.00393618                8.20279215               56.51879152                0.00010000                4.94962129               -0.51575081               -4.45021876               -3.71968867               24.01708207                0.60654397
              13.05651972                7.75999283               56.46282016                0.00010000                5.32025691               -0.77295669               -5.35224479               -4.51264306               25.93864839                1.29593266
              14.11034132                7.29602320               56.42745913                0.00010000                5.13534308               -0.40856549               -6.13184295               -5.36745264               27.90315252                1.93664918
              15.15922659                6.81450923               56.40970026                0.00010000                4.44306792                0.73258760               -6.88392377               -5.80993710               29.45365942                3.29670830
              16.19920268                6.32612285               56.40405529                0.01604440                3.23830141                2.37039340               -7.57385020               -4.82047909               32.07281081                4.78109914
              17.22399261                5.84943445               56.43839364                0.17573448                1.75239070                3.41570793               -6.26819047               -1.85670797               17.88356561                3.99262817
              18.23425049                5.40764710               56.14778925                0.65204896                1.02578796                3.50744776               -5.11028603               -0.17932128                2.06411690                1.54144669
               8.27399042               10.73577266               57.18706506                0.90206250                0.10160022               -0.12506996                0.38814540               -0.04639078                0.00884366                0.77894551
               9.27500642               10.37901134               56.87487046                0.29665676                0.33892851                0.33142904               -1.06616683                0.01498337                0.21603852               -0.57328086
              10.28076899               10.02164178               56.56676226                0.00010000                2.98876840                0.74531247               -2.48250113               -1.98444659               13.03634415               -1.85671464
              11.33478179                9.62296006               56.51017094                0.00010000                5.89462141               -0.20541553               -3.87980544               -3.45214604               26.02154152               -0.60902572
              12.39866142                9.19740006               56.46323517                0.00010000                6.61827149               -0.82139748               -4.97522135               -3.55095955               27.28901615                0.18139427
              13.46714722                8.75318183               56.43358734                0.00010000                6.73399251               -0.75518328               -5.83578471               -3.56772658               29.31452432                0.82063058
              14.53334127                8.29378825               56.42897514                0.00010000                6.20746869               -0.32342481               -6.41820556               -3.59626045               32.10278951                1.92021785
              15.59129659                7.82229453               56.45721942                0.00010000                5.17058658                0.44293668               -6.46454692               -3.34642240               34.04345766                4.70811817
              16.63675300                7.34387121               56.49337907                0.07614197                3.76578187                0.90415997               -6.30741709               -2.70367127               32.02671252               12.60175796
              17.66661223                6.87004242               56.48007052                0.24115537                1.89038576                1.57453341               -3.30593377               -1.48901134               15.01043331                1.49544045
              18.67456071                6.42679193               56.17367145                0.65832043                0.79484843                1.41948578               -3.08378347               -0.09659463                0.51427529               -0.00736654
               8.62798818               11.73489888               57.09032627                0.86263493                0.19354228               -0.04750536                0.09865327               -0.04898228                0.01972635                0.66998975
               9.62992361               11.38284411               56.77148909                0.31072008                0.42596643                0.43412131               -1.38892088               -0.01486459                0.38892513               -0.52086511
              10.63650751               11.02957733               56.45996718                0.00010000                4.14012426                0.81810730               -2.84969610               -2.84566243               14.82016972               -1.19346410
              11.71272609               10.61824163               56.42875966                0.00010000                8.30938581               -1.50930515               -4.30757840               -3.14347784               29.20355730               -0.29590145
              12.80269523               10.18636420               56.40464908                0.00010000                8.80254571               -1.39646171               -5.40611185               -2.38797550               30.44952217                0.07128463
              13.88877700                9.74488916               56.39878482                0.00010000                8.33040896               -1.04744857               -6.20008969               -1.93037583               32.84747145                0.43843701
              14.96930341                9.28955470               56.42508411                0.00010000                7.67190861               -0.62927596               -6.52688573               -1.74719933               36.75366588                1.27471072
              16.04221518                8.82336797               56.50090645                0.00010000                6.40389811               -0.39536403               -5.85745853               -1.69930830               44.18901568                3.72119419
              17.09738137                8.34420605               56.67886556                0.17107457                3.45382453                0.13057495               -2.02397947               -1.10339948               31.12156299               10.68261872
              18.11129167                7.88092512               56.49485743                0.34060078                1.07191053                0.96931123               -2.78120121               -0.83881289                6.59728818                0.33114070
              19.11881958                7.43603682               56.18181534                0.65788884                0.75279116                0.79081043               -2.35573727                0.00490344                0.20866428               -0.57628044
               8.97712031               12.73482255               56.99173124                0.93215309                0.29103609               -0.00763251               -0.19687396                0.20033438                0.29855907                0.56807942
               9.98003067               12.38769377               56.66909480                0.69331781                0.56689521                0.48496601               -1.71113888                0.16977516                1.05584558               -0.45592994
              10.98845822               12.03800392               56.36153459                0.44710564                6.75473467                0.84265897               -3.18870443               -4.55091990               16.69549800               -0.71840641
              12.11512537               11.59277396               56.35022547                0.36796850               11.78980787               -2.54676691               -4.59935491               -3.18672719               32.14089465               -0.03336747
              13.22425437               11.16947083               56.34327887                0.36040855               10.51119149               -1.68933686               -5.63264016               -0.87114066               33.49886062                0.19037599
              14.32534920               10.73223286               56.35618131                0.36639464                9.78320513               -1.26563057               -6.31865395               -0.75618585               36.17152985                0.46080919
              15.41991848               10.28120273               56.40429118                0.38579095                8.86549416               -0.83519713               -6.46853371               -0.83077331               40.85323671                1.03273450
              16.50265908                9.81438725               56.51487437                0.41959337                6.86046884               -0.89807130               -5.20372694               -0.69161092               48.34838311                2.99604340
              17.55712785                9.34648271               56.71750086                0.62935996                2.76730611                0.22766611               -1.67612339               -0.27328215               31.68821776                3.89620720
              18.55800520                8.88942864               56.50590304                0.71611915                0.36537681                0.85035218               -2.58668705               -0.52237526                5.80892758                0.22859402
              19.56443539                8.44260814               56.19220512                0.82824348                0.64301878                0.65713202               -2.04868732               -0.12046961                0.67811022               -0.45218630
               5.55635721                2.88062393               58.98032071                1.00000000               -0.67411947               -0.84353961                2.91943252               -0.26457961               -0.66568315                0.70918953
               6.54961602                2.48365731               58.69670231                1.00000000               -0.48254271               -0.39986493                1.50705244               -0.20213969               -0.84665598                0.11496506
               7.54670636                2.08592258               58.40918625                1.00000000               -0.10111686                0.02982457                0.11440532               -0.20688436               -0.77008866               -0.13977328
               8.54759368                1.68635260               58.12678436                0.63108906                0.15508525                0.50770819               -1.32047894               -0.33881930                0.28079267               -0.66717536
               9.54980807                1.28287822               57.85994367                0.58385812                0.48319682                1.08058506               -2.92491414               -0.32678487                1.30871640               -0.00938760
              10.55725762                0.87753496               57.59761423                0.48663680                0.92596777                1.51639877               -4.47227592               -0.34536815                1.44462859               -0.29267960
              11.56832742                0.46739441               57.33325615                0.19017589               -1.14980722                2.06268014               -5.96508269               -3.55493006                3.67727602               -0.64965827
              12.53426147               -0.01218465               57.11635813                0.00010000              -15.91456110                2.29414286               -5.94457295              -28.35187656                8.03514813               -2.10752029
              13.25003620               -1.02205516               57.03371496                0.00010000              -11.03132294                8.20836176               -7.45016818              -29.61741531               12.78166107                1.64757469
              14.31363502               -1.82297625               56.95222786                0.59599111                5.78292811                4.86213225              -15.82025760              -20.02361440                6.52778870                2.46349734
              15.36569476               -2.22789954               56.70614164                1.00000000                5.20597450                5.63474228              -18.33570764               -0.54586934               -0.78263144               -0.87245437
               5.95067804                3.87218854               58.88058777                1.00000000               -0.57327434               -0.79728021                2.60864720               -0.03497247               -0.08695284                0.96689084
               6.94494530                3.47965866               58.59688559                1.00000000               -0.36940851               -0.35877185                1.19542584                0.02320595               -0.10127539                0.18386953
               7.94328987                3.08622083               58.31265999                1.00000000                0.03911860                0.07169163               -0.20095538                0.02762328                0.00009357               -0.27009554
               8.94572767                2.69142968               58.03074235                0.46544057                0.38295820                0.54025189               -1.63518275               -0.05758744                1.50508702               -0.87205625
               9.95094904                2.29368407               57.77638314                0.47720372                0.79090856                1.08682442               -3.32812025               -0.09209178                2.71054229               -0.04469125
              10.96154584                1.89269895               57.51758757                0.38708342                1.33444467                1.54649154               -4.92446031               -0.12472599                2.43230308               -0.46115301
              11.97763793                1.48802122               57.25679566                0.05100451                1.69608275                2.05877240               -6.43008361               -3.61034612                7.58391887               -1.00298015
              12.99546750                1.01075677               57.10016073                0.00010000               -5.91900424               -4.89164595               -3.34012853              -31.39715216               21.88886340                4.34484998
              13.85925784                0.06002846               57.12741537                0.00010000              -13.95732170                6.95152182               -6.06531194              -39.19611984               27.34149841                3.32352332
              14.71632106               -0.77435493               57.13332759                0.35581909               -4.70492427                4.31276024              -15.97714068              -20.87072674               12.85639272                6.61968448
              15.76515936               -1.17155212               56.88394644                1.00000000                4.88382960                4.88477828              -18.28116811               -0.78005762                2.52215993                1.76245870
               6.34071752                4.86467833               58.78575841                1.00000000               -0.46696703               -0.70020914                2.27802479               -0.03635675                0.12155345                1.16006455
               7.33604785                4.47648187               58.49826535                1.00000000               -0.26148567               -0.27035157                0.87498865                0.01970401                0.26236101                0.14066122
               8.33548780                4.08735641               58.21341142                0.77604837                0.14654214                0.16429501               -0.51506393                0.02340580                0.50449951               -0.54839589
               9.33897869                3.69715764               57.93057318                0.00010000                0.56045785                0.61026041               -1.89044867               -0.05111575                2.83355611               -1.08268158
              10.34669696                3.30461471               57.69216158                0.00010000                1.07236330                0.18459549               -3.76809660               -0.98099437                4.14688956                1.55801333
              11.36042596                2.90846479               57.43397825                0.00010000                1.56828567               -0.49532191               -5.37540274               -1.64422520                3.04970666                4.57830445
              12.37806267                2.50856986               57.17253960                0.00010000               -1.30573830               -3.02419702               -6.73454774              -12.67129667               17.60729160               10.21485954
              13.33431119                1.88998243               57.20435721                0.00010000               -6.34185850               -8.13357899               -2.39018862              -31.72991447               31.59441483                6.34714876
              14.25122550                1.11697528               57.23972836                0.00010000              -10.32550665                5.20619851               -4.71902017              -39.57283153               37.07407435                2.29195212
              15.12780106                0.26327895               57.36833806                0.46136410               -5.33687573                2.61124467               -4.23421911              -22.13937840               20.99287167                5.87996850
              16.14448799               -0.13020398               57.08016685                0.98297938                1.66869328                3.22542481               -8.19502436               -0.90122920                0.41181762                0.19797635
               6.72634382                5.85818435               58.68966143                1.00000000               -0.36825266               -0.58833183                1.93553207               -0.04772573                0.23713846                0.96398462
               7.72266129                5.47425163               58.39742461                0.69199869               -0.16307983               -0.16747384                0.53884128                0.01181827                0.54501220               -0.22854938
               8.72308222                5.08950673               58.11123758                0.16998468                0.23928842                0.27868056               -0.82669587                0.00369839                1.11646443               -1.08539757
               9.72744706                4.70363489               57.83029337                0.00010000               -0.15301150                0.59708074               -2.17027220               -1.13490363                5.95910071               -0.21186112
              10.72002199                4.29737598               57.64097384                0.00010000               -0.13704376               -0.72544215               -3.28284081               -2.66697009               10.50842755                3.54673059
              11.72470618                3.88279251               57.45474794                0.00010000                1.13361852               -2.72723755               -4.43579393               -4.91837591               13.40301078                8.39154355
              12.74269436                3.42753728               57.32075906                0.00010000                1.38788041               -6.81586060               -4.67984360              -12.50956723               20.70396579               13.84434713
              13.75246379                2.84808519               57.26541676                0.00010000               -2.40948381               -3.51100541               -4.77202973              -20.32105365               29.03491707                4.17053952
              14.69450469                2.16415243               57.28721059                0.00010000              -11.58755234                3.45906625               -4.29944234              -30.86483755               42.29630690               -3.90971828
              15.52071275                1.27786997               57.50095646                0.06234880               -8.02020256               12.12094040               -3.14102569              -11.59411157               27.08304717              -20.71731676
              16.53410063                0.89295638               57.19767025                0.66718934                1.33878884                3.41446385               -6.78030828                9.34458760                2.04514117              -20.48525812
               7.10762845                6.85291169               58.59069072                0.98329202               -0.26666145               -0.46820612                1.58099880               -0.04644808                0.11851709                0.74396477
               8.10496184                6.47313240               58.29129669                0.41936965               -0.07249710               -0.06122208                0.17169046                0.03180584                0.58254053               -0.55765949
               9.10617851                6.09293003               58.00114957                0.00010000                0.17247629                0.38227617               -1.17697085               -0.07764691                2.87311617               -1.69229216
              10.10841136                5.70909925               57.74745268                0.00010000                0.40107132               -0.10881304               -1.68615797               -1.71413711               10.28889866                3.00837647
              11.11419994                5.29010587               57.60746181                0.00010000                1.17428904               -0.91156876               -3.20112597               -2.95126734               16.01821190                3.73965300
              12.13189714                4.85392004               57.46808881                0.00010000                2.41893555               -2.76166674               -4.16847662               -4.80974590               18.03816856                5.72344400
              13.16257865                4.37225265               57.36175160                0.00010000                2.96889101               -4.48984481               -4.91335290               -9.53000953               22.51651736                5.41895054
              14.19127496                3.81976232               57.29950799                0.00010000                2.07826675               -2.47249046               -5.51452493              -15.50846458               27.25015720                1.22077162
              15.20414398                3.18615660               57.27620424                0.00010000               -1.20800445                2.57020805               -6.09843504              -17.51905337               26.60572621               -7.47655833
              16.16711487                2.50569776               57.19158563                0.06379410               -5.14685327               17.50028752               -6.46774851               -5.15266497               16.24821702              -28.77866507
              17.10120692                1.93808530               56.96465702                0.65793405               -6.59079581               10.71621133               -8.46820240               -0.67522747                9.03023097              -29.25368899
               7.48497345                7.84882023               58.49001819                0.93011586               -0.16943745               -0.36008083                1.26657869               -0.03723248                0.05888380                0.70131892
               8.48327907                7.47302719               58.18387547                0.32148233                0.02944888                0.03052761               -0.14835125                0.05193413                0.51367544               -0.60708449
               9.48556243                7.09715225               57.88681626                0.00010000                0.63547015                0.43667503               -1.53386667               -0.81983616                7.31681493               -1.99733104
              10.49598848                6.70145863               57.71636241                0.00010000                1.53067142               -0.52434442               -2.44395964               -2.11619849               14.87050892                2.84266092
              11.51617585                6.27914461               57.57203937                0.00010000                2.51880033               -1.10092833               -3.46004614               -3.59047097               17.85192119                2.61200575
              12.54636448                5.82755918               57.45934800                0.00010000                3.50380204               -2.25547492               -4.49202634               -5.79197368               20.91090884                3.02158134
              13.58625189                5.33774038               57.37094423                0.00010000                4.10130335               -2.72278740               -5.45511854               -9.36164240               23.79705054                2.24579845
              14.62839055                4.79863539               57.30678007                0.00010000                3.59681397               -1.22200893               -6.53073420              -13.20542609               25.78891438               -0.66814858
              15.65818817                4.21555659               57.24652839                0.00010000                1.86700981                3.40492607               -8.15633280              -14.64756507               24.45628185               -5.75284207
              16.66573075                3.62787572               57.14355843                0.05356400               -0.11835835               11.24071539              -10.77506995               -8.61654477               15.12242648               -8.75380928
              17.65582101                3.10728060               56.89034336                0.62889451               -0.99097388               16.89955276              -12.27191818               -1.39601184                7.50001083              -13.08296940
               7.85846989                8.84571007               58.38997986                0.90669495               -0.08013908               -0.27156593                0.98865201               -0.04130441                0.03008394                0.77275263
               8.85766850                8.47374295               58.07704123                0.28114779                0.14402271                0.11845180               -0.46127303                0.04384534                0.39184299               -0.58380448
               9.86135034                8.10166353               57.77130458                0.00010000                1.32132695                0.48328693               -1.87684509               -1.37338639                9.58775547               -2.11276384
              10.88409504                7.69861236               57.64168682                0.00010000                2.74698121               -0.16914417               -2.97990100               -3.00832155               19.13411782               -0.16320767
              11.91628997                7.26808730               57.52871054                0.00010000                3.66834300               -0.91946438               -4.03119872               -4.55367877               21.04132826                1.07665912
              12.95746190                6.80881054               57.43717057                0.00010000                4.39898115               -1.49787354               -5.06251253               -6.48911285               23.29281396                1.33422206
              14.00426959                6.31779690               57.36697663                0.00010000                4.59441672               -1.36117114               -6.15230762               -8.96880688               25.37710161                0.97825519
              15.04935023                5.79532214               57.31256656                0.00010000                3.88413795                0.31218971               -7.46229069              -11.14683869               26.87684213               -0.20356236
              16.08195235                5.25425512               57.26611372                0.00010000                2.68548656                3.98069489               -9.40451802              -10.77683561               27.44161554               -1.34570343
              17.10305996                4.73051207               57.21477596                0.08005622                1.62622764                9.30407204              -14.88815400               -5.56234952               18.15540298                2.30428153
              18.11447690                4.27607636               56.97050655                0.62580000                1.14169394               13.33770237              -14.99232282               -0.77062062                8.87654076               -0.58102846
               8.22808161                9.84338891               58.29043840                0.89491074                0.01209143               -0.19518251                0.69937880               -0.04499610                0.01731552                0.81913850
               9.22820253                9.47539622               57.97052958                0.26970544                0.25718334                0.21855777               -0.77730321                0.01788835                0.29538158               -0.58737641
              10.23322528                9.10681799               57.65614645                0.00010000                2.05978715                0.58193840               -2.23800125               -1.89509920               11.38928390               -2.17846532
              11.26939827                8.69807575               57.55735432                0.00010000                4.08394085                0.00809044               -3.56294512               -3.83721046               22.74562111               -0.99159667
              12.31490410                8.26075532               57.47287744                0.00010000                4.87371762               -0.62926372               -4.69132459               -5.06261985               24.26701706               -0.10415365
              13.36687262                7.79760171               57.40706423                0.00010000                5.27300317               -0.86761627               -5.73725158               -6.29857070               26.14022367                0.39362777
              14.42036416                7.31051696               57.36245926                0.00010000                5.10614659               -0.35597357               -6.80886779               -7.59049956               27.95160952                0.83193778
              15.46899556                6.80487918               57.33472930                0.00010000                4.35486852                1.16408841               -8.09944803               -8.21369421               29.28104752                2.15566341
              16.50746153                6.29517049               57.31751157                0.00010000                3.18334830                3.62806743               -9.68032377               -6.36494015               32.45350569                3.67594423
              17.53266252                5.81395716               57.35764566                0.13083553                2.09092452                6.16032153              -12.03955426               -2.39149234               19.87889641                6.07182417
              18.54928002                5.37403465               57.08556643                0.62994301                1.66175007                6.61356142               -9.59030272               -0.37813356                5.30489401                3.40900186
               8.59355535               10.84180642               58.19108758                0.89521665                0.10418416               -0.12372626                0.41381711               -0.04964713                0.00731469                0.82284499
               9.59459719               10.47811410               57.86399515                0.28465325                0.36067452                0.32964948               -1.10404553               -0.01341299                0.22250677               -0.60602429
              10.60076884               10.11330229               57.54116470                0.00010000                2.94081559                0.73216330               -2.66630103               -2.44950673               13.05575295               -2.03344896
              11.65341350                9.69877417               57.46987296                0.00010000                5.73713866               -0.11579709               -4.19274823               -4.40346970               26.10158303               -1.08799827
              12.71551161                9.25550203               57.41133247                0.00010000                6.41576736               -0.70222871               -5.38041171               -4.73076623               27.45825085               -0.48562673
              13.78172885                8.79145822               57.37208534                0.00010000                6.48352586               -0.55043590               -6.40682629               -5.05464957               29.42726121               -0.01414639
              14.84518213                8.31067743               57.35994606                0.00010000                5.93469853                0.07785525               -7.35278998               -5.30944808               32.20340436                0.95455786
              15.90042282                7.81860391               57.38518977                0.00010000                5.01967214                1.15627549               -8.01281479               -4.84540328               34.05495203                4.02153137
              16.94557557                7.32681647               57.41882557                0.06283098                3.79715669                2.01666770               -9.15391809               -3.20067301               33.82078683               14.21433523
              17.97636595                6.85371850               57.44210081                0.20011905                2.05918360                2.78143508               -5.27865635               -1.36064345               17.02251994                2.99587134
              18.98675924                6.40834759               57.13952556                0.63083529                1.03932906                2.32185559               -4.43569804               -0.38065283                1.28152229                1.32385367
               8.95447332               11.84091439               58.09147771                0.85391456                0.19650838               -0.05289580                0.13055511               -0.05098511                0.01941261                0.71413092
               9.95643840               11.48198921               57.75732488                0.29617748                0.45508806                0.44339867               -1.43930873               -0.03634969                0.37563120               -0.56020850
              10.96357508               11.12146126               57.43025171                0.00010000                4.13453736                0.86506521               -3.16761454               -3.22215736               14.81436287               -1.35937375
              12.03912915               10.69575980               57.38361060                0.00010000                8.20148256               -1.33425854               -4.77494020               -3.77603216               29.26045607               -0.60151941
              13.12760473               10.24671074               57.34775702                0.00010000                8.57375407               -1.11821956               -5.98329330               -3.13501643               30.60479482               -0.35131019
              14.21060423                9.78659299               57.33279341                0.00010000                7.97123917               -0.61977846               -6.95504158               -2.80634208               32.95887238               -0.09845109
              15.28702951                9.31207406               57.35387150                0.00010000                7.26721110                0.02838500               -7.73357296               -2.67994678               36.99720080                0.68007296
              16.35594845                8.82800469               57.43433970                0.00010000                6.06519842                0.53170095               -7.75272964               -2.45170045               46.05755289                3.48880690
              17.40833348                8.33550384               57.65191522                0.18057516                3.39850447                0.85340517               -3.98619977               -1.51074059               32.19713672               12.49378671
              18.42391854                7.86958586               57.46544068                0.31638826                1.20376594                1.26148274               -3.18577819               -0.79234630                6.35106764                0.41914504
              19.43240880                7.42047176               57.15773159                0.62689498                0.84902589                0.95995909               -2.72603786               -0.15650975                0.47812001               -0.13551183
               9.31038599               12.84074851               57.98994890                0.92704904                0.29373319               -0.01658783               -0.15888161                0.21462455                0.31672285                0.61025614
              10.31332332               12.48698208               57.65168201                0.68700713                0.60845523                0.49928638               -1.76776176                0.18124711                1.06018398               -0.49702946
              11.32255510               12.13060360               57.32825043                0.44754759                6.96600214                0.91423427               -3.54624037               -4.84665155               16.74204332               -0.81561126
              12.45264337               11.67208900               57.30189830                0.36777964               11.97114994               -2.36708018               -5.15296264               -3.52187605               32.29047012               -0.12544682
              13.56197810               11.23313763               57.28376698                0.36049532               10.37976607               -1.35731103               -6.32413390               -1.21398072               33.78838681                0.03248424
              14.66023869               10.77906265               57.28856311                0.36619178                9.40966972               -0.75303390               -7.20410225               -1.13117903               36.43943512                0.25963922
              15.75017149               10.31124513               57.33320297                0.38476470                8.38601699               -0.08289302               -7.83764866               -1.17703813               41.45619914                0.84834239
              16.82795903                9.82923793               57.45520824                0.41720035                6.18040492                0.12332377               -7.15735397               -1.16696988               50.38557509                3.45931482
              17.87377959                9.34388457               57.69566744                0.64107244                2.37960367                0.83807340               -2.97416479               -0.96987758               32.34740548                3.76582024
              18.87555110                8.87894816               57.47964406                0.70889641                0.40388239                0.93622971               -2.67643851               -0.65363406                5.23728482                0.07214542
              19.88185724                8.42754677               57.17221586                0.81160067                0.63061346                0.70750031               -2.17123739               -0.19529500                0.72952792               -0.16664154
               5.84056446                2.98890046               60.00928817                1.00000000               -0.65841026               -0.82800563                2.86465660               -0.26221676               -0.63503834                0.69039662
               6.83398035                2.58616348               59.71158858                1.00000000               -0.46703770               -0.38997302                1.46759071               -0.20103817               -0.80365746                0.11100883
               7.83122370                2.18267885               59.41016923                1.00000000               -0.08629616                0.03419083                0.08680753               -0.20438557               -0.73925688               -0.13046800
               8.83225443                1.77744147               59.11345874                0.62334493                0.17219085                0.50553322               -1.33261358               -0.34283786                0.19829372               -0.64001086
               9.83466752                1.36820057               58.83055060                0.56666182                0.49681504                1.07012075               -2.93180813               -0.33656534                1.16051794               -0.04627968
              10.84219073                0.95666058               58.55271081                0.45833592                0.91289657                1.51515049               -4.48241286               -0.38253248                1.35538397               -0.35214793
              11.85292545                0.53978530               58.27353006                0.14237029               -4.43555948                2.07340144               -5.94569672               -8.22831391                4.60613471               -0.64493202
              12.75347954               -0.03968073               58.06084546                0.00010000              -19.29086206                2.98077669               -4.36902106              -29.14219868                4.66346884               -4.13751294
              13.46710821               -1.10152762               57.96234735                0.00010000               -9.92458169                8.62606625               -6.84037232              -31.54884831                9.09012330                3.73356727
              14.55498791               -1.97872698               57.77984230                0.58371403                7.26803276                6.10536876              -17.30255134              -23.35122435                3.00778874                2.84397004
              15.61246886               -2.41729310               57.50459481                1.00000000                5.74809568                7.14367196              -20.47124744                0.38239671               -1.55620643               -0.64729141
               6.24067927                3.98062040               59.90647363                1.00000000               -0.55984958               -0.78226620                2.55993341               -0.03699871               -0.07079579                0.94510019
               7.23508077                3.58226375               59.60868159                1.00000000               -0.35692091               -0.34940843                1.16185482                0.01940876               -0.07402098                0.17705879
               8.23354085                3.18302076               59.31052858                1.00000000                0.04922094                0.07517302               -0.22019348                0.02521590                0.01593104               -0.26389036
               9.23606519                2.78249680               59.01431605                0.46910253                0.40757273                0.53794988               -1.63778690               -0.06723044                1.36244861               -0.82173363
              10.24169231                2.37890178               58.74297757                0.47443104                0.82539241                1.06832139               -3.32422335               -0.09573054                2.45904217               -0.11210701
              11.25257304                1.97181209               58.46806141                0.37485686                1.35603321                1.53782445               -4.93444711               -0.15310291                2.24273567               -0.53310728
              12.26881297                1.56051932               58.19207789                0.02248445                1.50704867                2.03450187               -6.44104414               -7.95022817               10.13965615               -0.95407013
              13.28271401                0.99012703               58.07533101                0.00010000               -7.38350617               -4.46104172               -2.06731512              -34.97529032               21.62156548                1.44643553
              14.12114285               -0.01526696               58.06598924                0.00010000              -15.16778061                7.79562177               -6.30824536              -41.09173578               19.96584624                4.30141820
              14.97935840               -0.91767329               57.93413444                0.25404751               -3.31419487                5.70559089              -22.63134644              -22.46082045                7.95803446               15.16372241
              16.05485895               -1.34585638               57.65784971                1.00000000                7.55005475                6.22707485              -25.64937377               -0.77402004                2.46133887                9.15971838
               6.63653779                4.97325514               59.80838615                1.00000000               -0.45696238               -0.68543334                2.23928795               -0.04053911                0.13615069                1.12975657
               7.63196817                4.57917531               59.50688373                1.00000000               -0.25214121               -0.26253128                0.84735188                0.01272275                0.28626204                0.12335378
               8.63149497                4.18418231               59.20816037                0.75553167                0.15303179                0.16740748               -0.52993784                0.01856382                0.54403906               -0.54637221
               9.63502881                3.78820046               58.91165352                0.00010000                0.59713241                0.60982713               -1.88176667               -0.07375601                2.62124721               -1.02331647
              10.64343762                3.38956700               58.65444020                0.00010000                1.12411655               -0.12119241               -3.73846529               -1.11752603                3.77989246                1.93809628
              11.65751114                2.98741707               58.38003460                0.00010000                1.60841633               -1.04983352               -5.35227113               -1.76173261                2.90234213                5.20163355
              12.67560594                2.58047534               58.10492809                0.00010000               -1.38755646               -4.45799425               -6.71799869              -16.59412048               20.07000804               11.44002667
              13.62976001                1.87109843               58.17312902                0.00010000               -6.12660644               -7.46848901               -3.82332459              -36.95410733               34.94879408                5.30851145
              14.55307382                1.05438482               58.18810551                0.00010000               -9.66995446                5.91721636               -5.82700003              -42.17003300               38.89262512                2.72936024
              15.43636092                0.13538484               58.32165259                0.43856020               -4.98595897                3.66492295               -4.18620875              -23.43115321               22.84481049               14.80828682
              16.45335464               -0.29275160               57.99046786                0.96750834                1.69937181                4.14273327               -8.18374855               -1.52045406               -0.66836615                7.95351272
               7.02802814                5.96691174               59.70891181                1.00000000               -0.36200902               -0.57462156                1.90854942               -0.05237172                0.25257772                0.93405389
               8.02440805                5.57701312               59.40271521                0.66605256               -0.15705836               -0.16495037                0.51938232                0.00571125                0.57590838               -0.26714103
               9.02488697                5.18636891               59.10284948                0.14585662                0.23986690                0.27990884               -0.84577600                0.00390124                1.17782369               -1.10420225
              10.02920539                4.79469334               58.80860031                0.00010000               -0.23808985                0.43483771               -2.15712333               -1.49429195                6.15820882                0.28366778
              11.02012518                4.37647793               58.60851762                0.00010000               -0.13876694               -1.33651355               -3.17971337               -3.29980457               10.85815393                4.13448814
              12.02643005                3.95081542               58.41061646                0.00010000                1.65620134               -3.90979048               -4.36084372               -5.98584974               14.20363376                9.29951839
              13.05324920                3.47135943               58.27332463                0.00010000                2.16461701               -8.97959086               -4.79749650              -15.26350993               22.22486554               14.86745044
              14.06972239                2.84075725               58.21592150                0.00010000               -1.98967129               -3.08175222               -5.18415542              -24.10923013               31.07938121                2.93789842
              15.01345578                2.10307737               58.24089480                0.00010000              -10.59253184                3.68842870               -5.02779758              -35.16552807               45.07083475               -4.68637813
              15.85787175                1.15562517               58.45539105                0.08562094               -6.63665155               12.66706258               -6.36476770              -15.26111733               29.39138967              -20.63901468
              16.88072275                0.73699829               58.11510140                0.70502389                2.28509936                4.25895525               -9.76670674                7.05203392                2.59550757              -20.33020773
               7.41528759                6.96176270               59.60654647                0.96651687               -0.26623689               -0.45583647                1.58084353               -0.04806960                0.11686530                0.73725452
               8.41262522                6.57587630               59.29297262                0.39955168               -0.06974064               -0.07101728                0.16415399                0.03736619                0.61319446               -0.59374075
               9.41389277                6.18978049               58.98928239                0.00010000                0.12043647                0.36014389               -1.18807813               -0.21306365                3.43485159               -1.74103072
              10.41503395                5.79689722               58.73209857                0.00010000                0.37133366               -0.56298821               -1.33577602               -2.34528601               10.67924239                2.98353218
              11.42131945                5.36283673               58.57589002                0.00010000                1.39393468               -1.57528250               -3.10148108               -3.86947106               16.18472630                3.87837579
              12.44291264                4.90922126               58.42644033                0.00010000                2.95372321               -3.88676756               -4.13819144               -6.24579389               18.71325365                5.85801496
              13.48039391                4.40088352               58.31197893                0.00010000                3.64724112               -5.74137215               -5.02170128              -12.23372507               23.42089977                5.12450901
              14.51585746                3.80946339               58.24242634                0.00010000                2.72507121               -2.88479189               -5.87335537              -19.27182653               28.30827314                0.31679971
              15.53489534                3.12815339               58.21154650                0.00010000               -0.93199059                2.76883602               -6.90932238              -22.02300642               28.11334895               -9.45876869
              16.49721765                2.38872609               58.12646121                0.06423860               -5.16231312               18.31838892               -6.31240167               -9.48053654               17.21753436              -33.31576670
              17.43164907                1.79242751               57.87562859                0.67530119               -6.55685782               11.50581760               -9.62159027               -4.01319928                9.78050767              -32.12205088
               7.79883955                7.95779501               59.50281170                0.91745972               -0.17019666               -0.34592849                1.28110978               -0.03721731                0.05683755                0.72856446
               8.79713759                7.57559278               59.18232161                0.30851674                0.03826151                0.00965247               -0.15625639                0.06572507                0.53225248               -0.62429550
               9.79960478                7.19357179               58.87132586                0.00010000                0.60529220                0.37061047               -1.55709812               -1.19588816                7.62126604               -2.07090937
              10.80924343                6.78343358               58.69227222                0.00010000                1.54034627               -0.99600016               -2.36609799               -2.98547856               15.38368067                2.27242891
              11.83041171                6.34497228               58.53766721                0.00010000                2.71119735               -1.72132707               -3.39084333               -4.78160299               18.26868415                2.31516694
              12.86346738                5.87308007               58.41411113                0.00010000                3.89604348               -3.08060427               -4.52232760               -7.65658079               21.37305061                2.66610353
              13.90833258                5.35653199               58.31517185                0.00010000                4.67743056               -3.54369434               -5.65151819              -12.15299027               24.25802988                1.61608277
              14.95701599                4.78306141               58.23872484                0.00010000                4.27001821               -1.69205417               -7.01359970              -16.89703122               25.98594039               -1.79089132
              15.99373294                4.15845409               58.16056228                0.00010000                2.34854583                3.52063539               -8.81800370              -19.06265482               24.26804544               -7.95379246
              17.00398691                3.52199295               58.03396407                0.02809029               -0.03385056               12.25002843              -11.14334290              -12.22856148               14.88006202              -14.54386736
              17.99305593                2.96711464               57.76330117                0.62442306               -1.09309740               17.86859106              -13.02146958               -4.03817989                7.26762021              -17.85012173
               8.17894770                8.95484413               59.39992138                0.89740199               -0.07847652               -0.25598384                0.99646493               -0.04159062                0.02580250                0.81442403
               9.17816294                8.57606935               59.07236017                0.27288514                0.15932545                0.09606501               -0.47021499                0.04518068                0.40113331               -0.60387000
              10.18213421                8.19719270               58.75227524                0.00010000                1.28804745                0.38349291               -1.93029194               -1.87954074                9.78276835               -2.23365116
              11.20392389                7.77697722               58.61171924                0.00010000                2.69533431               -0.45508562               -2.99150395               -4.11586077               19.52568550               -0.62920955
              12.23604090                7.32841019               58.48808090                0.00010000                3.71487164               -1.34425711               -4.05958654               -6.01065641               21.43740899                0.51496738
              13.27822132                6.84760918               58.38567312                0.00010000                4.56559314               -2.00647278               -5.18424321               -8.60627738               23.62104092                0.70990691
              14.32735276                6.33000963               58.30344082                0.00010000                4.88867083               -1.84197328               -6.48195757              -11.93055082               25.52592211                0.13786693
              15.37599474                5.77562230               58.23394349                0.00010000                4.36789730                0.09689388               -8.15461957              -14.93321493               26.59096024               -1.47818695
              16.41471071                5.19856610               58.16389456                0.00010000                3.39955683                4.42378938              -10.91323888              -15.51360751               25.05853703               -3.19939588
              17.44398587                4.63372666               58.04871864                0.03861969                2.29656912               11.07765726              -16.45824101               -9.96190016               16.10302190               -1.50178072
              18.46064209                4.14979933               57.78723357                0.61085279                1.66562166               16.98467390              -18.80457656               -3.82018877                9.01695896               -3.09897781
               8.55555731                9.95267533               59.29752575                0.88780805                0.01353264               -0.18269410                0.71338971               -0.04743253                0.01404592                0.86709476
               9.55569264                9.57751408               58.96264615                0.26195244                0.27743985                0.20131049               -0.79274961               -0.01085955                0.28997397               -0.62313608
              10.56110611                9.20124165               58.63326360                0.00010000                2.00080476                0.48374206               -2.34910643               -2.46550946               11.45948764               -2.40508822
              11.59570873                8.77433186               58.52096616                0.00010000                3.92302562               -0.10166988               -3.70435369               -5.02163582               22.98551430               -1.57848083
              12.63956662                8.31808714               58.42496503                0.00010000                4.70168264               -0.78011206               -4.84710785               -6.59040451               24.59407253               -0.79563292
              13.68974238                7.83295061               58.34807512                0.00010000                5.10709100               -1.02197321               -5.98829708               -8.47685409               26.36309224               -0.37807810
              14.74170844                7.31969252               58.29128178                0.00010000                5.00264220               -0.42712363               -7.33406725              -10.54995801               27.88035315               -0.13848316
              15.78979523                6.78499929               58.24771130                0.00010000                4.18239988                1.37462267               -9.19458731              -11.76206304               28.85642695                0.96102793
              16.82535644                6.24692988               58.21044881                0.00010000                3.18602234                4.75940823              -11.66552281               -9.99531050               30.48766738                1.95795227
              17.85351567                5.74354609               58.19760255                0.07942905                2.95751937                9.42190791              -19.44246038               -4.88724988               21.13335036                7.85018299
              18.88450682                5.30680812               57.95598320                0.60884694                3.09911491               11.56522609              -19.24045270               -1.43881961               11.30050475                5.50360327
               8.92832156               10.95119025               59.19534141                0.88921861                0.10578698               -0.11775776                0.43246118               -0.05322984                0.00346136                0.87976268
               9.92937943               10.58009556               58.85278955                0.27580307                0.38423380                0.32195021               -1.12888514               -0.06765582                0.16424961               -0.66044794
              10.93600623               10.20686754               58.51343624                0.00010000                2.86331257                0.70312426               -2.91640418               -2.98744033               12.97921395               -2.40539111
              11.98664568                9.77494382               58.42631597                0.00010000                5.48039125               -0.00729782               -4.56362710               -5.46692164               26.22188550               -1.73139576
              13.04561406                9.31280795               58.35562694                0.00010000                6.02165871               -0.55918251               -5.74328880               -6.08662045               27.76447184               -1.19986081
              14.10707885                8.82716971               58.30545081                0.00010000                5.93454306               -0.32541214               -6.82499085               -6.96215959               29.59144916               -0.77740664
              15.16430492                8.32146716               58.28191934                0.00010000                5.32186320                0.51033661               -8.14456953               -7.90311323               32.11323094               -0.02896660
              16.21351612                7.80311476               58.29696312                0.00010000                4.59763871                1.90631692               -9.65440499               -7.60928033               33.34033373                2.92397061
              17.25625769                7.29375426               58.31030071                0.03603351                3.64232578                3.51550153              -12.45876447               -4.80416250               35.52139975               15.03560343
              18.28636263                6.82216482               58.37449739                0.14586059                2.45419742                5.41093370              -11.55115413               -1.68347183               20.39446157                6.78695966
              19.30534164                6.38110385               58.08495749                0.60440528                1.89790099                4.69140823               -9.21260633               -1.14142934                4.37481671                4.41919388
               9.29668210               11.95032017               59.09293737                0.84606173                0.19801342               -0.05524790                0.15810483               -0.05336007                0.01590783                0.77544263
              10.29866223               11.58395308               58.74270291                0.29044780                0.49134736                0.44716766               -1.47673325               -0.07313240                0.22374025               -0.62269332
              11.30650904               11.21530413               58.39661489                0.00010000                4.08838322                0.94133576               -3.64931050               -3.63453077               14.62710834               -1.68935926
              12.38042989               10.77418591               58.33326086                0.00010000                7.95496349               -1.06270918               -5.43210324               -4.48140532               29.36571589               -1.06973882
              13.46560831               10.30690349               58.28498321                0.00010000                8.07050405               -0.73536674               -6.62628443               -4.00001502               30.95847226               -0.83744586
              14.54183998                9.82644237               58.25968399                0.00010000                7.10464093               -0.06417313               -7.57485328               -3.96905903               33.13948730               -0.61119105
              15.60770113                9.32989925               58.27041265                0.00010000                6.17412721                0.90197447               -8.77984538               -4.26121682               36.85292895                0.00043748
              16.66532252                8.82312563               58.34585186                0.00010000                5.12609961                1.93608585              -10.15199588               -3.91346808               47.21932091                2.85344932
              17.71022312                8.31723991               58.59914157                0.16801407                3.35870658                2.02701980               -8.14785131               -2.39892082               34.02805224               14.67859292
              18.73249665                7.85176477               58.43114186                0.27110067                1.67885259                2.01499881               -4.10395336               -0.83818896                7.39474173                1.50133128
              19.74380018                7.40063628               58.12729458                0.59728423                1.13035244                1.46014535               -4.10013609               -0.68581305                1.21165683                0.70255740
               9.65998854               12.95008529               58.98855361                0.92226740                0.29442772               -0.02348802               -0.12133147                0.22600688                0.34263397                0.67195117
              10.66293282               12.58903891               58.63373956                0.68884232                0.65471237                0.50858331               -1.81125006                0.20750734                0.92616439               -0.56162287
              11.67308279               12.22569426               58.29060978                0.45500111                7.12426983                1.03901238               -4.03351666               -5.11008907               16.56729922               -1.00956186
              12.80541822               11.75368963               58.24716622                0.36753732               12.01372530               -2.04962744               -6.04075349               -3.88084988               32.39381755               -0.30100512
              13.91335730               11.29810061               58.21679619                0.36055232                9.96418446               -0.88028774               -7.22146815               -1.61527054               34.26082252               -0.17094555
              15.00470191               10.82588625               58.21209927                0.36599385                8.45200128               -0.05561177               -8.02633023               -1.64350472               36.78062123                0.03110084
              16.08239732               10.33950665               58.24753820                0.38380037                7.16020965                0.96073974               -9.12648191               -1.73286965               41.60021744                0.55950694
              17.14790610                9.84183647               58.37172730                0.41491245                4.86214089                1.87108436              -10.11212367               -2.00224144               52.22865415                3.85766943
              18.17964014                9.33429466               58.65801757                0.63862515                1.91481892                1.70547499               -5.67513586               -2.02688212               34.15028358                4.64361761
              19.18620248                8.86246480               58.45237426                0.68861572                0.71211033                1.07000280               -3.01899997               -0.82881230                5.61630454                0.03777545
              20.19388235                8.41030676               58.14878038                0.79612984                0.76798689                0.96704722               -3.13233179               -0.20758658                1.08425527                0.21590664
               6.13905563                3.10006095               61.03761384                1.00000000               -0.63938114               -0.80683938                2.79181266               -0.25789047               -0.60896252                0.67540007
               7.13266181                2.69169147               60.72605413                1.00000000               -0.45022814               -0.37867810                1.42320911               -0.19851103               -0.76700908                0.10713041
               8.13005106                2.28259451               60.41092240                1.00000000               -0.07418162                0.03573643                0.06840372               -0.20038903               -0.71433946               -0.12221742
               9.13117818                1.87183776               60.10013209                0.61612899                0.18576465                0.49624682               -1.32150880               -0.33984514                0.10834783               -0.61635919
              10.13376636                1.45709868               59.80130751                0.55050843                0.51038303                1.04536540               -2.89809366               -0.34053117                0.99616497               -0.08214486
              11.14138584                1.03979080               59.50796597                0.43133599                0.92745537                1.49222066               -4.44080235               -0.39348953                1.26056525               -0.40860354
              12.15231546                0.61740010               59.21434222                0.09671870              -10.13361400                2.01416815               -5.85932147              -16.10024204                6.67896642               -0.66657386
              12.93871356               -0.12390601               59.02897771                0.00010000              -21.97368207                5.13079331               -2.11759673              -27.07599528                3.83638168               -4.80867484
              13.71284182               -1.15466760               58.89690751                0.00010000               -5.35851196                7.49662536               -6.52130393              -28.84580492                5.79534785                7.70936080
              14.83154332               -2.07468113               58.60617683                0.60296532                8.61118941                6.17903620              -16.17452482              -24.42658183               -0.34014534                2.26351152
              15.88506561               -2.54735516               58.29671670                1.00000000                5.35222870                7.31243607              -19.51750633                0.92159739               -2.03908500               -0.79508134
               6.54484620                4.09199256               60.93178644                1.00000000               -0.54362781               -0.76128397                2.49459809               -0.03929897               -0.05624152                0.92850428
               7.53940992                3.68790469               60.62012269                1.00000000               -0.34360868               -0.33880719                1.12468890                0.01481871               -0.04886367                0.17007797
               8.53797403                3.28295188               60.30825612                1.00000000                0.05588618                0.07567767               -0.22941400                0.02216323                0.03069893               -0.26093028
               9.54052765                2.87680023               59.99798661                0.47432629                0.42052468                0.52846423               -1.61681861               -0.07269611                1.21996281               -0.77419321
              10.54638452                2.46755233               59.70989868                0.47410938                0.83862945                1.03689569               -3.27047490               -0.09699220                2.19854199               -0.16784462
              11.55730024                2.05471301               59.41889862                0.36540621                1.33884645                1.50758044               -4.86302293               -0.17057415                2.05033587               -0.58565873
              12.57316145                1.63754178               59.12797477                0.00010000               -0.16563879                1.93617778               -6.32174807              -14.66290690               13.09345905               -0.91811203
              13.55398746                0.92740192               59.05881442                0.00010000               -8.66950586               -1.02659132               -2.64570785              -35.29235237               20.66189775               -0.50364985
              14.39977133               -0.07970135               59.00125047                0.00010000              -13.51830886                7.56622609               -6.85726759              -38.62900393               10.63220734                6.91874191
              15.28362128               -1.01289077               58.68070066                0.17615030               -1.64078623                5.64346082              -24.40282227              -22.18689254                1.06089598               28.13160998
              16.36695561               -1.47423080               58.37095896                1.00000000                8.33343257                5.94848707              -27.70711323               -0.71277636                1.12225196               22.12992303
               6.94644538                5.08483527               60.83054417                1.00000000               -0.44465123               -0.66437240                2.18477885               -0.04487553                0.14873636                1.10811913
               7.94199887                4.68491533               60.51521239                1.00000000               -0.24232962               -0.25423860                0.81733696                0.00523283                0.30868488                0.10690618
               8.94159879                4.28410807               60.20281266                0.72909166                0.15624669                0.16743937               -0.53449759                0.01356385                0.58820316               -0.55433122
               9.94512380                3.88240704               59.89293785                0.00010000                0.61574697                0.60314851               -1.85026039               -0.09280086                2.42749561               -0.96928884
              10.95391373                3.47783659               59.61739227                0.00010000                1.14305533               -0.44682026               -3.64772485               -1.18401136                3.42355373                2.36023726
              11.96798491                3.06994241               59.32693283                0.00010000                1.62273427               -1.61679283               -5.22861845               -1.75206638                2.75134160                5.85095055
              12.98636841                2.65612366               59.03817963                0.00010000               -0.89376329               -5.98531731               -6.58142477              -20.28275358               21.77857890               12.58415732
              13.95010964                1.85556216               59.12789072                0.00010000               -5.29069891               -4.49280405               -5.08385613              -40.34864724               37.38238486                4.52647177
              14.88055444                0.99665692               59.12318836                0.00010000               -8.38873612                6.33426127               -6.95282661              -43.03467901               41.81029949                5.03224500
              15.78233492                0.03818808               59.28461388                0.42697723               -4.35321505                3.65859140               -3.00854664              -23.71648420               25.66237847               28.31333961
              16.79349014               -0.42838542               58.91649188                0.95888834                1.11552131                3.77111426               -5.92510400               -1.67562626               -1.38863805               21.73958099
               7.34378858                6.07870511               60.72783242                1.00000000               -0.35467947               -0.55391917                1.86825364               -0.05511476                0.26670112                0.91921499
               8.34024179                5.68281992               60.40781225                0.64013522               -0.15174967               -0.16320751                0.49978391                0.00432475                0.60112510               -0.30263233
               9.34075359                5.28630066               60.09432206                0.11910707                0.23506583                0.27624828               -0.85448336                0.00970398                1.24531105               -1.13002074
              10.34494310                4.88886320               59.78715090                0.00010000               -0.27923311                0.13454751               -2.12043423               -1.87099787                6.41289677                0.95705756
              11.33516893                4.45861593               59.57737957                0.00010000               -0.04856291               -1.96564002               -3.04401069               -3.84235348               11.27671800                4.79407942
              12.34397185                4.02237715               59.36753106                0.00010000                2.33588522               -5.11783703               -4.24468995               -6.93460519               14.91370922               10.31146709
              13.38188663                3.51783544               59.22480913                0.00010000                3.12547030              -11.16140241               -4.87576188              -17.80945511               23.39105105               16.13852405
              14.40648125                2.83754584               59.16173365                0.00010000               -1.27173989               -2.61335963               -5.59277656              -28.15441704               32.59355163                3.11793693
              15.35645183                2.04698388               59.18665463                0.00010000               -8.60736574                4.03284096               -5.71704167              -38.77215607               45.81642932               -3.60995944
              16.23433394                1.06028106               59.37366111                0.11904988               -4.49308743               11.13106624               -9.41357481              -19.03719208               29.72428790              -17.25615168
              17.26659008                0.60119149               59.00233611                0.75119090                3.22561473                3.79149671              -11.94978305                4.34065131                2.45147333              -17.31730336
               7.73711347                7.07375689               60.62230759                0.95189701               -0.26236601               -0.43442513                1.56051711               -0.04548089                0.11011963                0.74618293
               8.73448981                6.68165118               60.29457977                0.38006503               -0.06819410               -0.08330961                0.15756887                0.05221600                0.64178912               -0.62821729
               9.73574959                6.28963303               59.97738801                0.00010000                0.04493860                0.32202733               -1.18355138               -0.46348145                4.19346819               -1.80419920
              10.73538858                5.88509799               59.72073716                0.00010000                0.39015571               -1.07883291               -0.99339868               -2.93657979               11.14732488                2.94430536
              11.74355270                5.43852379               59.54543219                0.00010000                1.73423578               -2.26794347               -3.00337183               -4.64853110               16.22727721                4.13767296
              12.77007330                4.96758567               59.38532498                0.00010000                3.57289614               -5.03643504               -4.08005238               -7.66395902               19.30734565                6.20619160
              13.81501063                4.43289561               59.26131757                0.00010000                4.38997817               -6.96176436               -5.07934308              -14.96892783               24.08148295                5.30288406
              14.85787286                3.80329497               59.18204088                0.00010000                3.36827364               -3.31227121               -6.10602173              -22.96720958               28.78793880                0.32802061
              15.88237610                3.07731374               59.13801779                0.00010000               -0.52446957                2.85743985               -7.53356820              -27.53137677               29.43725438               -9.63562580
              16.84738347                2.26080941               59.06533760                0.07089937               -4.19468998               17.72299378               -6.40986276              -15.18050268               17.35627291              -34.59569030
              17.79848230                1.64744452               58.77222521                0.69631047               -4.89011711               11.87408509              -11.28563098               -7.54103233                9.17737588              -30.29708594
               8.12709039                8.07001661               60.51564039                0.90655721               -0.16804233               -0.32361911                1.27391526               -0.03654288                0.04997254                0.76342954
               9.12540996                7.68115373               60.18075034                0.29674871                0.04733770               -0.01550851               -0.15446985                0.07860508                0.54337698               -0.64478633
              10.12803714                7.29274121               59.85567430                0.00010000                0.59553912                0.27098687               -1.56710119               -1.59850664                7.97387894               -2.18940070
              11.13732075                6.86728654               59.66904045                0.00010000                1.58367421               -1.38818838               -2.30523821               -3.80348245               15.98369116                1.60341206
              12.15971063                6.41325706               59.50422250                0.00010000                2.95000511               -2.37174820               -3.30806140               -5.90532637               18.69210111                2.19245163
              13.19632085                5.92164845               59.36890145                0.00010000                4.35440753               -3.92704931               -4.50716533               -9.51037042               21.76730391                2.63699379
              14.24679878                5.37860015               59.25791386                0.00010000                5.31990393               -4.42256446               -5.74979325              -14.94204970               24.52610739                1.51505113
              15.30271893                4.77130042               59.16650808                0.00010000                5.07555409               -2.32615129               -7.29393224              -20.58123210               25.94076825               -2.07669097
              16.34830986                4.10413268               59.07016832                0.00010000                2.89370888                3.15334695               -9.07784580              -23.52938239               23.98420891               -9.00525962
              17.36059310                3.41474093               58.92069157                0.00897496               -0.29053200               13.80142822              -11.29802665              -15.55307803               14.50773223              -18.82934522
              18.34249922                2.83867319               58.62991396                0.62342016               -1.80938869               18.69851267              -13.59479020               -6.64157800                6.58946566              -20.38915452
               8.51410838                9.06728451               60.40990916                0.88992589               -0.07710675               -0.23529108                0.99422768               -0.04278248                0.02104938                0.86215112
               9.51333731                8.68134101               60.06763693                0.26610794                0.17691327                0.06751971               -0.46708166                0.03112306                0.38894951               -0.63177872
              10.51764664                8.29505277               59.73269874                0.00010000                1.27328886                0.24070071               -1.97967365               -2.39744490                9.99454310               -2.43133211
              11.53880309                7.85733423               59.58185674                0.00010000                2.67188100               -0.76885740               -2.97038963               -5.19387789               19.99617483               -1.04471051
              12.57108426                7.39108883               59.44751881                0.00010000                3.78598566               -1.79802163               -4.04018923               -7.41617894               21.88635486                0.15644261
              13.61452280                6.88904469               59.33348570                0.00010000                4.77167035               -2.56930006               -5.22581285              -10.75738191               23.95223721                0.47805890
              14.66651767                6.34444432               59.23733747                0.00010000                5.30964469               -2.46656886               -6.66563202              -15.03682356               25.58412517               -0.13532072
              15.72071569                5.75677194               59.14947417                0.00010000                5.09151329               -0.51101581               -8.61459431              -18.99127534               25.92837607               -2.03869295
              16.76834793                5.14038068               59.04784894                0.00010000                4.05328507                4.18953545              -11.71451480              -20.04601001               23.06454661               -4.43393517
              17.80178139                4.53683797               58.88561114                0.00195492                2.47191448               11.52205663              -15.92147049              -13.48819341               13.82745084               -6.48466775
              18.81778622                4.02141477               58.59441501                0.59902474                1.60048298               17.38548032              -18.63031385               -5.74083945                7.23495356               -7.88286351
               8.89812174               10.06531079               60.30470620                0.88231140                0.01424259               -0.16472215                0.71582778               -0.04967088                0.00885758                0.92299072
               9.89826416                9.68250412               59.95467459                0.25801299                0.29866429                0.17536876               -0.79035771               -0.06527623                0.23490419               -0.67076776
              10.90409502                9.29755523               59.60916432                0.00010000                1.95714830                0.33952041               -2.47038848               -3.07073394               11.47811033               -2.77194362
              11.93740713                8.85190939               59.48326725                0.00010000                3.77907820               -0.27413320               -3.78890653               -6.17005860               23.28329586               -2.24576462
              12.97967659                8.37729663               59.37593529                0.00010000                4.52052954               -0.98011027               -4.93001510               -8.05324980               25.03948956               -1.32162314
              14.02781772                7.87026245               59.28729829                0.00010000                4.93292301               -1.23717322               -6.12195583              -10.76426134               26.69119956               -0.73166318
              15.07833505                7.32926877               59.21577791                0.00010000                4.95696701               -0.67385466               -7.69397836              -13.98827923               27.80796181               -0.55759844
              16.12695706                6.76108010               59.15083755                0.00010000                4.44942907                1.10854082               -9.94483017              -16.16064793               28.22403692                0.20268629
              17.16732363                6.18792338               59.08420111                0.00010000                4.14190421                4.92275508              -13.65727327              -15.28883372               26.44713407                0.48143610
              18.20979514                5.64518207               58.96879645                0.02870403                4.56026017               10.95402048              -22.09759053               -9.68617896               17.55178938                6.78845688
              19.25852883                5.18638280               58.70075738                0.59160677                4.87336879               15.20026528              -25.75972414               -4.10246913               10.78899956                5.80672390
               9.27872829               11.06399006               60.19973680                0.88414733                0.10590545               -0.10498766                0.43954727               -0.05723596               -0.00357337                0.94948926
              10.27978734               10.68484838               59.84141745                0.27547003                0.40492001                0.30406064               -1.13161696               -0.15876857               -0.01786786               -0.73517143
              11.28682669               10.30184318               59.48283662                0.00010000                2.79365841                0.64726531               -3.19579918               -3.57662714               12.69799290               -3.02414638
              12.33566051                9.85185156               59.37860042                0.00010000                5.24197573                0.08026952               -5.06541665               -6.48442696               26.38060393               -2.69816734
              13.39166621                9.37148662               59.29646669                0.00010000                5.58024566               -0.42520257               -6.08344748               -7.34379432               28.33467415               -1.87251391
              14.44726543                8.86430122               59.23558552                0.00010000                5.21341153               -0.12708701               -7.08448577               -9.01862893               30.00140573               -1.16785927
              15.49593444                8.33096723               59.19705467                0.00010000                4.57913476                0.85975880               -8.67875028              -11.28866461               32.07369729               -0.49672377
              16.53884812                7.77894276               59.19210167                0.00010000                4.12674296                2.46147019              -11.38375096              -12.37412788               32.36641621                1.92421502
              17.57846929                7.23883578               59.16965028                0.00010000                3.53751406                4.67177299              -14.70996257               -9.33717425               34.76123914               14.26020497
              18.60959840                6.75591838               59.21107772                0.08489689                3.74330420                8.82767737              -23.01031425               -3.97752428               24.30710217               12.45751440
              19.65333538                6.32542008               58.95527344                0.58372601                4.37369764                9.21586160              -22.65135661               -2.75944711               12.58094336               10.14668929
               9.65526038               12.06321103               60.09463980                0.83864641                0.19752972               -0.05175103                0.17553879               -0.05564568                0.00735635                0.85788247
              10.65723568               11.68858533               59.72779021                0.30478615                0.51494591                0.44139710               -1.49257333               -0.13537008               -0.17889928               -0.71078499
              11.66555930               11.31050053               59.35726550                0.00010000                4.04197329                1.02897053               -4.13859026               -4.07114078               13.99951791               -2.20815517
              12.73807514               10.85351478               59.27496854                0.00010000                7.73958710               -0.67966921               -6.67763305               -5.15175807               29.48107397               -1.88846498
              13.82035104               10.36879257               59.21523134                0.00010000                7.49446972               -0.26969270               -7.45731846               -4.75993902               31.82708742               -1.33579637
              14.88796454                9.86772071               59.18129635                0.00010000                5.87845877                0.52764412               -7.96299170               -5.22424765               33.79645490               -0.87310222
              15.93792022                9.34646395               59.17827459                0.00010000                4.18207044                1.86084661               -9.50166105               -6.53989153               36.68298665               -0.37730549
              16.97160595                8.81030950               59.23129979                0.00010000                3.28421524                3.78488434              -12.30394002               -7.09502379               47.51133728                1.98108739
              18.00360452                8.28135884               59.48895819                0.12354503                3.60272076                4.00845751              -17.59137576               -4.54524475               38.39944411               16.25099423
              19.04366036                7.82173561               59.38336162                0.20484916                3.03659898                4.06602398               -7.92140616               -1.15714164               11.87095708                5.89921297
              20.06433650                7.37070003               59.07572886                0.57547406                2.06761387                3.17366165               -8.69788056               -2.23382130                3.79920204                3.49135197
              10.02686678               13.06295504               59.98752227                0.91798720                0.29236682               -0.02559895               -0.09000624                0.23276764                0.38134373                0.76059635
              11.02979044               12.69367632               59.61545701                0.70547986                0.68038242                0.50909915               -1.83007655                0.22885385                0.58668289               -0.65494482
              12.04047442               12.32242259               59.24758009                0.47706690                7.22714319                1.19220564               -4.37009495               -5.27939471               15.84792982               -1.34752978
              13.17433331               11.83825818               59.18108323                0.36742901               12.08935350               -1.52566037               -8.04467590               -4.19067449               32.30631858               -0.55363576
              14.28226149               11.36609277               59.13933761                0.36058771                9.53878958               -0.26998054               -8.45889023               -1.97915836               35.42742879               -0.42704958
              15.36510910               10.87485410               59.12803650                0.36575110                7.01431593                0.71333921               -8.62835839               -2.18097439               37.69068208               -0.14240661
              16.42254781               10.36818416               59.15067333                0.38285339                4.84718246                2.17202103              -10.00834029               -2.54792320               41.54541917                0.31813359
              17.46205275                9.85464045               59.25296577                0.41261697                2.67952390                4.43309430              -13.35496881               -3.41428114               53.97294250                3.36603705
              18.47613829                9.31900493               59.58216473                0.61381511                1.75308179                3.76460871              -14.20478348               -3.61670227               39.16058724                8.92747991
              19.49711438                8.83723886               59.41926406                0.65299103                1.72959152                1.55032492               -4.85892306               -1.16017879                8.84950063                0.61254210
              20.51073012                8.38889331               59.10956923                0.78560042                1.36157367                1.81932813               -6.56267657               -0.19519316                2.79964537                0.88656067
               6.45150463                3.21406327               62.06512442                1.00000000               -0.61730174               -0.78031074                2.70215425               -0.25170054               -0.58621434                0.66316916
               7.44533161                2.80016896               61.74005276                1.00000000               -0.43228402               -0.36619184                1.37444792               -0.19458930               -0.73491745                0.10322501
               8.44285895                2.38556707               61.41153730                1.00000000               -0.06476689                0.03448219                0.05907307               -0.19499103               -0.69346166               -0.11484159
               9.44403628                1.96940523               61.08702856                0.60988953                0.19489931                0.48019441               -1.28822525               -0.33102551                0.01284818               -0.59600946
              10.44675694                1.54937534               60.77258873                0.53561876                0.51655251                1.00847879               -2.82363712               -0.33968161                0.81223442               -0.11478920
              11.45436733                1.12662320               60.46389476                0.40547656                0.93680483                1.45088525               -4.34153191               -0.39569770                1.14315332               -0.45710574
              12.46549303                0.69918871               60.15634363                0.05307654              -15.33627230                1.91309495               -5.70293108              -23.58021086                9.66002120               -0.74947442
              13.14764188               -0.19552765               60.01849352                0.00010000              -22.98384929                7.66686812               -1.41413818              -25.25731162                9.58381509               -1.92030785
              14.00581605               -1.15602631               59.83192127                0.00010000                0.03669677                5.28533453               -6.21873678              -23.74036735                3.77589754               12.15098482
              15.14837582               -2.08250441               59.45635181                0.65606594                9.23956934                4.90262685              -12.98682347              -23.03344578               -2.44097023                1.57853579
              16.19060744               -2.58167925               59.11424469                1.00000000                4.22316191                5.86461538              -15.87709423                0.70051155               -2.01680749               -0.59060052
               6.86288193                4.20626016               61.95636559                1.00000000               -0.52481123               -0.73458671                2.41369501               -0.04173973               -0.04283300                0.91599122
               7.85763382                3.79650704               61.63117537                1.00000000               -0.32955138               -0.32725461                1.08438580                0.00967431               -0.02508562                0.16289144
               8.85629091                3.38591189               61.30594030                1.00000000                0.05940334                0.07313382               -0.22909358                0.01873787                0.04510121               -0.26106411
               9.85882189                2.97420718               60.98197968                0.48114464                0.42301149                0.51225833               -1.57374100               -0.07444669                1.08150797               -0.72940234
              10.86475114                2.55946012               60.67756808                0.47585937                0.83408870                0.99577582               -3.17532528               -0.09591735                1.94074046               -0.21005007
              11.87550366                2.14113206               60.37080095                0.35803305                1.30076084                1.45902216               -4.72842179               -0.18785913                1.87863053               -0.61889368
              12.89076635                1.71831966               60.06564293                0.00010000               -2.64136927                1.80677067               -6.12028213              -20.76322139               14.99294949               -0.92518877
              13.82267628                0.88114103               60.02241685                0.00010000               -8.94327991                2.71181438               -4.51307429              -33.83677676               22.78601405                1.75213623
              14.71190075               -0.10317297               59.92884389                0.00010000               -9.59042246                6.28259306               -7.28842872              -34.39392897                4.60970851               11.47119171
              15.63086783               -1.03347814               59.44607800                0.12510792               -0.75566806                4.55977988              -20.07341849              -20.59654882               -5.14561208               41.36977030
              16.69678739               -1.52303310               59.10370744                1.00000000                6.59195655                4.61710609              -22.96071062               -0.39457335               -0.19246324               36.62350679
               7.27017607                5.19937154               61.85208173                1.00000000               -0.43027028               -0.63637737                2.11527743               -0.04873835                0.15936283                1.09356567
               8.26587337                4.79362387               61.52323046                1.00000000               -0.23212487               -0.24569744                0.78536029               -0.00173494                0.32927028                0.09175431
               9.26553358                4.38702975               61.19747042                0.69600660                0.15628696                0.16406316               -0.52885155                0.00950837                0.63604173               -0.57218407
              10.26899911                3.97965040               60.87464831                0.00010000                0.61900672                0.59140031               -1.79743105               -0.10774831                2.25759238               -0.91947004
              11.27791371                3.56929085               60.58148570                0.00010000                1.13757486               -0.75702636               -3.51736938               -1.16592553                3.10009668                2.79989266
              12.29175061                3.15580365               60.27546223                0.00010000                1.61529604               -2.12397232               -5.04126931               -1.60978606                2.61964190                6.48488115
              13.31021963                2.73532413               59.97329959                0.00010000                0.03241834               -7.36638449               -6.36763122              -23.04968643               22.82931818               13.58715195
              14.29239897                1.85870864               60.07145190                0.00010000               -3.88314954               -1.60876018               -5.85259888              -41.43134660               38.76145097                6.06612326
              15.23255664                0.96962555               60.04904898                0.00010000               -6.80470023                5.96108594               -7.32987978              -42.20306471               45.83843910                9.78808715
              16.15630497                0.00869119               60.26148166                0.42729168               -3.53653793                3.16282786               -2.01543346              -22.65772357               29.37666018               42.21418199
              17.16182588               -0.48933713               59.87196578                0.95634886                0.55209126                2.89759922               -3.44262159               -1.02209125               -1.10623700               37.32357929
               7.67340250                6.19353261               61.74627689                1.00000000               -0.34615855               -0.52465701                1.81264769               -0.05547488                0.27875579                0.91481215
               8.66994091                5.79159310               61.41271089                0.61471067               -0.14739763               -0.16250021                0.47973578                0.00838765                0.61857205               -0.33394683
               9.67045454                5.38919315               61.08575982                0.09015901                0.22324518                0.26572599               -0.85232073                0.02566324                1.31705859               -1.16093905
              10.67440582                4.98603518               60.76619163                0.00010000               -0.25875837               -0.28783086               -2.06035868               -2.19682045                6.70671306                1.74100765
              11.66527938                4.54431960               60.54763740                0.00010000                0.14344267               -2.52717995               -2.92662395               -4.20095567               11.71705414                5.50287290
              12.67727467                4.09865261               60.32572266                0.00010000                3.07941283               -6.19144704               -4.12218705               -7.59520288               15.48442818               11.37665863
              13.72686763                3.57099197               60.17580939                0.00010000                4.12366263              -13.07438266               -4.88455122              -19.72993728               24.09532574               17.70748003
              14.75974792                2.84896583               60.10406597                0.00010000               -0.45053623               -2.37296311               -5.78104553              -31.62130874               33.56579062                4.77638643
              15.71785691                2.01604875               60.12655396                0.00010000               -6.15359437                4.11508222               -6.04280044              -40.57001739               45.14148158               -0.17081750
              16.63667603                1.02977842               60.26711955                0.16548039               -2.27273524                7.05453172              -10.68447587              -21.36495731               28.17307541              -12.20527480
              17.67240220                0.53491889               59.87610574                0.80774758                3.57261703                2.41225322              -12.03230654                2.49382120                1.52545697              -13.00273835
               8.07294562                7.18887840               61.63775681                0.93909280               -0.25650317               -0.40352940                1.52040841               -0.03962308                0.10228195                0.76557274
               9.07038058                6.79037387               61.29612399                0.36201267               -0.06704311               -0.09766032                0.15256212                0.07480858                0.66493748               -0.65853103
              10.07160475                6.39234427               60.96561136                0.00010000               -0.02221623                0.26399453               -1.16484314               -0.80711844                5.07297537               -1.88098978
              11.06993626                5.97389378               60.71223059                0.00010000                0.48362083               -1.58264755               -0.88895387               -3.38168867               11.66884592                3.02459715
              12.08127717                5.51874725               60.51582258                0.00010000                2.16189581               -2.87924486               -2.96113203               -5.14028630               16.17820426                4.52498433
              13.11317418                5.03197471               60.34483928                0.00010000                4.20152491               -6.04966948               -4.02670024               -8.85316782               19.77547415                6.79432028
              14.16530767                4.47383647               60.21039207                0.00010000                5.08709220               -8.00894327               -5.07371279              -17.31724312               24.49265613                6.01103574
              15.21491602                3.81124938               60.12030591                0.00010000                3.75180176               -3.74357602               -6.12170715              -25.90401490               28.85372085                1.43017197
              16.24034370                3.05192719               60.06087514                0.00010000               -0.23901659                2.62344999               -7.43032287              -33.00454171               30.26241046               -8.09523751
              17.21013569                2.14978182               59.99826395                0.08833178               -1.94611689               14.76770421               -7.36292761              -19.76496943               16.59826032              -29.56563008
              18.20142137                1.55890794               59.64991597                0.72474109               -0.87143217               10.11114320              -11.75382270               -7.38747616                5.50655311              -22.65099674
               8.46961909                8.18546203               61.52829001                0.89744676               -0.16478816               -0.29285233                1.24701496               -0.03383733                0.04352038                0.80459637
               9.46797121                7.78963989               61.17923221                0.28767907                0.05865828               -0.04321689               -0.14531096                0.08913931                0.53744024               -0.66414778
              10.47079226                7.39447305               60.83998384                0.00010000                0.61989207                0.13658850               -1.56578018               -1.95285739                8.32129492               -2.35310830
              11.48036905                6.95438223               60.64616745                0.00010000                1.68002333               -1.60187896               -2.30425343               -4.43236459               16.62240636                1.00196283
              12.50439273                6.48673470               60.47150598                0.00010000                3.23765201               -2.94604993               -3.27388001               -6.79305728               19.11191815                2.32728123
              13.54512209                5.97765922               60.32396782                0.00010000                4.84276879               -4.66005924               -4.49501563              -11.08241878               22.07066483                3.00314635
              14.60124810                5.41081311               60.20017599                0.00010000                5.92274041               -5.21986497               -5.76047682              -17.29128925               24.61139576                2.04789560
              15.66357690                4.77409431               60.09284620                0.00010000                5.89927623               -3.03652050               -7.27914721              -23.65802909               25.67808478               -1.45747205
              16.71923363                4.06851775               59.97900537                0.00010000                3.54095003                2.19637049               -8.93431504              -27.47204233               23.35161832               -8.29785455
              17.73439590                3.32513250               59.80800354                0.00240154               -0.64165848               15.30733013              -10.54978206              -18.37714369               13.75007864              -20.69529076
              18.70640046                2.73714175               59.49140536                0.63000417               -2.79954458               18.11953538              -13.52854808               -9.48347235                6.38307048              -19.82080812
               8.86391315                9.18302135               61.41980594                0.88396922               -0.07607939               -0.20772612                0.97603484               -0.04225329                0.01652167                0.91307074
               9.86315235                8.78950953               61.06301853                0.26402067                0.19460588                0.03391577               -0.44809518                0.00080325                0.33956897               -0.66024471
              10.86780526                8.39507604               60.71268177                0.00010000                1.29374812                0.05959235               -2.00833184               -2.81849651               10.18905575               -2.69332677
              11.88902731                7.94185620               60.55231144                0.00010000                2.71668865               -1.08546694               -2.96896882               -6.05075744               20.48842377               -1.29096501
              12.92213904                7.45982626               60.40727712                0.00010000                3.92100401               -2.20139568               -4.03379440               -8.55750181               22.32280901                0.12781641
              13.96744739                6.93877352               60.28115686                0.00010000                5.04538804               -3.07208450               -5.25547695              -12.58927146               24.25587047                0.76044912
              15.02304680                6.36943917               60.17012818                0.00010000                5.83016995               -3.09948729               -6.74580870              -17.75871265               25.53321790                0.30675681
              16.08405079                5.75051897               60.06165160                0.00010000                5.84089334               -1.38343950               -8.73963663              -22.56543523               25.14217010               -1.59050481
              17.13986466                5.09585460               59.92960427                0.00010000                4.49590106                3.31197535              -11.52412502              -23.87419727               21.38238596               -5.03919743
              18.17396881                4.45592843               59.73028923                0.00010000                2.39343779               11.43580744              -14.85193203              -16.04783358               12.22939853               -9.31806280
              19.18773342                3.92129864               59.41462729                0.59375760                1.37646052               16.24712114              -17.24420915               -6.96475336                5.96747638              -10.86660876
               9.25579767               10.18130750               61.31184231                0.87810709                0.01349207               -0.13874592                0.70255801               -0.05014768                0.00470871                0.98191203
              10.25593259                9.79031820               60.94683900                0.26230215                0.31389928                0.13834919               -0.76292661               -0.14363555                0.10373173               -0.72093552
              11.26207566                9.39566489               60.58385583                0.00010000                1.93355478                0.16037029               -2.55012595               -3.63337270               11.42515007               -3.23123737
              12.29460369                8.93267289               60.44518803                0.00010000                3.71248580               -0.62885108               -3.77786589               -7.06788687               23.60198972               -2.85139640
              13.33632537                8.44270679               60.32636472                0.00010000                4.45600310               -1.18823191               -5.00495325               -9.16359768               25.51575255               -1.52671644
              14.38372375                7.91621753               60.22563601                0.00010000                4.90015171               -1.44795274               -6.23933342              -12.74059119               27.06458942               -0.47086460
              15.43432841                7.34882336               60.13740221                0.00010000                5.10645100               -1.02015842               -7.92731858              -17.17880462               27.84059185               -0.12475638
              16.48585277                6.74642552               60.04881470                0.00010000                5.10059077                0.53089295              -10.38392161              -20.49340338               27.10362828                0.17082588
              17.53634022                6.13475726               59.93730334                0.00010000                5.10712118                3.91733392              -14.72144352              -19.99675545               23.30991655                0.28589059
              18.58799519                5.55384865               59.75565074                0.00010000                5.00123678               10.04107573              -20.54997752              -12.98801888               13.70296319                1.51191344
              19.63636496                5.06208417               59.44078871                0.58208031                4.83697650               14.38837537              -24.51354717               -5.13466438                7.19728856                0.05626396
               9.64488879               11.18024643               61.20413235                0.88067897                0.10334601               -0.08075733                0.42893197               -0.06045502               -0.01296358                1.02755019
              10.64592225               10.79227651               60.83015721                0.29377771                0.39471642                0.26898101               -1.09865259               -0.27185140               -0.35082409               -0.82313067
              11.65278312               10.39828344               60.44952026                0.00010000                2.73527154                0.53663319               -3.30267470               -4.28759558               12.02295940               -3.73326901
              12.70062768                9.92927918               60.32500764                0.00010000                5.12696623                0.06304551               -5.43839442               -7.23699883               26.30567641               -4.35782361
              13.75532244                9.43606162               60.23395799                0.00010000                5.29456566               -0.26950714               -6.53000929               -7.99839176               29.04130729               -2.31004969
              14.80651900                8.90981447               60.16376110                0.00010000                4.69701362                0.01559056               -7.29664547              -10.80117730               30.64878524               -0.88864636
              15.84926272                8.34903600               60.10834434                0.00010000                4.08649158                0.99555622               -9.08084206              -14.58243116               32.03702761               -0.06522230
              16.88824883                7.76113682               60.06928810                0.00010000                4.16218522                2.77288803              -12.80598655              -17.79109116               32.12932157                2.07474300
              17.93250642                7.17420128               60.01610146                0.00010000                4.93163466                4.74940454              -16.74752021              -15.72884648               29.52750470               10.60778258
              18.98688152                6.65674994               59.91429111                0.03085976                6.80313310               10.38570193              -29.24062279               -8.49926020               20.21017500               16.03938446
              20.06856908                6.20906615               59.63193036                0.57403352                8.16875632               12.70416810              -33.92726588               -4.83414082               13.59148327               12.60673525
              10.03052841               12.17969236               61.09644814                0.83248127                0.19301447               -0.03570679                0.17253498               -0.05659593               -0.01329761                0.96064988
              11.03245855               11.79569782               60.71285145                0.35590446                0.43963343                0.41649577               -1.46712182               -0.23041997               -0.79376970               -0.82142387
              12.03932107               11.40639756               60.31384309                0.00010000                3.98134917                0.99155135               -4.02359054               -4.50659870               12.43288474               -2.66763143
              13.11208553               10.93393380               60.19970820                0.00010000                7.82505879                0.05541789              -10.17166348               -5.49607626               29.18912096               -3.60394011
              14.19582225               10.43731664               60.13583684                0.00010000                7.13201403                0.26427247               -8.20595265               -4.88871543               33.26626571               -1.61487115
              15.25472582                9.91652934               60.10042415                0.00010000                4.77675872                0.98716708               -8.17345796               -6.39606599               34.82310503               -0.63685621
              16.29135742                9.36873448               60.08037943                0.00010000                2.50699265                2.60179267              -10.14318866               -8.77661699               37.05856129               -0.05230345
              17.30486567                8.80188328               60.09977306                0.00010000                1.73963754                5.23442133              -14.17809557              -11.56822064               44.95982004                1.85551552
              18.32615018                8.22974535               60.24731405                0.05299376                3.91397253                7.61149520              -28.22010480               -8.81367094               45.44696492               14.40804921
              19.38314512                7.76156269               60.27271374                0.13160121                5.44497726                7.30804025              -22.65059892               -3.23356704               23.45229124               13.85748925
              20.43504972                7.31616754               59.95333697                0.56828059                5.19046023                7.56455486              -23.48894634               -4.50472297               11.18003756               10.15652665
              10.41174594               13.17953229               60.98675349                0.91390920                0.28627141               -0.01600634               -0.08193031                0.22916667                0.43101819                0.88194174
              11.41460865               12.80060643               60.59713803                0.74701845                0.63346139                0.49086028               -1.79272458                0.14411904                0.20638786               -0.78180675
              12.42441517               12.41811447               60.20320788                0.52323256                7.25892084                1.17169124               -4.03866969               -5.00153514               13.73728190               -1.59532557
              13.55978707               11.93038754               60.08627270                0.36714305               12.52687152               -0.35462645              -13.33218692               -4.06821649               31.15982491               -0.46505573
              14.67495260               11.44134707               60.04761839                0.36061900                9.36963820                0.40304230               -9.28364645               -2.12845176               37.30693439               -0.80693418
              15.74717983               10.92955781               60.03953210                0.36555908                5.67119216                1.30284668               -9.03054634               -2.76835847               39.13987421               -0.13025394
              16.78837644               10.40107186               60.04737140                0.38179710                2.43468579                3.23373727              -10.93504713               -3.48472622               41.81814901                0.36394680
              17.79587355                9.86582525               60.10462792                0.41035538                0.40885755                6.39419731              -15.47537241               -4.63124538               53.62749454                1.60149177
              18.79655359                9.32643118               60.37392190                0.56902622                1.99572212                9.66858360              -30.24386172               -6.10538361               50.51368042               13.67209753
              19.83578799                8.80291075               60.35519580                0.60890015                3.63556686                4.13480568              -16.30857583               -3.03940947               21.21083071                6.08888606
              20.86926493                8.36035725               60.01752684                0.78356888                3.34769368                4.41897112              -18.04594935               -0.83382896                9.28197405                2.90185384
               6.77747466                3.33084201               63.09165693                1.00000000               -0.59240711               -0.74869285                2.59666170               -0.24359133               -0.56538931                0.65245282
               7.77155059                2.91151077               62.75354309                1.00000000               -0.41343152               -0.35259485                1.32169796               -0.18922517               -0.70547996                0.09921193
               8.76920603                2.49149168               62.41210386                1.00000000               -0.05834349                0.03057968                0.05859686               -0.18820021               -0.67437389               -0.10811024
               9.77038372                2.07001534               62.07436758                0.60451316                0.19694095                0.45770918               -1.23373780               -0.31774303               -0.08145119               -0.57813752
              10.77314485                1.64484420               61.74483477                0.52209589                0.50551457                0.96101606               -2.70753471               -0.33563001                0.61959658               -0.14518506
              11.78049401                1.21683631               61.42113533                0.38095235                0.88861381                1.39313526               -4.17695547               -0.42121136                1.01660103               -0.50010646
              12.79091712                0.78381200               61.10028360                0.01205801              -16.28408923                1.82700390               -5.47103550              -26.30101523               12.11537527               -0.87097315
              13.45481222               -0.17015882               61.00069495                0.00010000              -22.02078157                7.96450930               -2.46198075              -25.29580117               16.89058781                2.48579582
              14.35050149               -1.10549314               60.77253278                0.00010000                2.27941373                3.80879160               -5.48538160              -20.83991252                3.30873505               15.52217132
              15.50040050               -2.02256280               60.34644036                0.74001773                8.92211034                3.19375829               -9.02260622              -21.08547811               -3.27711923                1.08905166
              16.52894370               -2.53809268               59.97917481                1.00000000                2.85431997                3.86109264              -11.10808873                0.33738790               -1.57627145               -0.18790424
               7.19436999                4.32335508               62.98006034                1.00000000               -0.50364871               -0.70233586                2.31816610               -0.04400068               -0.03022716                0.90573747
               8.18933350                3.90798482               62.64181041                1.00000000               -0.31491233               -0.31479362                1.04135722                0.00436994               -0.00233386                0.15543864
               9.18807174                3.49179748               62.30367424                1.00000000                0.05982657                0.06765935               -0.21963460                0.01516813                0.05948405               -0.26364548
              10.19053003                3.07459243               61.96651179                0.48973919                0.41531610                0.48951761               -1.50956146               -0.07332362                0.95072492               -0.68699558
              11.19637806                2.65445436               61.64639217                0.47945616                0.81339812                0.94604615               -3.04240835               -0.09339355                1.69130249               -0.24268728
              12.20679799                2.23076767               61.32433019                0.35250979                1.25132388                1.39410062               -4.53932344               -0.21512325                1.71758751               -0.63635924
              13.22140454                1.80208204               61.00556913                0.00010000               -3.01456027                1.69441147               -5.87817124              -23.26167033               15.89649598               -0.95134456
              14.14650679                0.90948627               60.96855294                0.00010000               -7.65500906                3.26971650               -5.43278684              -33.73551105               26.75456532                5.92733135
              15.06830436               -0.06740523               60.85548189                0.00010000               -7.03306503                5.01008649               -6.81120446              -32.16597624                2.63193686               16.34158086
              16.00584549               -0.99062522               60.27923229                0.09957133               -1.02284507                4.19964847              -13.39118819              -19.27628479               -8.97798306               51.18924828
              17.04784746               -1.49948175               59.91174475                1.00000000                4.20019698                4.18902756              -15.47064016                0.18701952               -0.63093766               48.18999516
               7.60733517                5.31679529               62.87284972                1.00000000               -0.41395792               -0.60144048                2.03108748               -0.05175400                0.16806227                1.08287789
               8.60319559                4.90521489               62.53091960                1.00000000               -0.22166948               -0.23686816                0.75181301               -0.00768117                0.34759094                0.07809523
               9.60290178                4.49284487               62.19223563                0.65583971                0.15323900                0.15717316               -0.51286146                0.00665381                0.68554031               -0.59873554
              10.60626037                4.07980569               61.85698923                0.00010000                0.60999836                0.57543189               -1.72499006               -0.12050000                2.10953409               -0.87270083
              11.61510174                3.66376512               61.54704488                0.00010000                1.11517464               -1.00589239               -3.35648185               -1.07432246                2.80956066                3.21412072
              12.62856386                3.24471833               61.22610744                0.00010000                1.59316840               -2.51171927               -4.81159033               -1.36872305                2.49843840                7.07413582
              13.64696511                2.81770023               60.91082701                0.00010000                1.05127076               -8.35947436               -6.10450192              -24.27187604               23.53122326               14.46787794
              14.64958927                1.89523551               61.01083874                0.00010000               -1.98358264               -1.26333559               -5.95764003              -42.12229701               39.66416131                9.18592585
              15.60729346                0.99470859               60.97659077                0.00010000               -5.13189726                4.95733007               -6.78010890              -40.29409091               49.90405963               15.48371890
              16.54695133                0.06143017               61.24430521                0.43963721               -2.84481501                3.50092442               -1.67143625              -20.33112655               32.96570555               52.99123064
              17.55039716               -0.45431213               60.84763945                0.95727705                0.34458291                3.13341400               -1.98755230               -0.01025984               -0.35557798               50.32122910
               8.01649570                6.31132627               62.76408537                1.00000000               -0.33654000               -0.48700346                1.74153047               -0.05340202                0.28905285                0.91511812
               9.01313030                5.90324745               62.41740697                0.59050354               -0.14408400               -0.16278321                0.45961379                0.01765507                0.62664870               -0.35986814
              10.01361402                5.49494094               62.07727565                0.00010000                0.20347412                0.24721727               -0.83764010                0.05271676                1.38967700               -1.19498625
              11.01719978                5.08610107               61.74594373                0.00010000               -0.18175184               -0.70957884               -1.97976800               -2.41552580                6.99828854                2.44442435
              12.00997898                4.63433651               61.51884709                0.00010000                0.41443199               -2.93051081               -2.86714966               -4.30807148               12.09252395                6.20384073
              13.02548842                4.18053328               61.28508732                0.00010000                3.77354279               -6.97457043               -4.02975073               -7.84972628               15.90008570               12.43269881
              14.08544983                3.63489256               61.12711811                0.00010000                5.07820376              -14.44752522               -4.84269606              -20.69408565               24.46447539               19.45851362
              15.12705249                2.88421956               61.04611274                0.00010000                0.53890229               -2.60586644               -5.70437052              -33.41381203               34.19761393                7.33598424
              16.09622788                2.03174137               61.06579863                0.00010000               -3.94044120                3.41245001               -5.85722664              -40.12267416               44.17707593                4.85069832
              17.04824367                1.07939327               61.15997159                0.23106382               -0.85505148                3.35913282               -9.58981528              -21.25991680               25.81249047               -7.76518654
              18.07912685                0.56318653               60.76168998                0.87891829                3.08831816                1.67185445               -9.88883422                1.12493376                0.42126230               -8.34989946
               8.42242475                7.30705522               62.65271576                0.92845267               -0.24907381               -0.36334280                1.46257409               -0.03056441                0.09383393                0.78825328
               9.41993401                6.90195923               62.29763101                0.34742823               -0.06611290               -0.11356116                0.15114335                0.10343186                0.67903796               -0.68094851
              10.42110249                6.49778921               61.95409114                0.00010000               -0.06898663                0.18338483               -1.13234811               -1.12156635                5.87072655               -1.96999698
              11.41855428                6.06561412               61.70295808                0.00010000                0.67028043               -1.94280608               -1.26599255               -3.57936766               12.30388500                3.42808959
              12.43450810                5.60515490               61.48620955                0.00010000                2.62295027               -3.29941824               -2.96106569               -5.31087792               16.10884266                4.98019897
              13.47101329                5.10522692               61.30479097                0.00010000                4.74445077               -6.75697424               -4.02191426               -9.64147283               20.09717504                7.55506821
              14.52939712                4.52874973               61.15984332                0.00010000                5.67254640               -8.75353003               -5.03786107              -18.87051291               24.70822402                7.12366922
              15.58446422                3.84311818               61.05960674                0.00010000                4.01345736               -4.17071373               -5.92456888              -27.76966959               28.92713970                3.38080323
              16.60966627                3.06295759               60.98941133                0.00010000                0.29218123                1.88525392               -6.69863132              -35.52741744               30.44670088               -5.43850603
              17.59030784                2.12861282               60.91807905                0.12535367               -0.21784735                9.47082835               -7.30209320              -20.44408053               16.18666625              -18.99732704
              18.60530932                1.57912496               60.53714876                0.76801593                1.50014788                5.71795897               -9.28680537               -3.73728007                1.74973626              -13.51517495
               8.82607639                8.30405941               62.54058069                0.89054086               -0.16114488               -0.25307981                1.20039330               -0.02887475                0.03714489                0.84511939
               9.82446494                7.90097623               62.17784412                0.28374834                0.07257069               -0.07149496               -0.12709955                0.09340348                0.50318996               -0.67473559
              10.82752780                7.49860864               61.82435870                0.00010000                0.68908978               -0.02374838               -1.54758090               -2.13494647                8.59435239               -2.54583020
              11.83824673                7.04724495               61.62295538                0.00010000                1.83104089               -1.65598842               -2.33612650               -4.74192818               17.16882375                0.62499924
              12.86414862                6.56834814               61.43874490                0.00010000                3.54087007               -3.31842458               -3.33270042               -7.38321179               19.46792240                2.71657089
              13.90906414                6.04539380               61.27900114                0.00010000                5.29998470               -5.13207170               -4.53774390              -12.13751649               22.24474866                3.67199145
              14.97014831                5.45982195               61.14270433                0.00010000                6.41935537               -5.76982462               -5.73285768              -18.86491688               24.58522843                3.08733709
              16.03745124                4.80080529               61.02092513                0.00010000                6.50182872               -3.70624152               -7.00154307              -25.53783559               25.33511235               -0.06612957
              17.10018489                4.06944645               60.89148202                0.00010000                4.28717203                0.91705841               -8.24130971              -30.71518469               22.77419136               -6.12429085
              18.12319468                3.26880984               60.70969593                0.01779687                0.15860443               13.71083441               -8.49754863              -21.04311234               12.46182109              -19.21980882
              19.10335698                2.67754571               60.35934300                0.65192862               -1.98377079               13.77871429              -11.33573458              -10.96889754                5.50677252              -15.53237128
               9.22801362                9.30199362               62.42942986                0.87980813               -0.07607613               -0.17183990                0.93691944               -0.03912190                0.01294338                0.95994788
              10.22725286                8.90052933               62.05867503                0.27043653                0.20606136               -0.00147479               -0.41095944               -0.04095191                0.24275124               -0.67763779
              11.23213485                8.49731424               61.69253210                0.00010000                1.33616764               -0.12583244               -1.98134630               -3.06568968               10.28041714               -2.95195933
              12.25397621                8.03249435               61.52247737                0.00010000                2.82800866               -1.25298404               -2.93860785               -6.49182704               20.88340635               -1.26527799
              13.28869502                7.53878641               61.36684292                0.00010000                4.14064680               -2.41333584               -4.11461339               -9.22569106               22.63760493                0.39277978
              14.33678915                7.00258548               61.22837616                0.00010000                5.39961357               -3.35764345               -5.35892565              -13.82126433               24.42908981                1.45060251
              15.39668729                6.41335324               61.10242130                0.00010000                6.36469295               -3.56322331               -6.79512840              -19.58861263               25.42173942                1.33087264
              16.46408301                5.76899335               60.97468144                0.00010000                6.53353648               -2.19725857               -8.52842405              -25.01886178               24.45552601               -0.35099619
              17.52735802                5.08129875               60.81736644                0.00010000                4.86316663                1.88487761              -10.54313923              -26.98314044               20.17624806               -4.45036677
              18.56134634                4.40282951               60.58857250                0.00010000                2.05508037               11.13043111              -13.16242681              -18.47125755               10.99680592              -10.32379302
              19.56845963                3.85469925               60.24953083                0.60216158                0.71132894               14.63296523              -15.52472858               -8.37094226                4.88548725              -11.59045365
               9.62822254               10.30062261               62.31875736                0.87554962                0.01027425               -0.10291948                0.66718157               -0.04730363                0.00245012                1.03416355
              10.62832528                9.90094673               61.93941606                0.28292300                0.30132271                0.09219950               -0.70469269               -0.22002633               -0.09822847               -0.75460592
              11.63424899                9.49609199               61.55816181                0.00010000                1.93063747               -0.00618539               -2.45802398               -3.92304330               11.27733490               -3.55801939
              12.66693803                9.02218527               61.40770993                0.00010000                3.76473362               -1.11597104               -4.01982153               -7.63252305               23.72097119               -3.29975223
              13.70954366                8.52008143               61.27583622                0.00010000                4.55669986               -1.14864507               -5.18707867               -9.94502345               25.75880602               -1.45781460
              14.75807202                7.97824093               61.16251162                0.00010000                5.12122658               -1.54226674               -6.46136444              -14.12291513               27.31112258                0.28589761
              15.81196819                7.38855749               61.05723154                0.00010000                5.55282322               -1.33338375               -8.12086853              -19.34600611               27.78927422                0.93572156
              16.86912849                6.75686011               60.94315912                0.00010000                5.73588611                0.02429541              -10.55910349              -23.59095311               26.13036766                0.84885710
              17.92668592                6.10714400               60.78977224                0.00010000                5.56202757                2.98409845              -14.19400825              -23.43916456               20.82964896                0.22032980
              18.98036904                5.49141846               60.55779690                0.00010000                5.27563731                7.84067804              -18.57599492              -15.01561644               11.24526228               -2.38062209
              20.03219866                4.97020501               60.21048644                0.58666649                5.18296216               10.51536393              -21.68010054               -6.04999907                5.76339017               -5.73450318
              10.02641930               11.29993523               62.20831544                0.87863528                0.09636520               -0.04098598                0.39230132               -0.05792694               -0.02007508                1.09832068
              11.02738296               10.90237332               61.81944440                0.34254578                0.30080713                0.21146499               -1.01461741               -0.35523170               -0.71991583               -0.89510733
              12.03243545               10.49719054               61.41678313                0.00010000                2.49766771                0.36841452               -2.88440957               -4.95435690               11.16810278               -3.94322962
              13.07733631               10.01017493               61.26983253                0.00010000                5.06517222               -0.10071736               -5.46561711               -7.42256238               26.09459138               -7.14745187
              14.13373889                9.51581351               61.16586651                0.00010000                5.42592363                0.13766630               -7.29479112               -8.15090217               29.44434162               -2.08545713
              15.18585478                8.97174015               61.08965261                0.00010000                4.87045451                0.04858293               -7.57782535              -12.36579591               31.20466935                0.01454481
              16.23114798                8.38668556               61.01543783                0.00010000                4.39113222                0.89166638               -9.58920262              -16.72432740               31.81916168                0.94074238
              17.27367743                7.76947926               60.93598194                0.00010000                4.64342015                2.76099433              -13.43664530              -20.54828025               31.31105413                2.62140957
              18.32401638                7.14098072               60.83469988                0.00010000                6.21477876                5.22776938              -19.09924120              -19.84594804               25.59924388                5.63789444
              19.39797300                6.55964307               60.62626527                0.00111246                8.29350786                8.32811224              -27.46466713              -12.48299835               14.29336233               11.48720700
              20.48988654                6.06500653               60.27672812                0.58100258                9.19135389               10.90145338              -32.97962839               -4.73904816                7.94830989                7.50613225
              10.42218782               12.29980289               62.09809050                0.82855568                0.17775161                0.00239788                0.13190258               -0.04774834               -0.05077091                1.05918868
              11.42396534               11.90517603               61.69844778                0.45718307                0.25862106                0.35468521               -1.35821774               -0.31308818               -1.17528739               -0.91260098
              12.42736024               11.50346028               61.27679369                0.10019329                3.79492339                0.72979764               -2.93895137               -4.56775840                8.28545656               -2.59062672
              13.49986381               11.02017092               61.07153527                0.00010000                7.88000762                2.28265655              -17.02186269               -5.24212670               25.25456688               -6.31098535
              14.58496040               10.52283475               61.05111228                0.00010000                7.00101241                0.52887459               -8.10110801               -4.97782232               35.41196764               -1.14264891
              15.63988406                9.97921259               61.01782719                0.00010000                4.73910694                1.11464916               -8.73389426               -7.70725746               35.50474536                0.06616485
              16.67974254                9.40639082               60.97541082                0.00010000                3.19918330                2.73967956              -10.96430337              -10.22327955               37.04015487                0.66415509
              17.70386772                8.81208000               60.94773788                0.00010000                2.99303020                5.37406540              -16.22273679              -13.01583553               39.71564269                2.49852087
              18.73960314                8.21169939               60.92455609                0.00010000                5.14077751                9.91252359              -29.97264427              -12.11358333               42.52290264                6.48282102
              19.80668327                7.65798070               60.93034964                0.07597219                9.35438274               11.72046921              -41.56993750               -7.18561318               29.26115619               15.46692999
              20.92669079                7.18823408               60.60594994                0.58009180               12.00075230               12.67720564              -45.74071227               -2.88361347               18.33763575               10.46886540
              10.81471806               13.29998319               61.98588366                0.91057900                0.27457512                0.01802969               -0.13824542                0.20140663                0.47280557                1.00566684
              11.81746381               12.90946702               61.57960252                0.81946643                0.56836680                0.42909895               -1.62647302               -0.05998818                0.14196986               -0.89696402
              12.82608539               12.51178649               61.16680670                0.59947613                6.78277470                0.83262117               -3.04015055               -2.80943350                7.71429102               -1.46165038
              13.95311930               12.05582806               60.91443949                0.36696681               12.45276938                3.56571370              -18.02025520               -3.94422498               24.82546705               -3.50763988
              15.07514078               11.52639100               60.95366468                0.36057445                9.75171349                0.35562484               -9.48700965               -4.07170797               40.39210054               -0.93311352
              16.14815357               10.99403313               60.94742558                0.36539412                5.93370977                1.48205461               -9.73544541               -3.41864088               39.63069078               -0.08336308
              17.19381498               10.44147915               60.93197238                0.38095717                2.99492848                3.50883362              -12.20610262               -4.44638428               42.19018074                0.32408443
              18.20805214                9.87696057               60.94345832                0.40812163                2.10145197                6.48805656              -17.89250566               -4.69395588               46.70247643                1.54971556
              19.23584402                9.33923120               60.97728749                0.51751810                3.48369558               12.75318034              -35.67253920               -4.52131791               53.32759208                4.69577835
              20.27772605                8.79405246               61.09309255                0.57081173                6.79317536               13.60717539              -41.48087943               -3.92974976               36.82203019               14.65128056
              21.37170752                8.31855064               60.74865024                0.79165361                9.39814698               13.03165597              -44.32828180               -3.04850914               21.44887421                8.31754990
               7.11642453                3.45030550               64.11705766                1.00000000               -0.56494435               -0.71233828                2.47636657               -0.23342142               -0.54512731                0.64169236
               8.11077508                3.02561856               63.76648672                1.00000000               -0.39387747               -0.33792557                1.26526240               -0.18225495               -0.67686108                0.09498696
               9.10854698                2.60026410               63.41270924                1.00000000               -0.05493677                0.02431142                0.06640448               -0.18000267               -0.65507005               -0.10180128
              10.10967635                2.17355406               63.06235381                0.60046257                0.19170732                0.42915609               -1.15955350               -0.30115223               -0.16910051               -0.56119790
              11.11238112                1.74335682               62.71843803                0.51009619                0.47870857                0.90394378               -2.55309864               -0.32836821                0.43489804               -0.17351618
              12.11925052                1.31023136               62.38035565                0.35785179                0.79298992                1.32014009               -3.95246034               -0.46513876                0.90589307               -0.53925738
              13.12824092                0.87119818               62.04692292                0.00010000              -15.30230303                1.75511812               -5.17545764              -25.96469315               13.77174009               -0.98568192
              13.81320446               -0.08152771               61.96925391                0.00010000              -20.09977915                7.10715759               -3.75550434              -24.66892830               20.43955768                4.41682148
              14.72624534               -1.01148112               61.72221363                0.00010000                3.14934696                3.10817789               -4.81199553              -19.47749661                3.51838004               17.68269975
              15.87619140               -1.92630724               61.27589968                0.85137994                8.36838851                1.87492114               -5.60094477              -20.06941314               -3.21979898                0.69837085
              16.89361311               -2.45057721               60.89208291                1.00000000                1.74217117                2.28793801               -6.92364907                0.12606493               -1.03948803                0.03624910
               7.53877725                4.44318212               64.00272891                1.00000000               -0.48040164               -0.66507235                2.20906970               -0.04562984               -0.01824176                0.89525613
               8.53397324                4.02223931               63.65200251                1.00000000               -0.29990271               -0.30146747                0.99607019               -0.00053600                0.01948109                0.14756225
               9.53277920                3.60050721               63.30154761                1.00000000                0.05726114                0.05947698               -0.20149337                0.01170474                0.07385167               -0.26767151
              10.53511846                3.17784562               62.95178845                0.50030571                0.39897962                0.46051928               -1.42544547               -0.07033760                0.82905456               -0.64622898
              11.54075879                2.75239626               62.61671991                0.48491486                0.77799968                0.88807626               -2.87458438               -0.09036381                1.45539229               -0.26741744
              12.55067845                2.32343276               62.28001448                0.34867231                1.18573660                1.31489356               -4.29816476               -0.24800844                1.55473434               -0.64185684
              13.56447352                1.88874936               61.94807951                0.00010000               -2.14118154                1.59672639               -5.59228853              -23.30085079               16.58243200               -0.96322975
              14.50785482                0.98954387               61.91376111                0.00010000               -5.53066935                2.31975292               -5.44044643              -33.12173570               28.96413134                8.21332113
              15.45386014                0.01960066               61.79261980                0.00010000               -5.64047560                4.02321557               -5.78101245              -31.30879354                2.35630390               19.80752655
              16.39504531               -0.90755803               61.17825423                0.09751160               -1.73582034                5.70418710               -7.86561943              -18.94597434              -10.61218418               56.98025804
              17.41914373               -1.42769783               60.79429464                1.00000000                2.40984191                5.88597149               -9.18128563                0.70765702               -0.55496044               55.51175412
               7.95739756                5.43700406               63.89270348                1.00000000               -0.39582848               -0.56065926                1.93310914               -0.05332887                0.17502600                1.07196222
               8.95343927                5.01958921               63.53826672                1.00000000               -0.21114024               -0.22774955                0.71740867               -0.01200228                0.36313709                0.06582641
               9.95317475                4.60145363               63.18721319                0.60897850                0.14706341                0.14653550               -0.48596233                0.00536803                0.73360204               -0.63133911
              10.95638054                4.18276445               62.84014851                0.00010000                0.59059773                0.55545967               -1.63440835               -0.13268013                1.97912597               -0.82800045
              11.96498671                3.76111835               62.51435607                0.00010000                1.07783549               -1.15822595               -3.16651790               -0.95038717                2.54462685                3.55346245
              12.97793725                3.33652923               62.17923043                0.00010000                1.55630449               -2.74048534               -4.54415872               -1.08293667                2.37393054                7.57944177
              13.99611280                2.90313271               61.85120955                0.00010000                2.09905951               -8.88017120               -5.79316790              -24.05018418               24.14999844               15.24434088
              15.01991844                1.96486735               61.95229910                0.00010000                0.05292814               -2.13131766               -5.73082318              -41.84923259               40.58686733               11.95531347
              15.99717136                1.06898319               61.91344680                0.00010000               -3.76740213                4.03207442               -5.85464993              -37.17057013               53.11296832               19.94558276
              16.94457040                0.18777650               62.22805293                0.45979210               -2.45627526                5.41294379               -1.68749142              -16.99258971               35.68936971               59.86900453
              17.94804586               -0.33285778               61.83221473                0.95778312                0.34754563                5.30547070               -1.48305870                0.84891851                0.19784318               59.06232215
               8.37254036                6.43196894               63.78110749                1.00000000               -0.32567511               -0.44279546                1.65582831               -0.04875091                0.29732534                0.91338051
               9.36928361                6.01768432               63.42190316                0.56800673               -0.14145203               -0.16357359                0.44032123                0.03078335                0.62454594               -0.37898326
              10.36971132                5.60343792               63.06900702                0.00010000                0.17582643                0.22038197               -0.80780988                0.08939836                1.45772879               -1.23074779
              11.37280014                5.18895482               62.72659627                0.00010000               -0.08625299               -0.86602614               -1.87799151               -2.33455836                7.22921172                2.75929829
              12.36798626                4.72923174               62.49029441                0.00010000                0.71026105               -3.13324642               -2.87094604               -4.18486708               12.31394031                6.85629413
              13.38700536                4.26862305               62.24512765                0.00010000                4.35727281               -7.36834894               -4.00087717               -7.72695733               16.13756939               13.38255349
              14.45513172                3.71114594               62.07895547                0.00010000                5.90071601              -15.12045341               -4.83207816              -20.65809766               24.62348639               21.13840266
              15.50501968                2.94691751               61.98997856                0.00010000                1.62039294               -3.04071503               -5.52668302              -33.34657167               34.64968257               10.02079816
              16.48753958                2.10024215               62.00940943                0.00010000               -2.39925974                2.42452446               -5.34266545              -37.62913076               43.54060816                9.58172636
              17.45703449                1.20070085               62.07532325                0.32277646               -0.50744553                1.61672191               -6.78378776              -19.01346884               23.95504769               -4.25461476
              18.47739067                0.67841158               61.67832906                0.96985038                2.03561801                1.19045968               -6.49439086                0.28261412               -0.24476495               -4.05669763
               8.78499178                7.42814815               63.66700830                0.91930293               -0.24058245               -0.31593105                1.38838858               -0.01830301                0.08629246                0.80420749
               9.78258596                7.01631774               63.29914686                0.33908332               -0.06497813               -0.12915768                0.15518415                0.13432564                0.67943038               -0.69127602
              10.78369222                6.60586127               62.94296440                0.00010000                0.06547969                0.08387831               -1.08781760               -1.15085429                6.26719228               -2.06915561
              11.78389555                6.16544393               62.68691074                0.00010000                0.89644547               -2.07959438               -1.78450761               -3.54243350               12.75315521                3.93160850
              12.80162113                5.69845342               62.45660127                0.00010000                2.87941808               -3.43994957               -3.01935522               -5.32812618               16.12087200                5.41983982
              13.84148391                5.18916225               62.26440099                0.00010000                5.15176278               -7.05545970               -4.10589650               -9.93387524               20.19106943                8.34028075
              14.90465638                4.60072364               62.10963485                0.00010000                6.12034409               -9.05820365               -5.04641099              -19.46061228               24.79453206                8.40452748
              15.96389079                3.90405305               62.00181453                0.00010000                4.30745130               -4.46102485               -5.64902127              -28.33840887               29.10657753                5.63045528
              16.99080541                3.11747368               61.92690251                0.00010000                1.11203962                0.89173402               -5.75175463              -34.27675148               31.02314719               -2.01902671
              17.98613159                2.22011094               61.85222209                0.19116258                0.37356294                3.47710101               -5.10118454              -18.38927093               16.36484577               -9.41336845
              18.99827667                1.69095141               61.46417987                0.83459409                1.21450822                1.78503349               -5.41411454               -0.92339834                0.24934579               -6.80864998
               9.19583512                8.42565031               63.55229788                0.88542271               -0.15781184               -0.20522556                1.13367050               -0.02042097                0.03333257                0.87289446
              10.19425700                8.01510116               63.17669022                0.28862357                0.08664675               -0.09664521               -0.09876308                0.08921734                0.43395021               -0.66851583
              11.19756805                7.60511549               62.80903222                0.00010000                0.75511624               -0.18137660               -1.48787082               -2.09095919                8.75037390               -2.71435489
              12.20935933                7.14736293               62.59944492                0.00010000                2.00686797               -1.68239178               -2.37445183               -4.80968313               17.49773483                0.68534807
              13.23770541                6.66043275               62.40485197                0.00010000                3.83491583               -3.39314443               -3.49025420               -7.62389296               19.59009788                3.14541589
              14.28605764                6.12751386               62.23321294                0.00010000                5.66616323               -5.24435801               -4.67356059              -12.57419979               22.22463307                4.43171351
              15.35102868                5.52998186               62.08551884                0.00010000                6.77219100               -5.95971124               -5.74532156              -19.46484577               24.49222895                4.32799869
              16.42150146                4.85769702               61.95281534                0.00010000                6.74589894               -4.13939997               -6.59520574              -25.87898262               25.17006550                1.79840294
              17.48594666                4.11807683               61.81417917                0.00010000                4.71349383               -0.44583190               -6.99037362              -32.43805002               22.83779248               -3.42988019
              18.51577134                3.27024287               61.63805256                0.06591961                1.56475519                9.06203256               -5.35737806              -21.41778110               11.35095626              -13.45638566
              19.51724176                2.71411225               61.26469067                0.69939080                0.14704222                7.36973613               -6.84473303               -7.35056965                2.77063717               -8.83509213
               9.60568167                9.42404364               63.43854433                0.87787087               -0.07765353               -0.12725612                0.87251928               -0.03117262                0.01158818                0.98829384
              10.60490513                9.01438484               63.05479934                0.29019957                0.19647996               -0.03222226               -0.35509058               -0.07516616                0.10930656               -0.66971239
              11.60961127                8.60223374               62.67305484                0.00010000                1.37397444               -0.24310032               -1.82698369               -3.04141593               10.27475480               -3.03889987
              12.63238462                8.13179609               62.49353929                0.00010000                2.96905350               -1.40201241               -2.95869783               -6.48269202               20.98954813               -1.33268931
              13.66899234                7.63059053               62.32498485                0.00010000                4.40330920               -2.29529244               -4.27494850               -9.42633029               22.59663444                0.74393109
              14.72045081                7.08427509               62.17397835                0.00010000                5.80919866               -3.34274130               -5.58624367              -14.32839407               24.35128914                2.23053363
              15.78517631                6.48152941               62.03422561                0.00010000                6.88826843               -3.77302980               -6.86873953              -20.22861673               25.23406892                2.55723013
              16.85821618                5.82126505               61.89108312                0.00010000                7.21611230               -2.77974303               -8.15403150              -25.92772040               24.13245222                1.24598043
              17.92949856                5.10855704               61.71874148                0.00010000                5.17621825                0.18767929               -9.11247949              -28.37823451               19.41327869               -2.47241110
              18.96174054                4.40135159               61.46704070                0.00795767                1.70139754                9.91502860              -10.09126450              -19.68980028               10.69594389              -11.36970628
              19.96352651                3.83834614               61.10413272                0.63556515                0.17859684               10.30422833              -12.25550433               -9.84994939                5.04059431              -11.54314689
              10.01452927               10.42310519               63.32518594                0.87498089                0.00343054               -0.05819700                0.60152392               -0.03746239                0.00445539                1.06065066
              11.01456357               10.01445672               62.93274514                0.32463235                0.23996079                0.04789061               -0.61278784               -0.23502987               -0.28444644               -0.74530384
              12.01932848                9.60025348               62.53469535                0.00010000                1.83925614               -0.07233866               -2.06746235               -3.94941319               10.70775117               -3.39095443
              13.05134869                9.11932268               62.36479160                0.00010000                3.86856612               -0.46456420               -3.95689330               -7.23375362               23.42094271               -3.51896394
              14.09669980                8.61452690               62.22262315                0.00010000                4.86010926               -0.57570602               -5.68934387              -10.16333921               25.75774564               -1.57992643
              15.14855088                8.06065903               62.09640872                0.00010000                5.63832903               -1.47426505               -6.75575946              -14.97076888               27.25844917                1.11331569
              16.20946639                7.45452127               61.97498484                0.00010000                6.36842713               -1.59289210               -8.35879287              -20.22082826               27.53256516                2.06078671
              17.27591942                6.80210216               61.83763263                0.00010000                6.44145187               -0.61393942              -10.39618779              -24.78495837               25.47136680                1.92395747
              18.33829542                6.12183042               61.65342318                0.00010000                5.81334088                2.18091348              -12.74838077              -25.44246520               19.79431627               -0.34843872
              19.39218624                5.46854344               61.38413084                0.00010000                5.39791329                5.62948736              -16.00505000              -16.63268049               10.17599812               -5.09539652
              20.44625369                4.92019682               61.00718670                0.61579265                5.40674483                6.26895782              -18.71365929               -6.68050865                4.49040184               -8.77892812
              10.42222937               11.42287970               63.21197838                0.87883408                0.08268766                0.01013588                0.32116414               -0.04024591               -0.01927540                1.12818524
              11.42305625               11.01534265               62.80986486                0.42531608                0.17638335                0.14154858               -0.87129022               -0.32033396               -0.83292099               -0.89170381
              12.42575704               10.60078697               62.39183207                0.04437489                2.51899384                0.21539848               -1.97517186               -4.01118061               10.30701441               -3.31814261
              13.47343613               10.12250481               62.21569530                0.00010000                4.93160801                2.18922300               -9.22406850               -9.51004884               24.40988249              -13.26695974
              14.52438920                9.61907641               62.08806217                0.00010000                5.38024695                0.60692942               -7.23856547              -10.33225681               29.43059338               -1.56689602
              15.58104107                9.05478979               62.01220459                0.00010000                5.74637115               -0.02896810               -8.09353037              -13.87167684               31.61128905                0.71534727
              16.63931662                8.44967157               61.91656028                0.00010000                5.70833964                0.54808813              -10.14579038              -17.65100397               31.17361423                1.90423052
              17.69520786                7.80898626               61.80055520                0.00010000                5.74456724                2.11375776              -13.44471147              -21.16912159               29.39100493                2.60371175
              18.75420797                7.15217531               61.63411664                0.00010000                6.77563330                4.74918697              -18.92060749              -21.96719387               22.84624402                2.70440037
              19.83072052                6.51394134               61.36499777                0.01172990                8.62008050                6.77652842              -25.26684447              -14.68309308               11.62030201                1.26916316
              20.92660958                5.96372529               60.97233779                0.61276456                9.58890538                6.67129522              -29.31944405               -4.80419742                5.82638291               -4.15598713
              10.82879844               12.42330791               63.09908620                0.82614121                0.14511766                0.05898094                0.03420936               -0.02527374               -0.09444056                1.07839202
              11.83024962               12.01728769               62.68568709                0.60343122                0.15721347                0.25075090               -1.11839923               -0.26388493               -0.98449812               -0.87260111
              12.83194271               11.60456145               62.25506406                0.24858937                0.63043272                0.40342330               -1.59391668               -1.80367868               -0.19004347               -2.00890862
              13.84285827               11.16310714               61.85927094                0.00010000                6.29134847                2.59607464              -12.75793595               -9.09468284               23.44925543              -11.27904152
              14.95776968               10.62666549               61.97381468                0.00010000                9.88319547               -0.07482084               -8.76541532               -8.88040737               41.35039526               -0.66227081
              16.04052218               10.06007967               61.92574627                0.00010000                7.22400763                0.69519895               -9.50542724               -9.03687894               35.18639750                0.51537565
              17.10224984                9.46548303               61.86109336                0.00010000                5.47555319                2.23794242              -11.98854033              -10.94358359               35.82119973                1.35881684
              18.15003325                8.84437731               61.77531833                0.00010000                4.58733153                4.81962049              -17.05870635              -12.96343809               35.37401136                2.01591248
              19.19399647                8.21681415               61.64786117                0.00010000                6.84705757                8.13543212              -26.15829453              -14.05200309               31.17446487                2.90150903
              20.28697440                7.60407401               61.44131499                0.06095833               12.83026858               12.82545995              -46.52221124               -9.65230517               19.09289165                4.12193383
              21.45060184                7.05362273               61.03852272                0.61481537               16.36274381               13.87911748              -54.16056141               -2.01925602                9.93133647               -2.08255358
              11.23376434               13.42405932               62.98398858                0.90832288                0.27606702                0.07514050               -0.28248434                0.12642507                0.48637753                1.01462999
              12.23652501               13.02035767               62.56460857                0.91508156                0.50498356                0.30699788               -1.28785652               -0.13265475                0.34255502               -0.83450783
              13.24386401               12.60885543               62.14240487                0.69739395                1.64567072                0.42939861               -1.95629245               -1.10443832                0.27860275               -1.10402845
              14.26943843               12.17442630               61.72586760                0.36669880               10.29722536                1.13191577              -10.74807875               -6.90575670               21.98066873               -1.74937234
              15.44980852               11.61758000               61.85787819                0.36072015               14.60237609               -0.90854958              -10.09074936               -6.08274250               44.34273259               -2.02927246
              16.56148595               11.06869377               61.84482319                0.36514751                9.31693953                0.86140981              -10.78018526               -4.06110229               39.24366363               -0.00755686
              17.63614731               10.49443042               61.80324935                0.37997601                6.15610107                2.89473905              -13.71374498               -4.77600725               40.40726838                0.41579410
              18.68460797                9.90537867               61.74677781                0.40582660                3.86619481                6.10013597              -19.68416441               -5.51985087               41.90880363                0.80440858
              19.71347121                9.31488396               61.66047111                0.47435863                5.81289397                9.80698016              -30.54228531               -4.79893232               40.04342904                0.09066312
              20.80086585                8.77045054               61.52557822                0.55313569               13.68279102               16.63765299              -56.55888628               -2.28967058               27.90280316                3.84618805
              21.98712703                8.24130764               61.13096121                0.81053378               18.62611785               18.76849172              -63.75116057                0.73822933               18.35503086               -1.92390667
               7.46771398                3.57233335               65.14118426                1.00000000               -0.53521965               -0.67189684                2.34269974               -0.22104513               -0.52434676                0.62931789
               8.46236179                3.14237893               64.77884833                1.00000000               -0.37382202               -0.32228697                1.20552126               -0.17345807               -0.64772796                0.09048090
               9.46023754                2.71177891               64.41343195                1.00000000               -0.05444369                0.01611831                0.08144515               -0.17031239               -0.63397672               -0.09569626
              10.46127291                2.27992210               64.05117651                0.59764287                0.18017116                0.39510500               -1.06796122               -0.28184894               -0.24472668               -0.54375651
              11.46384096                1.84481012               63.69377279                0.49967828                0.44270376                0.83778569               -2.36604755               -0.31753838                0.26666626               -0.19944447
              12.47012699                1.40673351               63.34208612                0.33608470                0.68063513                1.23222463               -3.68077620               -0.51063717                0.81010707               -0.56956180
              13.47745367                0.96178519               62.99677444                0.00010000              -14.09071631                1.67456258               -4.82906139              -24.69322773               14.65761953               -1.08614957
              14.18831266                0.02916320               62.92558486                0.00010000              -18.16151726                6.15443059               -4.73483368              -23.42818671               21.90975836                4.78469421
              15.11422332               -0.89265147               62.67629287                0.00010000                3.89112911                3.01636081               -4.67061198              -18.45198512                4.46152392               18.64842088
              16.26613524               -1.81330449               62.23442147                0.98610182                8.07820778                1.01311790               -3.28369813              -19.87781211               -2.45995513                0.35470377
              17.27578748               -2.34179115               61.84070183                1.00000000                0.96522344                1.24126604               -4.06676080                0.03932994               -0.55713063                0.02279324
               7.89545795                4.56561438               65.02424173                1.00000000               -0.45535276               -0.62386998                2.08794527               -0.04607155               -0.00681366                0.88194629
               8.89090442                4.13915606               64.66173181                1.00000000               -0.28475584               -0.28740794                0.94910531               -0.00437251                0.04009622                0.13914865
               9.88976283                3.71194010               64.29964438                1.00000000                0.05171988                0.04898825               -0.17528878                0.00857890                0.08792187               -0.27158708
              10.89193882                3.28387315               63.93800288                0.51274765                0.37485219                0.42578823               -1.32298024               -0.06625117                0.71883488               -0.60651222
              11.89725988                2.85318798               63.58890048                0.49204344                0.72971315                0.82248743               -2.67531452               -0.08729966                1.23790603               -0.28500416
              12.90653308                2.41905575               63.23836689                0.34617777                1.10233341                1.22302440               -4.00954463               -0.27975852                1.38986106               -0.63499514
              13.91930654                1.97853081               62.89372336                0.00010000               -1.26419795                1.49629493               -5.24641161              -22.44527550               17.10464087               -0.95428005
              14.88124912                1.09070750               62.85974401                0.00010000               -3.41846143                1.44805667               -5.45318502              -31.51209836               29.96870830                9.05557707
              15.85093732                0.13751213               62.73986164                0.00010000               -4.46610811                3.47410401               -5.16034161              -30.71525750                2.92524630               21.57413239
              16.79192696               -0.80317331               62.12191990                0.11457336               -2.31349391                8.75228675               -4.40711074              -19.55275373              -10.77397937               59.85987321
              17.80466744               -1.32937849               61.72811904                1.00000000                1.27404767                9.23455249               -5.18590975                0.89162950               -0.29251419               59.47510317
               8.31970919                5.55985595               64.91151190                1.00000000               -0.37605730               -0.51626595                1.82307666               -0.05287182                0.18036835                1.05632307
               9.31594862                5.13663077               64.54526777                1.00000000               -0.20085805               -0.21842024                0.68311053               -0.01399982                0.37558005                0.05492001
              10.31569203                4.71275868               64.18251639                0.55553729                0.13756954                0.13173394               -0.44771568                0.00598720                0.77665989               -0.66573580
              11.31870001                4.28843786               63.82430106                0.00010000                0.56101681                0.53258279               -1.52727113               -0.14705062                1.86309566               -0.78188211
              12.32691237                3.86125987               63.48371452                0.00010000                1.02444867               -1.19853924               -2.94908325               -0.83886668                2.30339679                3.77657794
              13.33918898                3.43119400               63.13522427                0.00010000                1.49920205               -2.80209863               -4.23967533               -0.82515617                2.24406421                7.94306174
              14.35689641                2.99171108               62.79496365                0.00010000                2.99501944               -8.96477507               -5.43032629              -22.96537801               24.66834717               15.85516990
              15.39908937                2.05812433               62.89622228                0.00010000                1.84512912               -2.77937073               -5.66365361              -40.32687075               41.36099380               13.82855731
              16.39379899                1.17683061               62.85949777                0.00309395               -2.85592881                3.62040299               -5.23742887              -33.28125245               55.37081407               22.66924544
              17.34197079                0.36174124               63.21055538                0.47292778               -2.38842813                8.66525666               -1.85769959              -13.37163353               37.48185467               63.42301163
              18.34603043               -0.15710010               62.81797827                0.94637427                0.40596321                8.97329663               -1.52511233                1.29349034                0.37434696               63.72860201
               8.74085087                6.55528906               64.79720194                1.00000000               -0.31291741               -0.39534800                1.55744151               -0.04192639                0.30350554                0.90323550
               9.73772169                6.13478765               64.42621339                0.55137689               -0.13876927               -0.16420610                0.42269490                0.04518090                0.61229674               -0.38947950
              10.73807548                5.71457477               64.06111945                0.00010000                0.13874616                0.18111076               -0.75971355                0.13637886                1.51722537               -1.26784238
              11.74049662                5.29452480               63.70838390                0.00010000               -0.01745365               -0.85201146               -1.75683945               -2.20385368                7.35176189                2.83603801
              12.73772641                4.82921719               63.46142817                0.00010000                0.95410628               -3.11328646               -2.90512723               -3.94940482               12.32565233                7.32189838
              13.75957874                4.36301378               63.20506978                0.00010000                4.76711189               -7.36233811               -4.03544084               -7.36848870               16.14684622               14.09425071
              14.83306865                3.79923531               63.03047655                0.00010000                6.50067215              -15.07170842               -4.92825293              -19.84579381               24.56869389               22.51934508
              15.88959219                3.03512009               62.93557908                0.00010000                2.43133539               -3.26169126               -5.46117467              -31.95381893               34.97864473               12.32659256
              16.88169536                2.20992019               62.95894532                0.00010000               -1.55835933                2.04883515               -4.86157219              -33.95328025               43.71335035               13.00802840
              17.85842500                1.37013182               63.02429583                0.44024795               -0.67377092                0.79374476               -3.70194245              -16.07380740               23.41495965               -1.80866901
              18.86821994                0.85008744               62.63180216                1.00000000                0.97949378                0.68452242               -3.27395498                0.01307460               -0.30997880               -1.24572192
               9.15987347                7.55194899               64.68048353                0.91248854               -0.23069541               -0.26538948                1.29986499               -0.00486008                0.07971772                0.80385935
              10.15756652                7.13334665               64.30073470                0.33965544               -0.05955089               -0.14171121                0.16498435                0.15599046                0.65769239               -0.68598253
              11.15868246                6.71638089               63.93233479                0.00010000                0.12069992               -0.01718398               -1.02278201               -1.01219580                6.39267206               -2.14857303
              12.15998052                6.27139763               63.66726793                0.00010000                1.03764179               -2.01007183               -2.01963040               -3.27508448               12.80632684                4.15421340
              13.17943529                5.79899414               63.42582245                0.00010000                3.09102855               -3.31721572               -3.16758050               -5.14971275               15.98581425                5.75044478
              14.22180109                5.28394723               63.22267304                0.00010000                5.42194650               -6.92815366               -4.28345664               -9.77030166               20.02731319                8.97862070
              15.28787422                4.69027692               63.05891510                0.00010000                6.37635092               -8.87220706               -5.16278695              -19.18674383               24.74290338                9.57888863
              16.34932811                3.99289051               62.94662631                0.00010000                4.59237157               -4.38076668               -5.48261012              -27.49347887               29.44292548                7.74130462
              17.37972165                3.21780731               62.87437624                0.00010000                1.54996460               -0.04551600               -4.83816928              -31.26331061               32.37726357                1.40507149
              18.38032740                2.37761614               62.81605536                0.28794005                0.33295127                0.73658466               -2.60405855              -15.99698247               16.86112369               -4.04693758
              19.38638068                1.85659035               62.42886647                0.92867341                0.60532792                0.54017824               -2.49351963               -0.23890086               -0.01888250               -2.79744389
               9.57795835                8.54998127               64.56325410                0.88255151               -0.15487490               -0.15387759                1.04865303               -0.00969029                0.03021041                0.87153050
              10.57640960                8.13195343               64.17586886                0.30485691                0.09111172               -0.11332429               -0.06219789                0.08058900                0.33946118               -0.63965143
              11.57978058                7.71423110               63.79460128                0.00010000                0.79860428               -0.27538862               -1.34905002               -1.87112586                8.73978137               -2.74450358
              12.59238168                7.25432337               63.57546634                0.00010000                2.12009875               -1.54518760               -2.43656479               -4.47507860               17.49819297                0.79960263
              13.62218256                6.76287288               63.36893982                0.00010000                4.02541252               -3.15501429               -3.70305575               -7.45596543               19.35279989                3.46035575
              14.67288993                6.22445071               63.18552993                0.00010000                5.91039712               -4.99734266               -4.90767642              -12.41543147               21.93601332                5.02934999
              15.74039050                5.62179117               63.02779790                0.00010000                6.96511408               -5.76225396               -5.85342598              -19.02781358               24.33030058                5.43416174
              16.81219221                4.94750476               62.88902102                0.00010000                6.56565069               -4.18974194               -6.24151274              -24.99466120               25.37132115                3.60980754
              17.87170351                4.20900987               62.75167454                0.00010000                4.37550492               -1.26003911               -5.52836492              -30.13484398               24.34351349               -0.87352392
              18.89970231                3.38486351               62.60254837                0.15301973                1.68949973                2.58704841               -2.51232429              -16.92861455               11.93756050               -6.98181120
              19.90549351                2.86089101               62.22244834                0.78022784                0.57911931                1.23749660               -2.94592409               -1.96191173                0.54500161               -4.73399489
               9.99573535                9.54887143               64.44688024                0.87813558               -0.08068743               -0.07898469                0.78401672               -0.01738276                0.01265192                0.97445595
              10.99492847                9.13108016               64.05157322                0.32400604                0.15773261               -0.04891439               -0.28516094               -0.06404851               -0.00382744               -0.62467434
              11.99889000                8.71087312               63.65599243                0.00010000                1.34543453               -0.23677100               -1.51294846               -2.70046521               10.04269664               -2.80007427
              13.02183716                8.24049388               63.46330341                0.00010000                3.06493210               -1.23366952               -3.02415273               -5.99659357               20.66184585               -1.09351363
              14.06018864                7.73589385               63.28134395                0.00010000                4.63685019               -1.87336466               -4.50737757               -9.27972995               22.15229196                0.76336792
              15.11457417                7.18400038               63.11665129                0.00010000                6.20376298               -3.10848538               -5.87713404              -14.14363139               23.89947074                2.81415280
              16.18426390                6.57503184               62.96504651                0.00010000                7.38210048               -3.71763089               -7.00464171              -19.69498111               24.89146187                3.54780600
              17.26221618                5.90909567               62.81160081                0.00010000                7.77010573               -3.08187867               -7.75699315              -24.72500201               24.06246494                2.72989090
              18.33966602                5.19260653               62.63511685                0.00010000                6.38288994               -1.21048986               -7.70545092              -28.76840231               19.54475730               -0.17086767
              19.38987398                4.42935711               62.38674721                0.08658440                2.77107223                5.33449723               -5.27687422              -19.04215401               10.08442754              -10.51948562
              20.39508746                3.88134028               62.00442074                0.70666890                0.52134843                3.27651869               -6.21029700               -6.28160908                3.54649866               -9.25137466
              10.41319324               10.54840158               64.33078783                0.87731389               -0.00662972               -0.01363761                0.50588055               -0.01636927                0.01108937                1.03091369
              11.41312694               10.13097514               63.92716030                0.38463248                0.15821587                0.02585667               -0.49554161               -0.14817632               -0.33508411               -0.67130695
              12.41635756                9.70949568               63.51681256                0.01426810                1.71510692               -0.02070738               -1.48147844               -3.37349335               10.31323867               -2.74683758
              13.44742908                9.22964998               63.32857206                0.00010000                3.83619511                0.49312544               -3.98856051               -6.83116978               22.40333676               -6.97047202
              14.49308146                8.72540558               63.16204934                0.00010000                5.17251212               -0.13048979               -6.06487024              -10.08580771               24.89844190               -1.34768018
              15.55087932                8.16228100               63.02739643                0.00010000                6.41570648               -1.36454187               -7.05301540              -15.14793774               26.92169265                1.49628720
              16.62139559                7.54743855               62.89005568                0.00010000                7.46190808               -1.81850936               -8.59615848              -19.72040301               26.87810457                2.83033591
              17.70011748                6.88586718               62.73523537                0.00010000                7.73392195               -1.26139362              -10.06597066              -24.04567395               24.93418257                2.88830830
              18.77607403                6.18480008               62.53480462                0.00010000                6.50039992                0.40121076              -10.95233093              -25.87405217               19.24819566                0.40669504
              19.83012548                5.49155346               62.23769590                0.07016019                4.99104783                4.92425409              -12.08723269              -17.80473934               10.25700924               -8.74870905
              20.87589498                4.92642138               61.83621325                0.68473145                4.57695012                3.46052411              -12.94632954               -6.68087360                2.70668508               -9.90589869
              10.83026083               11.54859868               64.21473872                0.88132572                0.06100168                0.04794781                0.21830401               -0.00493974               -0.01564609                1.06444929
              11.83087085               11.13159729               63.80201859                0.52781378                0.12422333                0.10025807               -0.68265971               -0.14845695               -0.63556100               -0.75105502
              12.83274530               10.71045897               63.37727969                0.14155822                1.92165063                0.16068132               -1.12973363               -2.38114673                5.35685725               -2.34673854
              13.86930386               10.25035639               63.08535116                0.00010000                4.65480835                2.73839073              -11.60970121               -8.72528513               21.54430260              -12.40206797
              14.92584146                9.73328406               63.02109520                0.00010000                6.01392929                0.71838630               -6.64712462              -12.06176650               32.28494645               -2.64243950
              15.98958245                9.15670954               62.92778200                0.00010000                7.02140972               -0.26897522               -8.55290607              -14.45842000               30.88766166                0.89109188
              17.06626966                8.53866165               62.81252202                0.00010000                7.71793632               -0.02802305              -10.55026936              -17.38214298               30.01252180                2.35626635
              18.14394117                7.88386780               62.66708771                0.00010000                7.51145194                1.01542297              -13.14416722              -20.67841248               27.38117247                2.77893686
              19.21649870                7.20063074               62.45628773                0.00010000                7.41083574                2.92875095              -16.10037736              -21.75019307               20.16158879                0.99920077
              20.29215789                6.52784219               62.12092838                0.07964224                8.76177250                4.41427362              -21.70344325              -14.11629570               10.53468238               -9.08119243
              21.39173415                5.95055076               61.69033924                0.68350908                9.95762603                3.07691060              -22.42459194               -4.97878914                1.51160252              -12.03717777
              11.24709722               12.54936053               64.09877469                0.82584950                0.12002919                0.09361698               -0.10130206                0.00921694               -0.09470523                0.94845405
              12.24829751               12.13298030               63.67607979                0.75586290                0.14391525                0.16683090               -0.78760430               -0.08117307               -0.53433496               -0.63292981
              13.24997552               11.71270930               63.24491535                0.40113093                0.09003907                0.22826645               -0.77655364               -0.54546940               -0.83168758               -1.33280241
              14.25009829               11.28441779               62.81637655                0.00010000                4.77587252                1.86454566               -2.51213711               -8.24902495               23.21139289               -7.46796518
              15.34549298               10.73977331               62.87580398                0.00010000               10.31175183               -0.78027612               -8.76790522              -10.51589630               40.96729855               -2.08330212
              16.45633333               10.15690150               62.82771864                0.00010000               10.05507497               -0.04906986              -10.04336004               -9.74109876               35.13281422                0.50986262
              17.54659447                9.54687809               62.73564001                0.00010000                8.41234054                1.34107066              -12.73495535              -10.84948909               33.67111846                1.52460338
              18.62458014                8.90617564               62.60656375                0.00010000                7.52506486                3.31309898              -16.62839141              -12.92188600               31.03726489                1.96186031
              19.69709577                8.24337510               62.40139020                0.00010000                8.66497046                5.75969130              -22.56612526              -14.24616114               20.67125653                0.39442247
              20.79787955                7.57983893               61.99990541                0.10528607               11.69031429                8.73037901              -36.10104720               -9.11406851                8.53794339               -8.83703817
              21.93090206                6.98795959               61.52273871                0.68248319               13.30225081                7.23223884              -36.28801751               -2.37253362               -2.74763804              -11.53455305
              11.66320563               13.55047102               63.98023397                0.90749259                0.26929889                0.11104905               -0.43147830                0.05712984                0.48162490                0.83366157
              12.66589862               13.13493391               63.55384538                1.00000000                0.35963965                0.19536097               -0.89186778               -0.01222547                0.45975899               -0.52449919
              13.67039842               12.71502430               63.12768085                0.78766980                0.56803684                0.23150006               -1.17885899               -0.32204081                0.12866144               -0.71246654
              14.67725935               12.28764730               62.69947791                0.36642011                8.63207066                0.32295120               -1.75031467               -7.15118232               22.96368010               -0.37063574
              15.84303983               11.71767853               62.75184970                0.36070215               15.51981687               -2.20947753               -9.19177941               -6.84127200               42.72795601               -2.05735265
              16.98765569               11.15572815               62.73182187                0.36489014               12.84829483               -0.11733506              -11.57622233               -4.47753745               38.42792271               -0.17992496
              18.10000573               10.56548306               62.65769748                0.37910868               10.06753778                1.86049723              -14.86728799               -4.93879288               37.29776139                0.34109800
              19.18900645                9.95012978               62.54977503                0.40361318                7.89532281                4.39541327              -19.84564116               -6.04029405               35.86583806                0.26007259
              20.25791219                9.31582457               62.36644179                0.44656551                8.81427874                7.24494725              -27.60012920               -6.30235880               25.55468934               -1.34173158
              21.36529202                8.70244977               61.96191482                0.56547324               13.50649838               12.26108382              -49.31448710               -4.29020436                9.46139590              -11.50820913
              22.52804215                8.09519554               61.47362703                0.84320610               16.27501331               10.72359455              -49.96190873               -1.01141354               -2.79822898              -14.35990666
               7.83060944                3.69677691               66.16391165                1.00000000               -0.50366058               -0.62835094                2.19777510               -0.20642989               -0.50257119                0.61423663
               8.82557283                3.26166123               65.79059715                1.00000000               -0.35350875               -0.30583860                1.14309701               -0.16261161               -0.61759432                0.08567050
               9.82353926                2.82592531               65.41433814                1.00000000               -0.05659311                0.00657168                0.10228081               -0.15902195               -0.61065777               -0.08966552
              10.82444097                2.38902619               65.04099458                0.59632277                0.16327877                0.35646432               -0.96223918               -0.26082989               -0.30667291               -0.52457428
              11.82680484                1.94911255               64.67111708                0.49082630                0.40050204                0.76418940               -2.15366373               -0.30257360                0.11804517               -0.22257032
              12.83245101                1.50627859               64.30674013                0.31513188                0.55448676                1.13161289               -3.37373184               -0.55658127                0.72581852               -0.59062939
              13.83789457                1.05557735               63.95034169                0.00010000              -13.02849038                1.58972012               -4.44323530              -23.29206976               14.95170443               -1.19310051
              14.57188120                0.14584789               63.87455724                0.00010000              -16.56276797                5.41701106               -5.29209027              -22.14042995               22.51499009                4.56220286
              15.50663921               -0.76565026               63.62880139                0.00010000                4.53510636                3.35286629               -4.91584349              -17.64790075                6.21600795               18.60858434
              16.66258333               -1.69421004               63.21022572                1.00000000                8.16352780                0.77155577               -2.31157766              -20.09277488               -1.01738222                0.18174009
              17.66990977               -2.22495576               62.81074770                1.00000000                0.73264398                0.94835472               -2.87609615                0.02396955               -0.18593766               -0.04088112
               8.26366082                4.69049341               66.04448781                1.00000000               -0.42883080               -0.58033023                1.95695704               -0.04486885                0.00385882                0.86377202
               9.25937252                4.25860284               65.67098462                1.00000000               -0.26971310               -0.27275998                0.90111923               -0.00644087                0.05897556                0.13022834
              10.25826656                3.82599103               65.29804183                1.00000000                0.04332675                0.03692669               -0.14191075                0.00616961                0.10120025               -0.27388237
              11.26023905                3.39259083               64.92532884                0.52717959                0.34431710                0.38598006               -1.20448843               -0.06166180                0.62042043               -0.56757324
              12.26515290                2.95675445               64.56321362                0.50098294                0.67068737                0.75048351               -2.44981303               -0.08347601                1.04222797               -0.29548687
              13.27365280                2.51759472               64.19982359                0.34462509                1.00181609                1.12044979               -3.68135486               -0.30807460                1.23215292               -0.61956585
              14.28518923                2.07147455               63.84315127                0.00010000               -0.62810458                1.39527835               -4.84633319              -21.34947798               17.34562849               -0.94152625
              15.26109071                1.20001800               63.80469741                0.00010000               -1.75000292                0.98777694               -5.63600352              -29.64365738               30.43378229                9.19162162
              16.25018917                0.26787841               63.68941296                0.00010000               -3.48911878                3.44673418               -5.33214509              -30.14485771                4.08212310               21.91139366
              17.19130833               -0.68649448               63.09011202                0.13788752               -2.46469917               12.40354223               -3.08552512              -20.51034792               -9.82182492               61.11543221
              18.20089518               -1.21547221               62.69057644                1.00000000                0.95868530               13.14934444               -3.64841577                0.64108956                0.02931409               61.39139117
               8.69349318                5.68517031               65.92916501                1.00000000               -0.35467957               -0.47156946                1.70372030               -0.05009072                0.18422656                1.03262850
               9.68994639                5.25620603               65.55192894                1.00000000               -0.19092604               -0.20875223                0.64971545               -0.01334687                0.38464447                0.04517715
              10.68967466                4.82666385               65.17825887                0.49740625                0.12489642                0.11358179               -0.39866990                0.00792635                0.81111279               -0.69624611
              11.69244432                4.39674579               64.80960309                0.00010000                0.52283863                0.50589373               -1.40463839               -0.16270077                1.75764272               -0.73472254
              12.70013144                3.96412222               64.45537440                0.00010000                0.95625478               -1.15963295               -2.70722634               -0.76988405                2.08593495                3.86775747
              13.71156941                3.52868758               64.09443692                0.00010000                1.41751482               -2.72677116               -3.89996879               -0.66990961                2.11473390                8.11767557
              14.72848173                3.08348292               63.74260303                0.00010000                3.55173939               -8.69465813               -5.01831173              -21.61385443               24.88879618               16.19265274
              15.78260420                2.16560342               63.83902603                0.00010000                3.08864012               -2.84863331               -6.00673667              -38.25826947               41.50706977               14.89735500
              16.79025453                1.30328443               63.80869823                0.02547629               -2.34386066                3.88229174               -5.60933945              -29.44209754               57.05440891               24.11074275
              17.73572699                0.55386081               64.19089894                0.44276937               -2.47837579               12.27609879               -2.43367820              -10.20423950               38.88195619               64.52663431
              18.74068702                0.03803113               63.80171249                0.89713067                0.49600321               12.90405792               -2.02060434                1.18119513                0.33775115               65.36027810
               9.12058757                6.68106202               65.81225632                1.00000000               -0.29755295               -0.34985661                1.44988619               -0.03389085                0.30688255                0.87942493
              10.11761204                6.25442780               65.43035706                0.54141032               -0.13511218               -0.16317044                0.40682134                0.05714029                0.59144588               -0.39072513
              11.11788533                5.82826267               65.05381274                0.00010000                0.09573096                0.13720660               -0.69134049                0.18093389                1.56086881               -1.29543831
              12.11952666                5.40270871               64.69145948                0.00010000               -0.00359469               -0.76500205               -1.61183240               -2.03053813                7.33998219                2.78730124
              13.11781343                4.93356179               64.43219187                0.00010000                1.06836257               -2.90857780               -2.91220170               -3.69242775               12.10127074                7.50181247
              14.14089391                4.46305929               64.16441883                0.00010000                4.90914312               -7.02065324               -4.08946293               -6.93061410               15.86680119               14.43922301
              15.21599629                3.89758139               63.98039041                0.00010000                6.76149483              -14.42514294               -5.11100124              -18.64672556               24.23559964               23.41773797
              16.27612381                3.14304533               63.88075507                0.00010000                2.85467694               -3.00831089               -5.67522235              -29.86865950               35.15257389               14.08305502
              17.27308983                2.34552424               63.91217799                0.00010000               -1.18234860                2.47807288               -4.87233635              -30.26753660               44.95630954               15.32251486
              18.25247684                1.55902750               64.00128440                0.55861041               -0.84556990                0.35294254               -1.53220955              -13.48892229               24.21489436               -0.39671363
              19.25617844                1.04260895               63.61284996                1.00000000                0.37016000                0.31626122               -1.20780400               -0.06236574               -0.14203698                0.08488805
               9.54608380                7.67817318               65.69300560                0.90760703               -0.21952581               -0.21889023                1.20174804                0.00805567                0.07525029                0.77876039
              10.54388854                7.25294262               65.30244655                0.34881274               -0.05356854               -0.14790932                0.17787272                0.16609004                0.61817733               -0.66391266
              11.54501243                6.82940798               64.92250876                0.00010000                0.13229445               -0.08474436               -0.92635852               -0.83079966                6.34344677               -2.15413400
              12.54653443                6.38144575               64.64651814                0.00010000                1.04599332               -1.76946051               -2.08281677               -2.89996617               12.63262394                4.13626311
              13.56593230                5.90595067               64.39324966                0.00010000                3.12015480               -2.97217111               -3.31366254               -4.81434203               15.60223975                5.85664914
              14.60893753                5.38827452               64.17873186                0.00010000                5.48144430               -6.44683389               -4.51047203               -9.29723445               19.57706782                9.31482039
              15.67556118                4.79498006               64.00637911                0.00010000                6.41753149               -8.25238541               -5.40952446              -18.23450029               24.51371296               10.42539022
              16.73728816                4.10543721               63.89216233                0.00010000                4.66802266               -3.90633274               -5.56676722              -25.66033717               29.97543764                9.45191601
              17.76892164                3.35284589               63.83013912                0.00010000                1.57878376               -0.28292492               -4.28919488              -27.91589031               34.23308568                4.10062713
              18.76886383                2.56091966               63.80014092                0.39785727                0.16775804                0.04436475               -1.20280119              -13.86088070               17.93852325               -1.79742074
              19.77227680                2.04435636               63.41430947                1.00000000                0.34129640                0.06345657               -1.08578997               -0.04815967               -0.06993176               -1.11409296
               9.97120980                8.67668421               65.57327094                0.88223626               -0.15107577               -0.10870801                0.95186500                0.00178792                0.02873739                0.82872262
              10.96969904                8.25146961               65.17544626                0.32934228                0.07782029               -0.11713558               -0.02312243                0.08557133                0.25509839               -0.58784373
              11.97276620                7.82656778               64.78205122                0.00010000                0.76428046               -0.26935000               -1.12862678               -1.52137679                8.53684486               -2.57049695
              12.98498465                7.36731950               64.55071363                0.00010000                2.09658113               -1.23128289               -2.49894338               -3.93569139               17.09344804                0.84523057
              14.01469783                6.87411837               64.33079086                0.00010000                4.04675906               -2.66011509               -3.90155296               -7.02194414               18.75138077                3.50958496
              15.06591983                6.33412261               64.13505942                0.00010000                5.97228870               -4.47914354               -5.18262288              -11.78922771               21.33279922                5.29646429
              16.13414360                5.73253368               63.96845032                0.00010000                6.95657043               -5.23761564               -6.06717772              -17.83545452               24.04091030                6.13070746
              17.20505124                5.06491868               63.82798508                0.00010000                6.25729881               -3.78943440               -6.10024258              -23.02804805               25.98946907                4.89715001
              18.25928958                4.33986574               63.70361188                0.00010000                3.93487558               -1.54181374               -4.51798818              -26.43391120               26.79609624                1.22194332
              19.28374875                3.55991479               63.58780608                0.26672705                1.45261343               -0.25526543               -1.10405401              -13.53631502               13.51846023               -3.36463402
              20.28834184                3.04387808               63.20577219                0.88755901                0.45930944               -0.24013110               -1.18941166               -0.26203995                0.02171645               -2.61876060
              10.39654876                9.67599902               65.45422466                0.88081954               -0.08323559               -0.04096125                0.68387967               -0.00009473                0.01423589                0.90034484
              11.39571640                9.25059991               65.04909612                0.36399787                0.10931255               -0.04422057               -0.21321605                0.00800444               -0.04531292               -0.54291555
              12.39873501                8.82402098               64.64279587                0.00010000                1.22768078               -0.12691572               -1.14326864               -2.11822626                9.64148279               -2.32790052
              13.42027002                8.35682009               64.43305623                0.00010000                2.99776447               -0.47270060               -2.96139662               -5.10393087               19.83034121               -1.31615274
              14.45869030                7.85274837               64.23483730                0.00010000                4.72338204               -1.31481596               -4.73524467               -8.84909966               21.24621047                0.55429576
              15.51473766                7.29869165               64.05643567                0.00010000                6.46828670               -2.73342751               -6.11561924              -13.47310275               23.08105330                2.98085815
              16.58805603                6.69022775               63.89413278                0.00010000                7.73287384               -3.44406029               -7.17567978              -18.19985944               24.28987668                4.02011506
              17.66939514                6.02964852               63.73594326                0.00010000                7.85956321               -3.02686273               -7.46636114              -22.17076204               23.98366234                3.58375727
              18.74524730                5.32200961               63.56463247                0.00010000                6.23650300               -1.55361533               -6.32305915              -25.61624711               21.40583721                1.07390600
              19.79412520                4.55581435               63.36150321                0.20721454                2.69310612               -0.02633481               -1.53910822              -13.51434133               10.29039389               -5.97287812
              20.79910942                4.03955374               62.97992678                0.81781939                0.49842234               -0.38588643               -1.42121796               -0.87551913                1.20411556               -4.87625061
              10.82200612               10.67586499               65.33530355                0.88156530               -0.01689529                0.00914043                0.40247651                0.01241899                0.01702190                0.92223240
              11.82183717               10.25058520               64.92283431                0.44466435                0.10876875                0.04010752               -0.37880133                0.01260704               -0.25547623               -0.53790347
              12.82418149                9.82402946               64.50506578                0.06803869                1.61707397                0.08642121               -0.99272982               -2.09465539                9.30099272               -2.02455018
              13.85417865                9.35786549               64.28502039                0.00010000                3.58313924                1.49194340               -4.65457548               -6.79853843               20.69054764               -9.52602750
              14.89584428                8.84782205               64.10132575                0.00010000                5.23998740               -0.01376886               -5.75880995              -10.47222150               24.02233238               -1.51518554
              15.95897839                8.27945406               63.95534841                0.00010000                7.16726300               -1.32011166               -7.26161706              -14.57698749               25.97022652                1.47312364
              17.03918954                7.66365248               63.80306167                0.00010000                8.54378701               -1.95075903               -8.72022067              -18.14336608               25.65749659                3.04880850
              18.12985413                7.00438142               63.63631321                0.00010000                9.08046319               -1.82059509               -9.61550516              -21.25942878               23.99848716                3.24520042
              19.22079880                6.30879344               63.43437656                0.00010000                8.30318325               -0.82179312               -9.26505196              -24.33207743               18.52012823                1.53075021
              20.29591780                5.55938809               63.14238619                0.20165652                4.12769440                0.71468148               -5.49696150              -12.96978095                8.97656650               -8.18992545
              21.30335269                5.03616035               62.74826011                0.80449598                0.74348918               -0.15487286               -4.46259143               -1.37724975                1.59619695               -7.14253670
              11.24735671               11.67618183               65.21634446                0.88629158                0.04473555                0.04583765                0.11612966                0.03642434               -0.01837130                0.89629965
              12.24780406               11.25140206               64.79621167                0.61426322                0.11024534                0.11085501               -0.49840671                0.05763356               -0.37009647               -0.51022466
              13.24956162               10.82574940               64.36923739                0.22126047                0.63513015                0.17373867               -0.68253430               -0.69561945                1.34209628               -1.55135967
              14.26050667               10.38665896               63.98350127                0.00010000                3.90478373                2.08778002               -6.44232269               -7.56287762               19.71506297              -10.62704976
              15.32765729                9.85247299               63.95511967                0.00010000                7.34304062                0.32114527               -6.50908812              -12.22201338               33.55105706               -2.98846392
              16.40736748                9.27228941               63.84114647                0.00010000                8.63020320               -0.66085038               -8.56446415              -13.84481922               29.35891801                0.55315160
              17.50026135                8.65121257               63.70555490                0.00010000                9.58490595               -0.64264228              -10.62952334              -16.07076178               27.92299682                2.35208230
              18.59906560                7.99323662               63.53767185                0.00010000               10.16688595               -0.17271129              -12.41155562              -18.52322978               24.98642867                2.77201527
              19.70359907                7.30557375               63.31210909                0.00010000               10.41485311                0.28775544              -13.28465252              -21.49237542               16.22561221                0.82457624
              20.80736266                6.57010798               62.93092890                0.21787989                5.72104178                1.34793556              -10.82971843              -11.43252534                6.84031609               -9.32862712
              21.81801991                6.03645628               62.52384595                0.81202182                1.06572482                0.17417620               -8.32046129               -1.03368039                0.56795625               -7.31992522
              11.67229414               12.67678174               65.09706015                0.82706628                0.11281208                0.08160761               -0.19781967                0.04292173               -0.03989330                0.73142281
              12.67342226               12.25280230               64.66993501                0.85293851                0.13590324                0.14672174               -0.51857741                0.05958759               -0.21022052               -0.33012277
              13.67501220               11.82750424               64.23953299                0.49672040                0.13876246                0.16628521               -0.47377080               -0.09690582               -0.38851056               -0.82074000
              14.67619751               11.39962109               63.80902820                0.00010000                4.53806778                0.70759460               -0.52829554               -6.46113850               20.69052745               -2.98631470
              15.76577356               10.85424495               63.79845658                0.00010000               10.35724612               -1.40657428               -6.92997170               -9.45088179               38.13990398               -2.39163227
              16.88334243               10.26623706               63.72487907                0.00010000               11.55267703               -0.77002987              -10.01566242               -9.33080933               33.21622580                0.11906153
              17.99682710                9.65079963               63.60639425                0.00010000               11.08429625                0.29624360              -12.77565784              -10.07109188               30.39268298                1.43492829
              19.10502836                9.00092719               63.44275050                0.00010000               10.86264161                1.54604696              -15.62819529              -12.10681265               26.20983018                1.74828615
              20.21407993                8.31454855               63.19653866                0.00010000               11.56782030                2.61862059              -18.31634058              -15.28771275               12.63096965               -0.05506488
              21.33638476                7.58634681               62.71929405                0.22657186                6.79512767                2.30797823              -15.77239144               -9.96794015                3.13284307              -10.12411894
              22.34998248                7.03964388               62.31276237                0.80340166                1.35977232                0.79382977              -10.79888172               -0.18438664                0.05347301               -7.00931495
              12.09617402               13.67781398               64.97535901                0.90704348                0.20992972                0.10322391               -0.47478954                0.04023976                0.44670247                0.59373344
              13.09827332               13.25433649               64.54677121                1.00000000                0.23153468                0.15341934               -0.62612833                0.04816229                0.42339767               -0.19843343
              14.10080471               12.82907511               64.11882769                0.83188703                0.31349332                0.15708698               -0.75872559               -0.09703102                0.32093583               -0.41392895
              15.10454318               12.40081085               63.69086130                0.36620000                8.56094855                0.11897664               -0.69093363               -7.40211275               20.65549577               -0.30360420
              16.27202368               11.82434150               63.67404260                0.36067486               15.98267157               -2.99034495               -7.09670201               -6.57108928               39.14761331               -1.40496449
              17.42419661               11.25688882               63.61329875                0.36474319               14.60628471               -0.93482406              -11.43802298               -4.27478479               35.13525288               -0.38591556
              18.56414938               10.65713744               63.50590359                0.37812426               13.44919076                0.63378080              -15.02287966               -4.90433506               32.30334575                0.26490462
              19.69318043               10.02415756               63.34986498                0.40148642               12.41379141                2.32303616              -19.17373495               -6.14435645               28.39443437                0.05685468
              20.81242521                9.35794616               63.10846853                0.43311981                9.48640484                4.33976145              -23.80560926              -10.55997308               10.27029608               -1.27139660
              21.88290853                8.61626754               62.53928847                0.61451427                4.76564143                2.99207377              -24.60960879              -10.62828781               -3.37743877              -14.46425736
              22.90773804                8.05233287               62.13172303                0.89695445                2.48295085                1.26889970              -18.98640718               -0.61791199               -3.29541548              -10.80423048
               8.20429157                3.82346575               67.18513976                1.00000000               -0.47081567               -0.58292933                2.04437335               -0.18983971               -0.48011198                0.59630472
               9.19958341                3.38331740               66.80171027                1.00000000               -0.33323088               -0.28885630                1.07892399               -0.14972629               -0.58708013                0.08061776
              10.19762695                2.94257822               66.41547757                1.00000000               -0.06114496               -0.00365032                0.12748030               -0.14619955               -0.58585263               -0.08385046
              11.19836051                2.50076209               66.03193173                0.59611763                0.14146874                0.31510877               -0.84594414               -0.23913601               -0.35409176               -0.50348465
              12.20045632                2.05616564               65.65069952                0.48345560                0.35291196                0.68552824               -1.92400450               -0.28506765               -0.01089616               -0.24359720
              13.20541875                1.60875400               65.27461149                0.29504279                0.41071615                1.02136454               -3.03953133               -0.61110822                0.64551681               -0.60120079
              14.20867065                1.15230400               64.90790974                0.00010000              -12.26329968                1.51349436               -4.02604595              -22.16389092               14.80134600               -1.30651675
              14.96015276                0.26012690               64.81974306                0.00010000              -15.28978242                4.99442460               -5.47652736              -21.34931435               22.48831594                3.84553031
              15.90287500               -0.64170293               64.57797600                0.00010000                5.18442706                3.75461033               -5.10344156              -17.04944220                8.46583580               17.58108030
              17.06384130               -1.56944229               64.18818991                1.00000000                8.40748856                0.79043987               -2.14736121              -19.97959861                0.68260784                0.10536281
              18.07102477               -2.10226627               63.78317991                1.00000000                0.71834718                0.97508122               -2.70556196                0.04761216               -0.11017129               -0.09025474
               8.64254152                4.81763646               67.06338087                1.00000000               -0.40116079               -0.53628727                1.81878038               -0.04204699                0.01343756                0.84026727
               9.63852991                4.38042884               66.67975419                1.00000000               -0.25494570               -0.25777655                0.85276441               -0.00652559                0.07546780                0.12088645
              10.63744261                3.94254171               66.29680616                1.00000000                0.03227630                0.02423134               -0.10255054                0.00487616                0.11328713               -0.27386451
              11.63917544                3.50391318               65.91391312                0.54390410                0.30835420                0.34253429               -1.07368044               -0.05719840                0.53481148               -0.52971039
              12.64360969                3.06302092               65.53990422                0.51149968                0.60315223                0.67355662               -2.20414615               -0.08023112                0.87057215               -0.30065677
              13.65123849                2.61896765               65.16473980                0.34364237                0.88677976                1.00991332               -3.32311872               -0.33728455                1.08355725               -0.59698744
              14.66134529                2.16743895               64.79679670                0.00010000               -0.37877032                1.30104972               -4.40544542              -20.37419618               17.20236979               -0.92882009
              15.64366308                1.31007115               64.74702394                0.00010000               -0.70900576                0.99434398               -5.78690115              -28.43064804               30.14671980                8.67878470
              16.64716517                0.39584318               64.63321874                0.00010000               -2.46680475                3.89916825               -6.48755822              -29.57348932                4.79826725               20.51469857
              17.59432698               -0.56153789               64.06020940                0.14850765               -2.14201509               15.52719207               -3.07054609              -21.28021374               -8.33636082               61.59386138
              18.60432487               -1.09251546               63.65515072                1.00000000                0.99978870               16.50491091               -3.62791091               -0.09107690                0.11654393               62.44313471
               9.07786587                5.81274001               66.94558630                1.00000000               -0.33182289               -0.42997429                1.57873203               -0.04553751                0.18653913                1.00014369
              10.07454764                5.37816187               66.55826208                1.00000000               -0.18128703               -0.19866482                0.61764986               -0.01064426                0.39006393                0.03600147
              11.07424013                4.94306284               66.17454299                0.43673171                0.10948468                0.09372055               -0.34073221                0.00993679                0.83515045               -0.71778607
              12.07673734                4.50761278               65.79620829                0.00010000                0.47785514                0.47213026               -1.26679065               -0.18421876                1.66035345               -0.67751168
              13.08379723                4.06963677               65.42957000                0.00010000                0.87588478               -1.08213676               -2.44448591               -0.77388625                1.89412614                3.84274009
              14.09425503                3.62895227               65.05722489                0.00010000                1.31429942               -2.57321726               -3.53152151               -0.69170199                1.99292975                8.08704106
              15.11008322                3.17832500               64.69459741                0.00010000                3.44402675               -8.18124821               -4.56853346              -20.44196860               24.56578877               16.19866710
              16.16313557                2.28001378               64.77608754                0.00010000                3.64655144               -2.32131290               -6.21799551              -36.24257748               40.77438455               15.33218392
              17.18301425                1.43628044               64.74731098                0.00010000               -1.82699544                4.95432083               -7.98492610              -26.28925946               56.60090611               24.68506131
              18.12659566                0.74110155               65.16188182                0.32076347               -2.59279439               15.72467337               -5.94898795               -8.03622781               40.74546701               62.65238731
              19.13115836                0.22783195               64.77756619                0.77514116                0.45627052               16.58518366               -4.79591091                0.56920039               -0.00127258               63.95424558
               9.51078705                6.80903697               66.82619966                1.00000000               -0.27928570               -0.31152121                1.33808018               -0.02660804                0.30708036                0.84219251
              10.50799419                6.37645554               66.43434982                0.53636419               -0.12983060               -0.15913399                0.39235487                0.06292067                0.56577030               -0.38465881
              11.50819044                5.94441613               66.04729264                0.00010000                0.04614735                0.09984456               -0.60661182                0.20699569                1.59264400               -1.30251243
              12.50891714                5.51335578               65.67614725                0.00010000               -0.06989800               -0.63720123               -1.40076323               -1.89415889                7.22563168                2.65671643
              13.50679248                5.04137819               65.40318413                0.00010000                0.98995392               -2.60543198               -2.79757156               -3.51916783               11.57248495                7.40444673
              14.52871622                4.56750330               65.12328052                0.00010000                4.73259626               -6.46746058               -4.10597897               -6.58031232               15.27898318               14.35287481
              15.60144440                4.00381398               64.92825652                0.00010000                6.60699362              -13.38000900               -5.34384581              -17.46118106               23.55487831               23.65197001
              16.66085609                3.26364489               64.82207463                0.00010000                2.94239055               -2.26574847               -6.16116118              -27.34715545               35.02792561               15.41857290
              17.66029221                2.49492959               64.86149859                0.00010000               -0.94025858                3.60527629               -6.00353397              -26.86493927               47.29696549               17.08713659
              18.64205092                1.75295557               64.99365164                0.62314315               -0.90220646                0.70222476               -0.51383483              -11.37047603               26.13590230                1.24242870
              19.64224808                1.23918821               64.60764608                1.00000000                0.01971657                0.67771532               -0.33014359               -0.10240761               -0.02494097                1.46028245
               9.94249658                7.80650958               66.70451849                0.90486208               -0.20696732               -0.18501583                1.10165958                0.01672999                0.07162427                0.72981542
              10.94042690                7.37497919               66.30429215                0.36178855               -0.05083874               -0.14542819                0.18907922                0.16436199                0.57212873               -0.62931766
              11.94147980                6.94505974               65.91380762                0.00010000                0.07325975               -0.09410420               -0.80231870               -0.65253794                6.15859845               -2.06077016
              12.94189210                6.49486875               65.62561159                0.00010000                0.88932790               -1.43329498               -2.03273745               -2.54688674               12.17361256                3.91733016
              13.95926636                6.01752813               65.35954920                0.00010000                2.91604444               -2.49506265               -3.35782556               -4.45968960               14.93679639                5.66882825
              15.00021299                5.49960305               65.13246360                0.00010000                5.27258262               -5.74135577               -4.70118528               -8.68165365               18.80139630                9.25201281
              16.06471801                4.91072482               64.95072461                0.00010000                6.24319305               -7.35811652               -5.75714239              -16.90328059               24.01887721               10.79481088
              17.12507685                4.23469881               64.83529097                0.00010000                4.58433833               -3.09890290               -6.03892645              -23.31874546               30.58934379               10.57669474
              18.15640478                3.50838596               64.78859234                0.00010000                1.49253335                0.20129031               -4.37543320              -24.60202687               36.49192941                6.02633049
              19.15492752                2.75514605               64.79199933                0.47342638                0.01200758                0.16264817               -0.70802010              -12.05697119               19.46124777               -0.83565919
              20.15664493                2.24138625               64.40715067                1.00000000                0.17174153                0.18551341               -0.61523666                0.01139732               -0.08471354               -0.37568313
              10.37418244                8.80533666               66.58229140                0.88327541               -0.14511575               -0.08319328                0.85770741                0.01005999                0.02813167                0.74741164
              11.37273128                8.37354698               66.17540641                0.35233897                0.05338396               -0.10726921                0.00960060                0.11107422                0.21104450               -0.52200009
              12.37525012                7.94253404               65.77202875                0.00010000                0.63898647               -0.18795916               -0.89117921               -1.12886727                8.17195877               -2.26784170
              13.38551101                7.48468988               65.52548747                0.00010000                1.88071327               -0.75023444               -2.49468338               -3.32733231               16.34169226                0.75304235
              14.41286438                6.99147693               65.29090876                0.00010000                3.81877243               -2.05416269               -4.00721398               -6.47733237               17.85401006                3.21887786
              15.46188646                6.45267618               65.08187747                0.00010000                5.77093268               -3.81372534               -5.38649461              -10.90692556               20.41759600                5.17066935
              16.52828304                5.85665165               64.90645434                0.00010000                6.74667891               -4.49510169               -6.36619156              -16.25867584               23.53649504                6.31034603
              17.59682004                5.20166683               64.76701616                0.00010000                5.97607030               -3.11280640               -6.30438232              -20.56916832               26.71267750                5.54763479
              18.64780444                4.49895540               64.66131478                0.00010000                3.55455845               -1.25330010               -4.37587142              -22.98201338               29.38375426                2.58461990
              19.66791120                3.75620854               64.58046729                0.36003788                1.10955862                0.00866942               -0.64445176              -11.52984478               15.21854348               -1.70902617
              20.66999561                3.24289848               64.19866011                0.98024506                0.20844089               -0.00294549               -0.57965666               -0.04712055               -0.06219460               -1.22300297
              10.80627714                9.80484572               66.46055784                0.88522581               -0.08261338               -0.03051147                0.59663646                0.01329473                0.01449107                0.77720377
              11.80545100                9.37283380               66.04730890                0.39508846                0.07412063               -0.02227222               -0.15655342                0.09893714               -0.02911090               -0.44513213
              12.80775955                8.94130055               65.63312705                0.01586554                1.04757790                0.00145548               -0.85924702               -1.40142643                9.12470500               -1.86629291
              13.82640256                8.47986406               65.40407548                0.00010000                2.69869309                0.19972511               -2.89202170               -4.26933089               18.63188928               -2.04996775
              14.86173341                7.97644488               65.18663905                0.00010000                4.52485971               -0.83287168               -4.73360006               -8.30999051               19.98862813                0.27768290
              15.91689976                7.42332855               64.99433890                0.00010000                6.44102193               -2.28217551               -6.21455772              -12.44803097               21.94229353                2.71474786
              16.99055385                6.82082278               64.82153291                0.00010000                7.72449903               -2.98295256               -7.32038156              -16.27940930               23.36865783                3.94410625
              18.07138974                6.17244268               64.66227358                0.00010000                7.58344770               -2.63121184               -7.37344183              -19.27752627               24.08645198                3.69566116
              19.14222280                5.48331996               64.50865567                0.00010000                5.44989000               -1.55084712               -5.36493273              -21.22620369               23.90677109                1.44225293
              20.18038754                4.75531943               64.35596505                0.32514337                2.00499128                0.10603615               -0.51749364              -10.70652799               11.74713429               -2.01597519
              21.18232263                4.24132734               63.97599639                0.93275140                0.19350936               -0.16235038               -0.31330770               -0.09543563                0.10343745               -1.78536108
              11.23847216               10.80472643               66.33883736                0.88772135               -0.02169696               -0.00388219                0.32926487                0.03160303                0.01191382                0.75974063
              12.23825519               10.37310153               65.91958428                0.48018455                0.08595863                0.07291512               -0.29596340                0.14808513               -0.15755691               -0.39034246
              13.24019133                9.94256315               65.49695796                0.09708356                1.33624392                0.18320099               -0.74270954               -0.99395404                7.70259374               -1.49049388
              14.26498007                9.48868439               65.23548055                0.00010000                3.15043779                1.69717622               -3.96421819               -5.82116870               18.65502376               -9.23883343
              15.30320009                8.97481950               65.04687314                0.00010000                5.17839323               -0.00304660               -5.19652254              -10.20838571               23.20702171               -2.06689198
              16.36854793                8.40703267               64.88216409                0.00010000                7.51903146               -1.25433154               -7.19369613              -13.42005346               24.33814281                1.13160786
              17.45358071                7.79699260               64.71565127                0.00010000                9.01122015               -1.92260374               -8.63762015              -16.01698602               24.02403843                2.77716473
              18.54877233                7.14904259               64.54292526                0.00010000                9.34114507               -1.97859314               -9.06279711              -18.16641646               22.70133429                3.07067410
              19.64040362                6.46793846               64.34950358                0.00010000                7.35004645               -1.41798984               -7.42546320              -19.25911209               19.76781322                1.25864048
              20.69577326                5.75832926               64.12775667                0.34989146                2.78337318                0.45211780               -0.98377132               -9.57235863                8.86441028               -1.74400888
              21.69607108                5.23965148               63.74696142                0.94749445                0.02978174               -0.08386757               -0.06657475               -0.12095165                0.51428702               -1.51189110
              11.67015899               11.80476807               66.21706132                0.89246225                0.04169938                0.01240027                0.06585507                0.05627803               -0.02585093                0.69647611
              12.67057598               11.37429211               65.79205046                0.64468563                0.10693134                0.13583841               -0.38563982                0.17807892               -0.19645401               -0.29386080
              13.67229762               10.94496457               65.36362900                0.24590085                0.35734286                0.20705268               -0.55247247                0.12181348                0.70223606               -1.03751806
              14.67772284               10.51380759               64.95650471                0.00010000                3.34598964                1.43235417               -1.58941135               -6.42877210               18.51061514               -8.94868444
              15.73921741                9.97638395               64.89091344                0.00010000                7.43013718               -0.09008831               -5.71150055              -11.31627842               31.53146763               -2.99373453
              16.82632558                9.39824192               64.75649272                0.00010000                9.44934012               -0.99511119               -8.21223493              -12.49204969               27.18422391                0.18594737
              17.92820421                8.78237071               64.59993155                0.00010000               10.53949845               -1.08823183              -10.24117458              -14.11875533               25.24825145                2.00604241
              19.03711555                8.13287082               64.41885660                0.00010000               10.97748421               -1.00471778              -11.22167730              -15.87752724               21.98187308                2.57560835
              20.14775390                7.45496016               64.19059468                0.00010000                9.00558964               -1.10120492              -10.02941588              -16.78705156               16.21903768                0.98445240
              21.21722735                6.76436179               63.90433401                0.39594251                3.47526364                0.53338598               -1.56454149               -8.33853669                6.09664195               -1.58990378
              22.21725917                6.23964999               63.52393001                0.98248739                0.00318228                0.01223688                0.06279325               -0.02299048                0.84987830               -0.92901791
              12.10054965               12.80497443               66.09481830                0.82993351                0.10706166                0.04899499               -0.20163610                0.04220116                0.01681815                0.54225045
              13.10162027               12.37581830               65.66570824                0.84819743                0.12812344                0.15003611               -0.41628978                0.10258409               -0.04735416               -0.12537618
              14.10311212               11.94670420               65.23543994                0.49057967                0.16824916                0.15958733               -0.42952325                0.09713007               -0.07230801               -0.49910403
              15.10498525               11.51733147               64.80581064                0.00010000                4.46640335                0.20507145               -0.26440375               -5.81274785               18.03636228               -1.66662518
              16.19244019               10.97301773               64.73720454                0.00010000               10.38674607               -1.89883755               -5.53698996               -8.29318856               33.72604205               -1.98147697
              17.31272017               10.38713045               64.62740540                0.00010000               12.20682596               -1.35357197               -9.28956785               -8.28077920               29.72530292               -0.14117789
              18.43657671                9.77522797               64.48012686                0.00010000               12.29560809               -0.53041110              -12.07293833               -8.84400073               26.35384845                1.15928990
              19.55863233                9.12894824               64.29399984                0.00010000               11.82974547                0.20835388              -13.78310132              -10.60494843               21.23313176                1.58935082
              20.67317161                8.44591436               64.03506339                0.00010000                9.28401835                0.57883699              -12.95007991              -11.69052673               12.29634914                0.63806055
              21.74431270                7.76899698               63.68445758                0.41002646                3.59316244                0.44069897               -1.97285365               -7.43783743                2.81686706               -1.84257227
              22.74503486                7.23989621               63.30676108                0.98053805                0.07221632                0.07698079               -0.29540045                0.09020110                0.79162555               -0.59934404
              12.52931528               13.80574797               65.97073818                0.90735841                0.15826156                0.07735405               -0.41977716                0.03104829                0.39103369                0.42193017
              13.53089789               13.37729283               65.54132282                1.00000000                0.17058857                0.14745291               -0.55169834                0.04817985                0.38921805               -0.01727489
              14.53272705               12.94815632               65.11250634                0.80875498                0.21282310                0.14521141               -0.62042226               -0.00769775                0.48337018               -0.22338780
              15.53515435               12.51790902               64.68565924                0.36596010                8.54138035                0.05775469               -0.44550465               -7.47054576               18.02623353               -0.18420068
              16.70355466               11.93840719               64.60991566                0.36075084               16.16727061               -3.46105384               -5.84603192               -6.22547995               33.77783546               -1.00915491
              17.85849977               11.37117048               64.50306141                0.36442507               15.29758770               -1.59599729              -10.43352631               -3.75427578               30.11122670               -0.41793465
              19.00950641               10.77176249               64.35723989                0.37718633               14.79152120               -0.34654772              -14.09457908               -4.41365862               26.29088932                0.23162259
              20.15433019               10.13703790               64.16630033                0.39931122               13.21941042                0.80896594              -16.85810330               -5.69149343               20.20574434                0.30827060
              21.27389462                9.46653690               63.89032960                0.42796346                6.00792757                2.06225462              -17.37507825               -8.12080609                7.40199083               -0.56265794
              22.27448874                8.77317577               63.46972265                0.69698255                0.16850535                0.41787886               -3.88743750               -8.24976064               -1.56171635               -3.01518327
              23.27726473                8.24118961               63.09389888                0.97727264                0.27759827                0.12933955               -2.11738391                0.02437007               -0.53002517               -1.01367350
               8.58786617                3.95222078               68.20479912                1.00000000               -0.43727447               -0.53685792                1.88551077               -0.17182759               -0.45795065                0.57660568
               9.58349342                3.50718575               67.81217563                1.00000000               -0.31327070               -0.27169778                1.01408531               -0.13516778               -0.55755783                0.07555135
              10.58160075                3.06159111               67.41688775                1.00000000               -0.06781212               -0.01427936                0.15604459               -0.13233806               -0.56125738               -0.07859042
              11.58213718                2.61499373               67.02407570                0.59747603                0.11532017                0.27263392               -0.72175150               -0.21799175               -0.38950563               -0.48197145
              12.58390716                2.16583120               66.63263699                0.47736320                0.30069737                0.60396326               -1.68306566               -0.26673765               -0.11803266               -0.26101863
              13.58815113                1.71399795               66.24594950                0.27577590                0.24413826                0.90436087               -2.68634175               -0.67987095                0.57443807               -0.60450986
              14.58878992                1.25167310               65.86982077                0.00010000              -11.82849329                1.45373769               -3.57312493              -21.47380551               14.38549519               -1.42099755
              15.35158126                0.36819673               65.76502669                0.00010000              -14.06404242                4.90524742               -5.32340945              -21.20718231               22.30545223                3.15608071
              16.30750907               -0.52451414               65.52673256                0.00010000                5.97251563                3.33515373               -4.86565329              -17.67092695               11.11422105               15.14490021
              17.47103157               -1.43614176               65.16727849                1.00000000                8.51086413                0.78325987               -2.00535436              -19.14766076                2.50734728                0.07426859
              18.47772636               -1.97070248               64.75663646                1.00000000                0.66947817                0.97066836               -2.56888063                0.10563501               -0.10785932               -0.09069828
               9.03118293                4.94685220               68.08086342                1.00000000               -0.37263491               -0.49331958                1.67615079               -0.03803121                0.02156812                0.81320554
              10.02745658                4.50446877               67.68803990                1.00000000               -0.24047741               -0.24276557                0.80456506               -0.00531630                0.08910119                0.11157699
              11.02637338                4.06144832               67.29599082                1.00000000                0.01903187                0.01152694               -0.05843266                0.00410028                0.12337486               -0.27194813
              12.02783722                3.61772007               66.90385524                0.56297137                0.26821423                0.29838487               -0.93421833               -0.05451450                0.46178741               -0.49413682
              13.03173767                3.17187083               66.51913070                0.52341860                0.52971255                0.59329571               -1.94456625               -0.07941510                0.72536656               -0.30091245
              14.03843147                2.72304156               66.13336121                0.34277419                0.76074060                0.89448634               -2.94649672               -0.37054476                0.95003623               -0.57204399
              15.04695248                2.26621047               65.75504237                0.00010000               -0.54142060                1.21616696               -3.93402690              -19.68237120               16.77008524               -0.92220690
              16.02760306                1.41724921               65.68895939                0.00010000               -0.69917150                1.44998382               -5.67426688              -28.17880060               29.08519576                8.26195847
              17.03296905                0.50883740               65.55966180                0.00010000               -1.24769613                4.66099730               -8.23647091              -30.82945293                5.45246783               17.19800031
              18.00264913               -0.42830916               65.02870110                0.13042801               -0.98128115               15.48040350               -3.24981530              -21.02418229               -5.97510871               59.15982479
              19.01334343               -0.96099579               64.61801823                1.00000000                1.06942906               16.76615792               -3.81334785               -1.69033942                0.11382803               61.22540595
               9.47187242                5.94235439               67.96073965                1.00000000               -0.30814343               -0.39392618                1.45156335               -0.04009912                0.18738747                0.96211593
              10.46879098                5.50233043               67.56428193                1.00000000               -0.17204788               -0.18821084                0.58732503               -0.00774260                0.39243613                0.02700044
              11.46843146                5.06182165               67.17144423                0.37546837                0.09166959                0.07497338               -0.27726189                0.00991914                0.85025404               -0.72957536
              12.47062438                4.62096142               66.78426728                0.00010000                0.42829488                0.43598355               -1.11675370               -0.19069793                1.57311635               -0.57343918
              13.47699736                4.17769711               66.40648468                0.00010000                0.78881078               -1.00996539               -2.16794526               -0.93407732                1.72850036                3.78211002
              14.48640059                3.73188768               66.02380649                0.00010000                1.19687489               -2.40817430               -3.14655022               -0.93654799                1.88046742                7.86682049
              15.50093486                3.27599644               65.65123236                0.00010000                2.94888681               -7.58584378               -4.09365038              -19.66720035               24.05224210               15.82107234
              16.54537833                2.39719641               65.71466612                0.00010000                1.77717618               -1.25179211               -6.69914200              -34.57267188               38.35771501               14.91416191
              17.53647838                1.56870581               65.64899970                0.00010000               -1.24986044                6.85741055               -8.06524030              -25.46235051               54.38993385               25.92337152
              18.52038112                0.87346631               66.07191918                0.07101422               -1.35927713               19.10338579              -31.90029730               -8.88434356               41.83007633               53.52662773
              19.50929284                0.36462068               65.70579427                0.55621167               -1.10882819               20.16129542              -29.44571958               -0.16719754                6.88693387               49.00698600
               9.91042886                6.93897368               67.83901793                1.00000000               -0.25943936               -0.28383197                1.22654850               -0.02208578                0.30444010                0.79727281
              10.90783447                6.50070455               67.43820416                0.53116354               -0.12440451               -0.15153800                0.37972192                0.06125537                0.53948816               -0.37543781
              11.90794077                6.06294779               67.04168051                0.00010000                0.01566624                0.08174092               -0.51346148                0.20843428                1.65464219               -1.28278923
              12.90814780                5.62643974               66.66344422                0.00010000               -0.29054558               -0.52546460               -0.81141805               -1.88177643                6.57029010                2.59550276
              13.90212986                5.15167152               66.37624043                0.00010000                0.66266957               -2.30472528               -2.61937254               -3.53714024               10.71388250                7.03049770
              14.92140119                4.67487808               66.08229925                0.00010000                4.30849409               -5.85849288               -4.02991820               -6.48942366               14.38190980               13.87972484
              15.98829974                4.11449360               65.87351350                0.00010000                6.10195316              -12.16589900               -5.54259464              -16.52441037               22.53527922               23.12602882
              17.04344025                3.39221336               65.75753184                0.00010000                2.95761943               -1.25834184               -6.93832112              -25.13395109               34.14984481               15.67293998
              18.04745213                2.64598561               65.79210731                0.00010000               -0.71964316                5.24252500               -8.67010299              -21.64406636               50.97022689               19.24272952
              19.02904739                1.95375856               65.99100770                0.57433249               -0.98806986                4.19622592               -0.34331775               -9.23030742               29.27683976                6.15669809
              20.02769074                1.44223011               65.60624708                1.00000000               -0.13566513                4.06039939               -0.19556340                0.39650675                0.16188490                5.51870500
              10.34796896                7.93667775               67.71503879                0.90402370               -0.19269769               -0.16902917                1.00606490                0.01786870                0.06750400                0.66942901
              11.34604199                7.49929967               67.30622813                0.36858833               -0.05520023               -0.13458426                0.19426261                0.15634120                0.53472266               -0.59131323
              12.34686496                7.06345647               66.90646238                0.00010000               -0.08884397               -0.05281361               -0.66863605               -0.53319992                5.91796968               -1.90563593
              13.34426511                6.61045213               66.60586339                0.00010000                0.54756268               -1.12616387               -1.81776965               -2.35315880               11.61494909                3.39593458
              14.35781621                6.13160261               66.32609314                0.00010000                2.47624682               -2.01327295               -3.24774507               -4.12380707               14.04917978                5.13166998
              15.39379004                5.61471782               66.08470816                0.00010000                4.76475745               -4.96086884               -4.74409918               -8.07995871               17.73058431                8.81707053
              16.45311136                5.03267846               65.89123627                0.00010000                5.87086259               -6.32806521               -6.12286885              -15.56265969               23.07506630               10.64713759
              17.51120730                4.37202957               65.77138380                0.00010000                4.44702481               -2.16623035               -7.00980904              -20.90590256               30.96453250               10.92746382
              18.54205186                3.67355631               65.74263046                0.00010000                1.41615832                1.27546061               -5.30816955              -21.42886679               39.00329007                7.72452515
              19.53953046                2.95739083               65.78598051                0.45942538               -0.08860016                0.40049982               -0.57644606              -10.30003669               21.34892646               -0.33081750
              20.54027986                2.44582867               65.40200474                1.00000000                0.07493926                0.41710956               -0.47242562               -0.00513749               -0.06926348                0.09994977
              10.78554240                8.93559310               67.59042508                0.88613775               -0.13598174               -0.08403140                0.77858980                0.01035146                0.02564767                0.65424386
              11.78418258                8.49801287               67.17563828                0.36211132                0.02909606               -0.08901348                0.02880252                0.14106977                0.20515800               -0.45929805
              12.78612432                8.06189151               66.76422764                0.00010000                0.43779504               -0.08452816               -0.71090376               -0.82494188                7.72085581               -1.97894634
              13.79293848                7.60391646               66.50081996                0.00010000                1.46318560               -0.23122377               -2.38900444               -2.76773768               15.38126325                0.38408530
              14.81538803                7.11140607               66.25064658                0.00010000                3.28938426               -1.46324850               -3.93119585               -5.89362693               16.79661042                2.66485768
              15.85872617                6.57566070               66.02732952                0.00010000                5.21733868               -3.10089188               -5.40165212               -9.92870737               19.25665190                4.69705030
              16.91973480                5.98793229               65.84112648                0.00010000                6.28590924               -3.63827556               -6.64829345              -14.61943982               22.66593071                6.03129677
              17.98444435                5.34888876               65.70189744                0.00010000                5.68893670               -2.21884635               -6.99931135              -18.18216734               27.05895460                5.72229776
              19.03351354                4.67149482               65.61609445                0.00010000                3.31649697               -0.54452201               -5.17276208              -19.97404043               31.95076119                3.15971840
              20.05077429                3.96176855               65.57491704                0.36780624                0.85993857                0.54073166               -0.60714345               -9.93629073               17.08306323               -1.00526339
              21.05071231                3.45057231               65.19417906                0.99077365               -0.00619806                0.48582661               -0.44955144               -0.07784274               -0.05398972               -0.46647341
              11.22333646                9.93499712               67.46615739                0.89082590               -0.07714913               -0.05183893                0.54198218                0.01263675                0.00948419                0.65133402
              12.22256497                9.49751940               67.04596506                0.40222662                0.05630346                0.00119615               -0.12780685                0.15758154                0.00883466               -0.36208712
              13.22446253                9.06176591               66.62561093                0.00010000                0.84154174                0.09130624               -0.70715683               -0.77394884                8.46636270               -1.54682059
              14.23939580                8.60582766               66.37521580                0.00010000                2.18684530                0.83715629               -2.79700967               -3.75014047               17.30354923               -2.36700064
              15.26819943                8.10233764               66.14016530                0.00010000                3.96469332               -0.45981207               -4.44287086               -7.76072604               18.74412969               -0.20144856
              16.31868967                7.55269999               65.93214452                0.00010000                5.96475381               -1.78641473               -6.08239087              -11.20938677               20.56277125                2.15861291
              17.38749451                6.95991294               65.74772515                0.00010000                7.26558776               -2.35675803               -7.35083500              -14.29365076               22.18298087                3.49990651
              18.46400142                6.32765264               65.58847442                0.00010000                7.10983713               -1.98384331               -7.64802391              -16.58314632               24.09101043                3.43745448
              19.52969125                5.66266586               65.45733381                0.00010000                4.88628690               -0.97337923               -5.60640234              -18.08185290               26.45203518                1.69870567
              20.56172716                4.96820546               65.35115334                0.35969912                1.57121211                0.71852011               -0.61618347               -9.10733933               13.75072524               -1.16492773
              21.56111549                4.45554520               64.97366063                0.97273278               -0.06116670                0.37082980               -0.30059030               -0.04019529               -0.00842596               -0.76845111
              11.66075057               10.93455632               67.34188885                0.89466743               -0.01851432               -0.04333545                0.30954954                0.02429405               -0.00065042                0.61531333
              12.66056543               10.49803679               66.91691504                0.47692074                0.07932581                0.09407362               -0.26697828                0.19518244               -0.08163171               -0.28146466
              13.66233709               10.06371764               66.49021159                0.08690534                0.83992541                0.23755815               -0.67028183               -0.13438221                6.93716050               -1.17033159
              14.67736394                9.62065959               66.20573603                0.00010000                2.54820454                1.57637660               -2.09958925               -4.87345406               17.28390947               -8.44108454
              15.71330118                9.10220982               65.99739530                0.00010000                4.97995928               -0.00353696               -4.62603611               -9.53139906               21.64376348               -2.33244673
              16.77696312                8.53993241               65.81147449                0.00010000                7.28039753               -1.09664666               -6.79197992              -11.90342581               22.44760222                0.56424528
              17.85890913                7.94079713               65.63030927                0.00010000                8.65326901               -1.65275592               -8.31325956              -13.76762592               22.24288701                2.25487869
              18.95002850                7.30921189               65.45505727                0.00010000                8.62072646               -1.69892197               -8.66493390              -15.23656937               22.02449050                2.66817700
              20.03132366                6.65202723               65.28586730                0.00010000                6.28598313               -1.14814385               -6.32876884              -16.01308874               21.85071149                1.55965119
              21.07574817                5.97613896               65.12271076                0.41677448                2.19526340                0.67017626               -0.50688253               -7.99026652               10.75392998               -0.70094153
              22.07522893                5.45798890               64.74692862                1.00000000               -0.05192389                0.12655323               -0.04228255               -0.07950657                0.09845733               -0.49993724
              12.09686140               11.93413042               67.21766156                0.89964286                0.04458957               -0.03032194                0.08923606                0.03204792               -0.02834048                0.55189608
              13.09730730               11.49940088               66.78849887                0.61057635                0.11453423                0.14928154               -0.37706086                0.18373794               -0.08203315               -0.16474605
              14.09915209               11.06651707               66.35818794                0.20530925                0.30636186                0.24635919               -0.60028757                0.45404347                1.06830052               -0.73305313
              15.10343453               10.63735519               65.95171305                0.00010000                2.95732729                0.82372331                0.45697208               -5.32269801               16.77908420               -7.73859543
              16.15829863               10.10226690               65.84088966                0.00010000                6.92996541               -0.32983149               -4.47479059              -10.05948369               28.25364519               -3.01990468
              17.24203384                9.53076705               65.67690177                0.00010000                9.22819375               -1.15437991               -7.53647038              -10.87230114               24.49277797               -0.23491523
              18.34286251                8.92685783               65.50073140                0.00010000               10.30030457               -1.20600222               -9.46598024              -11.93461791               22.63504665                1.56044150
              19.44803993                8.29367420               65.31323831                0.00010000                9.98199523               -1.19707079               -9.94457485              -13.12144435               20.52210805                2.32796962
              20.54250241                7.63970299               65.11152077                0.00010000                7.39601146               -1.22262009               -7.22398345              -13.69198514               17.99913651                1.73130621
              21.59596016                6.98160899               64.89963807                0.50282183                2.66615287                0.39838857               -0.37228056               -6.81752341                8.26076143               -0.31773883
              22.59582547                6.45807627               64.52510182                1.00000000               -0.01346943               -0.01503884                0.08589721               -0.05431792                0.13705816               -0.10149900
              12.53085061               12.93394988               67.09302743                0.83339464                0.10029263                0.01411963               -0.12484059                0.00545495                0.06764642                0.42521760
              13.53185354               12.50102242               66.66160921                0.74542671                0.13065184                0.16804840               -0.47693975                0.08385834                0.09894411               -0.02253487
              14.53346365               12.06864482               66.23094252                0.38617611                0.16533055                0.19787398               -0.54248931                0.15476197                0.31574313               -0.30012744
              15.53516015               11.63713405               65.80374012                0.00010000                4.26179977                0.00372220               -0.05167391               -5.44038130               15.82872529               -1.44995254
              16.61869964               11.09561319               65.68771678                0.00010000                9.98830132               -2.17653606               -4.34229017               -7.42048265               29.35225436               -2.07663317
              17.73492617               10.51684481               65.53908771                0.00010000               11.93049891               -1.67744811               -8.29827523               -7.09365176               25.85228604               -0.36717191
              18.85730962                9.91667709               65.36493549                0.00010000               11.99141409               -0.96570022              -10.78104931               -7.38542988               22.59291504                0.90233530
              19.97475446                9.28527047               65.16708847                0.00010000               10.61197758               -0.39761085              -11.56066559               -8.64682915               18.89161196                1.54966363
              21.06954917                8.62757483               64.93753707                0.00010000                7.31349823               -0.17712018               -8.46518402               -9.33117237               14.34727895                1.56920875
              22.12102442                7.98410673               64.67983697                0.55244336                2.58294213                0.19123846               -0.32484678               -5.88709771                5.90894115               -0.21930697
              23.12120802                7.45768813               64.30685436                1.00000000                0.01835947               -0.01462401                0.01493821                0.00611911                0.11940462                0.06083916
              12.96282542               13.93441281               66.96696347                0.90792990                0.14640993                0.04629280               -0.31572798                0.03238500                0.36648482                0.32137562
              13.96428952               13.50276184               66.53573725                0.94440612                0.16551348                0.17394257               -0.65029311                0.04668565                0.45682723                0.07556095
              14.96613569               13.07047455               66.10641925                0.72658024                0.16845065                0.18297263               -0.68785952                0.00059405                0.80446481               -0.09145183
              15.96765854               12.63742963               65.68195121                0.36572559                8.20212649                0.02955811               -0.21844897               -7.33707961               15.79123736               -0.14132904
              17.13017822               12.05873618               65.55712197                0.36074105               15.57191885               -3.68770165               -4.70692322               -5.86271902               28.65806370               -1.22566825
              18.27909691               11.49721809               65.40462822                0.36433819               14.82750099               -1.96267171               -9.15980521               -3.14254384               24.87527467               -0.36231935
              19.42672824               10.90754382               65.22401200                0.37631392               14.25543470               -0.91332667              -12.28991344               -3.63294290               20.92320162                0.30004750
              20.56420561               10.28572199               65.01270292                0.39731954               11.51572343                0.04515133              -13.67541825               -4.62404674               16.18663652                0.62503581
              21.65704271                9.63616058               64.76096696                0.42588903                4.19496550                0.85857511              -10.77808821               -6.26505752                9.88911475                0.62305588
              22.64810492                8.98543376               64.46153972                0.76831958               -0.41288288                0.13270313               -0.53428571               -6.21079023                3.67473100               -0.30890376
              23.64878505                8.45778379               64.08937536                1.00000000                0.06801370                0.00956605               -0.27959220               -0.00729329               -0.08038946                0.02624164
               8.98037954                4.08286926               69.22284997                1.00000000               -0.40359114               -0.49092211                1.72385836               -0.15290023               -0.43732102                0.55694703
               9.97634363                3.63309987               68.82199198                1.00000000               -0.29389048               -0.25458012                0.94941775               -0.11935865               -0.53047836                0.07082395
              10.97450173                3.18280026               68.41859846                1.00000000               -0.07612366               -0.02539904                0.18710010               -0.11750938               -0.53803108               -0.07384131
              11.97482115                2.73156359               68.01749670                0.60023484                0.08600716                0.22752751               -0.59239099               -0.19710389               -0.41348910               -0.46141105
              12.97622187                2.27795786               67.61703821                0.47284121                0.24512907                0.51971247               -1.43399406               -0.24724309               -0.20438121               -0.27527098
              13.97972373                1.82184038               67.22088465                0.25715245                0.05407461                0.78293992               -2.32118497               -0.76546918                0.52298473               -0.60115821
              14.97730336                1.35344086               66.83644724                0.00010000              -11.51868631                1.41423606               -3.09322181              -20.93831819               13.84423763               -1.54746278
              15.74935001                0.47538311               66.71327487                0.00010000              -12.71978742                5.02877774               -4.88919739              -20.76545765               22.70329133                3.18102096
              16.72290761               -0.40466340               66.48066293                0.00010000                6.73671718                2.21994386               -4.41216822              -18.95274102               13.46605461               11.45997547
              17.88408435               -1.29080213               66.14808283                1.00000000                8.36220223                0.78200396               -1.83040308              -17.87061557                4.14639242                0.05327118
              18.89015166               -1.82684377               65.73180229                1.00000000                0.60673080                0.96786238               -2.38946483                0.17738681               -0.09749087               -0.08900550
               9.42861992                5.07796004               69.09690389                1.00000000               -0.34353822               -0.45207191                1.53124670               -0.03312059                0.02797143                0.78566439
              10.42518454                4.63055407               68.69584549                1.00000000               -0.22625735               -0.22811234                0.75680208               -0.00328039                0.09972929                0.10341812
              11.42409477                4.18254627               68.29563751                1.00000000                0.00433875               -0.00093034               -0.01106113                0.00214685                0.13106416               -0.26858515
              12.42527131                3.73383887               67.89522875                0.58463153                0.22581362                0.24957104               -0.78726037               -0.05266132                0.40111253               -0.46148662
              13.42861105                3.28315498               67.50101290                0.53709477                0.45281131                0.51056880               -1.67534583               -0.07814656                0.60515163               -0.29880227
              14.43432754                2.82966978               67.10580986                0.34178043                0.62688842                0.77551314               -2.55830395               -0.40893948                0.83277603               -0.54590400
              15.44114882                2.36758322               66.71811616                0.00010000               -0.67899902                1.14172261               -3.44594195              -19.05169077               16.19190886               -0.92440017
              16.42074756                1.52567089               66.63353860                0.00010000               -1.23379961                1.71707280               -5.48074412              -28.34373326               27.32376271                7.27025603
              17.41647282                0.61753604               66.46848932                0.00010000               -0.21395875                6.34828781               -9.46081542              -30.90003639                8.13370414               17.28314028
              18.41646839               -0.28298209               65.99521310                0.08609048                0.57471765                7.00648128               -3.45360720              -20.61914616               -2.81475777               34.13109224
              19.42796718               -0.81716515               65.57888376                1.00000000                1.14987909                2.32932916               -4.01120161                2.13145430                0.10118763               38.04241918
               9.87452906                6.07382782               68.97461757                1.00000000               -0.28372716               -0.36383714                1.32410861               -0.03484587                0.18752086                0.92386373
              10.87169179                5.62853762               68.57000858                1.00000000               -0.16345948               -0.17767422                0.55829486               -0.00546656                0.39264961                0.01978183
              11.87125987                5.18278165               68.16899775                0.00010000                0.07337125                0.05979599               -0.21109270               -0.00170829                0.86125417               -0.73275398
              12.87315921                4.73655501               67.77387322                0.00010000                0.37840798                0.49154311               -0.96294723               -0.70603591                1.50124829               -0.09997980
              13.87882803                4.28816923               67.38621109                0.00010000                0.69787464               -1.03876522               -1.88096358               -1.28001615                1.58659858                3.65024237
              14.88711670                3.83735064               66.99429389                0.00010000                1.07202042               -2.27368234               -2.75059686               -1.35700553                1.77832935                7.51023555
              15.90026844                3.37627531               66.61272441                0.00010000                2.27029085               -7.06262843               -3.60890161              -19.59287484               22.70574258               15.11263649
              16.93252252                2.50972457               66.64210470                0.00010000                0.66457122               -0.26424416               -7.02523565              -32.47306687               37.82022606               13.80498433
              17.91355986                1.72230236               66.58600617                0.00010000               -1.30599501                8.43086923               -9.71799458              -31.53244992               33.57780836               23.74120372
              18.90640262                0.84932750               66.52387587                0.00010000                4.37935062               22.25051461              -45.92751933              -25.27899990               20.82674975               62.06801693
              20.00114687                0.21974281               66.18865179                0.27630302                9.47442524               23.52584966              -46.21291590              -13.60647688                8.98746035               61.81369730
              10.31850339                7.07068329               68.85073063                1.00000000               -0.23820177               -0.26684066                1.11722726               -0.02132527                0.30154452                0.75440833
              11.31612138                6.62700059               68.44194426                0.51989275               -0.12300862               -0.14094101                0.36776924                0.05324338                0.51787305               -0.36800448
              12.31604322                6.18374219               68.03702341                0.00010000               -0.51791810                0.08091178               -0.41628541                0.28066071                2.09275420               -1.25024368
              13.30576301                5.74366973               67.65991889                0.00010000               -0.69140634               -0.55716554                0.26462472               -1.99807009                6.20795447                1.53145267
              14.30221509                5.26237968               67.35079668                0.00010000                0.66591678               -2.12069222               -2.49322277               -3.84482199                9.66936023                6.70820508
              15.31908135                4.78419613               67.04268215                0.00010000                3.73511490               -5.32182245               -3.77453720               -6.67420880               13.42743335               13.13017323
              16.37691739                4.22633065               66.81740463                0.00010000                5.30889130              -11.01103645               -5.52615598              -16.22674342               21.10731477               21.96000494
              17.42525918                3.52038600               66.68330821                0.00010000                3.46517494               -0.04210366               -7.94848367              -23.98632219               31.66565132               14.97650324
              18.44622089                2.78615343               66.68809653                0.00010000               -0.59056187                5.82934838              -12.43689340              -17.50218967               53.61628523               18.35842119
              19.41344794                2.16202821               66.98678529                0.40859614               -1.56069359               15.76464279               -1.37804929               -5.83362201               34.10070667               33.04348335
              20.41500702                1.65335184               66.60373482                1.00000000                0.15590812               21.78552345               -0.86155919               -4.76441940                0.47853367               31.15505306
              10.76146797                8.06849101               68.72463979                0.90467323               -0.17702086               -0.16901816                0.91769895                0.01106041                0.06104252                0.61677416
              11.75969776                7.62571880               68.30817740                0.36357184               -0.06320143               -0.11882480                0.19268882                0.14096956                0.51306378               -0.56137736
              12.76020394                7.18439989               67.90043490                0.00010000               -0.25687202                0.00321894               -0.54895906               -0.59323873                5.74427454               -1.76216609
              13.75456032                6.72541170               67.58925620                0.00010000                0.06006229               -1.03252747               -1.67447531               -1.88450889               11.02965872                2.37896873
              14.76140519                6.24575539               67.29459429                0.00010000                1.75606164               -1.58388726               -2.96211747               -3.72127892               13.06342347                4.49053462
              15.78968155                5.73091419               67.03758162                0.00010000                3.90692539               -4.25076501               -4.55977560               -7.61212837               16.54705679                8.17587891
              16.83954369                5.15605458               66.82826723                0.00010000                5.16458753               -5.27709727               -6.24227043              -14.59576781               21.59177133               10.01851205
              17.89297330                4.50888249               66.69509479                0.00010000                4.11650862               -1.06819188               -8.29183847              -18.96966339               30.26620125               10.65388298
              18.92187387                3.83888933               66.68242895                0.00010000                1.47792310                3.06464948               -7.84700411              -18.83414852               41.72855636                9.52685266
              19.92253177                3.16462036               66.78047041                0.34217470                0.06686725                0.44511199               -0.72416780               -8.26980636               23.91044956               -0.33533610
              20.92321121                2.65545328               66.39770216                0.98020373                0.06794461                0.42806412               -0.46282611               -0.14746904               -0.10818641                0.16948217
              11.20426901                9.06730293               68.59786319                0.89086385               -0.12371194               -0.10411864                0.71624910                0.00129185                0.02060026                0.58423222
              12.20303189                8.62462409               68.17598246                0.35425257                0.01082722               -0.07017541                0.03363294                0.14900150                0.21902811               -0.41554839
              13.20448555                8.18380657               67.75781067                0.00010000                0.18427240               -0.00098493               -0.60230071               -0.69863941                7.26297619               -1.78527747
              14.20671733                7.72301918               67.47770738                0.00010000                0.89007374                0.10981400               -2.16058353               -2.48728870               14.43422032               -0.18229067
              15.22228703                7.23070193               67.21228484                0.00010000                2.49111262               -1.00441009               -3.63072970               -5.27781246               15.79765065                2.00468445
              16.25653959                6.69918083               66.97384443                0.00010000                4.23733549               -2.42791752               -5.14523020               -8.94997226               18.03374284                4.01612205
              17.30703374                6.12078871               66.77348847                0.00010000                5.32457886               -2.72082248               -6.70172996              -13.09093962               21.33204663                5.50087851
              18.36303116                5.49902217               66.62702994                0.00010000                5.33831618               -1.04252783               -7.94923657              -16.13571570               26.52550195                5.53157570
              19.41380006                4.84744642               66.55785954                0.00010000                3.42283484                0.43159490               -7.50273379              -17.06905002               34.04474723                3.15795643
              20.43148786                4.17093045               66.56832442                0.26856312                0.82958673                0.98034020               -1.06554248               -8.44949175               19.41622352               -0.89917572
              21.43039179                3.66191312               66.18966908                0.88855652               -0.10960677                0.88777423               -0.58738244               -0.20531608                0.01752551               -0.25864388
              11.64685149               10.06640863               68.47139748                0.89757427               -0.06773330               -0.08872027                0.51676685               -0.00244604                0.00178498                0.57561723
              12.64617416                9.62431530               68.04475276                0.38459288                0.04922878                0.01571683               -0.12611335                0.16197401                0.05565256               -0.31634127
              13.64783606                9.18438019               67.61898392                0.00010000                0.58725126                0.13864705               -0.65300168               -0.55396553                7.82536428               -1.37539974
              14.65791918                8.72760798               67.34813528                0.00010000                1.59256111                1.01731336               -2.41106896               -3.09778937               16.11840114               -2.25027298
              15.67968729                8.22566719               67.09778164                0.00010000                3.13380761               -0.16278661               -3.95899886               -6.86011355               17.67820728               -0.76941059
              16.72059533                7.68235584               66.87269109                0.00010000                4.90981396               -1.28102523               -5.64324395               -9.79913172               19.18855923                1.45156652
              17.77788357                7.10163813               66.67451621                0.00010000                6.15029740               -1.58523950               -7.15277324              -12.32509850               20.73585757                2.87295363
              18.84360128                6.48803194               66.50931311                0.00010000                6.53505114               -1.06899612               -8.08957318              -14.17219811               23.44996891                3.09092846
              19.90858459                5.84752123               66.39652762                0.00010000                4.77369711               -0.12509486               -7.66088214              -15.39202403               28.17876975                1.79596039
              20.93907522                5.18422716               66.34364138                0.27208622                1.42774716                1.24476267               -1.35798637               -7.80048906               15.97941205               -0.94357686
              21.93713953                4.67320876               65.96998458                0.88717804               -0.19356915                0.81492085               -0.59476105               -0.14120328                0.09322379               -0.44514200
              12.08840676               11.06552852               68.34502836                0.90310378               -0.01069481               -0.08706109                0.32880822               -0.00570637               -0.00986274                0.55284981
              13.08829981               10.62493843               67.91424471                0.43819434                0.08533975                0.09938613               -0.28523146                0.16428808                0.00280780               -0.23577034
              14.09011356               10.18657951               67.48355233                0.00010000                0.75873683                0.25961938               -0.70109578                0.05202026                7.04283912               -1.01988629
              15.10347455                9.74336545               67.19348877                0.00010000                2.01116693                1.67117998               -1.31969343               -4.32248409               16.50826302               -7.48831124
              16.13033689                9.22744620               66.95435242                0.00010000                4.05557281               -0.00014099               -3.77951828               -8.51954099               19.84778632               -2.65664280
              17.18458601                8.67356033               66.74632449                0.00010000                6.22593880               -0.82127257               -6.09499401              -10.13091072               20.66594857               -0.11503474
              18.25485567                8.08908392               66.54938608                0.00010000                7.45590529               -1.13424079               -7.73435427              -11.46165195               20.52211690                1.59377985
              19.33370411                7.47764224               66.36962659                0.00010000                7.74543428               -1.03164610               -8.52443066              -12.54861663               21.31542087                2.44313173
              20.40976436                6.84494452               66.22292821                0.00010000                5.80432162               -0.48023522               -7.44678423              -13.45321355               24.05663756                1.94409999
              21.44979054                6.19582570               66.11761902                0.33395373                1.99200830                0.83268218               -0.80817359               -6.84733364               13.22236515               -0.40938471
              22.44960452                5.67821154               65.74611577                0.94661011               -0.01860220                0.22427507               -0.19995620               -0.16475038                0.08828711               -0.27032973
              12.52791756               12.06466741               68.21884604                0.90792793                0.04913760               -0.06758258                0.15432661               -0.01982619               -0.01762937                0.51269593
              13.52840893               11.62630302               67.78450924                0.53227512                0.12659454                0.15953996               -0.44733160                0.11447051                0.05953027               -0.12750644
              14.53044945               11.18957258               67.35162325                0.00010000                0.10969355                0.29454235               -0.75745849                0.59555368                2.49436645               -0.58266247
              15.53060281               10.76103158               66.96564415                0.00010000                2.43260687                0.73644046                3.43537216               -5.12986296               16.89972328               -8.61247890
              16.57910159               10.22566437               66.80141763                0.00010000                6.28682975               -0.60967174               -3.63227864               -9.06501988               24.95360472               -3.15221354
              17.65633940                9.66593039               66.60576331                0.00010000                8.27335101               -1.07498808               -6.50026634               -8.93749335               22.02981809               -0.79981203
              18.74456861                9.07895332               66.41061195                0.00010000                9.02144727               -0.95449232               -8.43357294               -9.64763991               20.51518421                1.06287094
              19.83676835                8.46739901               66.21996510                0.00010000                8.83841278               -0.85826711               -9.12043748              -10.54389572               19.80436277                2.27150831
              20.92133686                7.83791652               66.04611501                0.00010000                6.60465907               -0.85460891               -7.09199685              -11.44569384               20.99748576                2.24744012
              21.96886153                7.20088080               65.89688840                0.43337849                2.38679873                0.34417453               -0.36427066               -5.84192885               11.05223484               -0.04189885
              22.96907284                6.67769426               65.52564796                1.00000000                0.02113098               -0.06860410                0.02409536               -0.12947126                0.01894626               -0.01478928
              12.96473902               13.06417687               68.09232148                0.83705432                0.09450355               -0.01820010               -0.01222184               -0.04577169                0.10876181                0.40314226
              13.96568406               12.62812923               67.65616945                0.59209454                0.12785222                0.21224784               -0.64858734                0.02316040                0.33896541               -0.00948336
              14.96729607               12.19247035               67.22459015                0.00010000               -0.04492798                0.29006307               -0.81112950                0.10589811                1.16857096               -0.18914856
              15.96478550               11.75809425               66.80477716                0.00010000                3.84208100               -0.11856569                3.40953823               -5.37720068               17.00841244               -3.99968593
              17.04413769               11.21525277               66.65035874                0.00010000                9.38808439               -2.52904547               -3.41787571               -6.55481801               26.66434721               -2.57071251
              18.15254719               10.65206056               66.46143989                0.00010000               10.81482799               -1.65436587               -6.97244034               -5.62414364               22.49956976               -0.60589192
              19.26043425               10.06999407               66.26450587                0.00010000               10.56579039               -0.96714585               -9.21822795               -5.81282615               19.86331908                0.63852144
              20.36386299                9.46047690               66.06278653                0.00010000                9.34672218               -0.45446468               -9.90964727               -6.89010570               18.05585506                1.63120504
              21.44736869                8.82785234               65.86575971                0.00010000                6.46556150               -0.28891486               -7.21455555               -7.81322344               18.00464741                1.90527227
              22.49317422                8.20270919               65.67796065                0.51453853                2.30097418                0.13556961               -0.20931137               -5.01497187                9.13973791                0.03044863
              23.49338817                7.67683946               65.30705984                1.00000000                0.02139501               -0.05109015                0.02078338               -0.04133120               -0.00035556                0.05901342
              13.39909742               14.06430341               67.96442362                0.90876229                0.14812411                0.01265364               -0.17855603                0.06029638                0.37620513                0.30338069
              14.40057866               13.63054798               67.52831696                0.83577985                0.17524806                0.24187501               -0.88738059                0.04298174                0.70825718                0.08266195
              15.40260238               13.19537384               67.09874915                0.61805043               -0.01511404                0.29034833               -0.94668455               -0.06375395                1.66475778               -0.00206193
              16.40027638               12.75866027               66.68129026                0.36551874                7.57182680                0.05660116                3.43146942               -7.46543074               19.29844888               -4.28508413
              17.55403892               12.17508346               66.51577719                0.36077795               14.44194204               -4.01693075               -3.78943857               -5.30073662               25.38340470               -0.95574769
              18.68911522               11.63284307               66.31986531                0.36418635               13.29284138               -1.92174915               -7.51550509               -2.11684925               20.69548232               -0.31110400
              19.81989575               11.05961040               66.11144162                0.37552934               12.59963699               -1.03836694              -10.11322131               -2.78051769               17.27756582                0.39091950
              20.94110796               10.45830972               65.89279197                0.39524055               10.14721806               -0.21671814              -11.05410766               -3.64911211               14.81389978                0.93946587
              22.02284011                9.83213822               65.67476784                0.42361913                3.92335049                0.42858828               -8.29336527               -5.18873468               14.49994451                1.23453161
              23.01957497                9.20359219               65.45903693                0.75990176               -0.14272173                0.08830055               -0.25711686               -5.13321342                7.74810339                0.02509294
              24.01998567                8.67667246               65.08830704                1.00000000                0.04107007               -0.01669991               -0.09001894               -0.03222360               -0.00482463                0.04233565
               9.38083574                4.21525190               70.23927629                1.00000000               -0.37003623               -0.44540039                1.56162324               -0.13332954               -0.41953989                0.53884608
              10.37713537                3.76089520               69.83116398                1.00000000               -0.27501617               -0.23746646                0.88538547               -0.10256859               -0.50717981                0.06662064
              11.37533541                3.30603618               69.42062975                1.00000000               -0.08538615               -0.03588603                0.21938817               -0.10208948               -0.51750091               -0.06981089
              12.37542765                2.85030141               69.01222788                0.60400974                0.05480841                0.18124094               -0.46093524               -0.17734645               -0.42732297               -0.43910704
              13.37643158                2.39237639               68.60395711                0.46942945                0.18870697                0.43455054               -1.18415405               -0.22605108               -0.26884485               -0.28657325
              14.37920179                1.93212437               68.19952580                0.23911088               -0.15735610                0.65898762               -1.95262980               -0.87132561                0.49482064               -0.59292722
              15.37328446                1.45738600               67.80795633                0.00010000              -10.88851961                1.40593017               -2.60127975              -20.06398847               13.31883304               -1.67930299
              16.16143140                0.59128969               67.66724274                0.00010000              -11.56311248                4.25348049               -4.19354120              -20.19029587               23.13637666                3.14135335
              17.14202221               -0.27096742               67.43848920                0.00010000                7.06943306                2.01243782               -3.91755961              -16.83668527               15.82219744                7.33588671
              18.30282006               -1.12933687               67.13067043                1.00000000                8.31576970                0.78565111               -1.65905386              -16.46995724                5.67764785                0.02809526
              19.30833760               -1.66664552               66.70884716                1.00000000                0.55175443                0.96486150               -2.20261574                0.23795903               -0.09366389               -0.09237075
               9.83385914                5.21079790               70.11148836                1.00000000               -0.31415981               -0.41234889                1.38571894               -0.02748225                0.03211859                0.76015120
              10.83071755                4.75852053               69.70317595                1.00000000               -0.21238665               -0.21339436                0.70956535                0.00039256                0.10684840                0.09640703
              11.82961141                4.30567732               69.29576960                1.00000000               -0.01167332               -0.01277554                0.03793523                0.00248907                0.13819579               -0.26491957
              12.83048408                3.85211382               68.88811003                0.60859385                0.18240880                0.19851402               -0.63666271               -0.04735366                0.35392747               -0.43326070
              13.83325959                3.39672190               68.48562378                0.55216629                0.37498253                0.42708910               -1.40290427               -0.07612447                0.50801098               -0.29167596
              14.83798373                2.93871425               68.08219513                0.34050863                0.49011647                0.65478634               -2.16629517               -0.45122610                0.73106337               -0.51969411
              15.84306192                2.47144530               67.68612353                0.00010000               -0.71392912                1.07873478               -2.95372132              -18.54676620               15.39100498               -0.93874823
              16.82370515                1.63382449               67.57934451                0.00010000               -0.45466402                1.61183983               -5.23910662              -27.76093279               25.06378162                6.56308676
              17.83396864                0.74915696               67.37044549                0.00010000                0.61271959                4.74450454               -9.23153334              -28.55318440               10.36655471               13.90267099
              18.83595954               -0.12148036               66.95962895                0.07498524                0.70286039               12.62956661               -3.65927207              -18.73517186                0.57711201               18.28408971
              19.84802584               -0.65699691               66.53779419                1.00000000                1.20663045               12.13445501               -4.19833645               -0.99402460                0.09732957               20.65885477
              10.28484082                6.20700492               69.98722182                1.00000000               -0.25770220               -0.33791315                1.19721215               -0.02909321                0.18631064                0.89024335
              11.28226380                5.75662731               69.57544783                1.00000000               -0.15244565               -0.16724467                0.52936241               -0.00213195                0.38955464                0.01316752
              12.28179191                5.30578067               69.16722238                0.00010000                0.05861005                0.04142204               -0.14279849               -0.00729020                0.86267862               -0.72890184
              13.28343600                4.85427169               68.76500833                0.00010000                0.32583762               -0.52140041               -0.80328945               -0.84064821                1.43852245                0.90570811
              14.28830866                4.40091818               68.36886541                0.00010000                0.60089329               -0.96347378               -1.58903287               -1.47786866                1.46925509                3.41852808
              15.29545386                3.94522010               67.96879455                0.00010000                0.94651159               -2.22602197               -2.34939068               -1.82996500                1.67678380                7.13065797
              16.30723889                3.47896070               67.57905433                0.00010000                1.65236093               -6.66472140               -3.12068148              -19.74677746               21.30326906               14.23066239
              17.32850108                2.62352648               67.57416140                0.00010000                0.95122419                0.24644260               -7.03453781              -33.63408975               33.91028697               12.10111124
              18.32626337                1.82392267               67.45463981                0.00010000                0.28847039                8.37871449              -12.22035041              -25.89699498               20.35477691               20.13090796
              19.33427049                1.12325446               67.15336880                0.00010000                1.66134148               23.97570242              -39.92955588              -14.42077004                9.70736687               62.68479782
              20.35949020                0.57604358               66.78153595                0.06877977                2.52197135               25.66388613              -46.78991463               -6.95426267                3.15585142               68.86506931
              10.73403251                7.20403963               69.86136247                1.00000000               -0.21333494               -0.25621222                1.01026262               -0.02271136                0.29801348                0.72277901
              11.73189916                6.75517564               69.44555954                0.50187088               -0.11056398               -0.12966935                0.35409594                0.03552416                0.50203027               -0.36557405
              12.73182123                6.30650576               69.03335480                0.00010000               -0.66827734                0.08226068               -0.31415858               -0.73050398                3.05444692               -1.21620892
              13.71853361                5.84168581               68.66873671                0.00010000               -0.95337121               -0.70143380                0.17948449               -2.08952252                6.35017263                1.33962169
              14.71275380                5.37745242               68.32637598                0.00010000                0.24041498               -2.04965165               -2.12920999               -3.25206989                8.42955540                6.35607945
              15.72334191                4.89419381               68.00680850                0.00010000                2.85330903               -4.90734848               -3.34498825               -7.18485842               12.73596878               12.31549407
              16.76981998                4.33815087               67.76299038                0.00010000                4.13597329              -10.09979220               -5.17995326              -16.76228678               19.44059195               20.49948502
              17.80606138                3.63875334               67.59856217                0.00010000                2.32403890                0.89295104               -8.24989537              -24.37755551               27.46964200               13.22375896
              18.81630076                2.91673125               67.54336944                0.00010000               -0.53190700                8.52038387              -15.91668018              -15.78678365               54.11464921               18.40740169
              19.79542324                2.35803369               67.96344672                0.20698976               -0.64692025               12.29452600              -12.27429963               -4.61273394               39.42782864               44.14716513
              20.80336236                1.85628081               67.58901590                0.79677853                0.79391204               14.36202362               -7.32637644               -2.96716558                2.47202047               46.33349169
              11.18211458                8.20188068               69.73339277                0.90706554               -0.16064320               -0.17597909                0.83377686               -0.00050792                0.05185360                0.58742210
              12.18050815                7.75403392               69.31008191                0.34610705               -0.07214636               -0.10245479                0.18708741                0.11308570                0.50388737               -0.54581159
              13.18067166                7.30742588               68.89548320                0.00010000               -0.49046320                0.05655923               -0.45209044               -0.79766072                5.48248043               -1.66644411
              14.17069889                6.84024301               68.57237388                0.00010000               -0.49561973               -0.01471243               -1.52294225               -1.94428180               10.57707861                1.16453483
              15.17075926                6.35992514               68.26685079                0.00010000                1.01796794               -1.45700057               -2.60451374               -3.53598421               12.50440925                4.07259543
              16.19105825                5.84707313               67.99351264                0.00010000                2.83371799               -3.66600678               -4.13592535               -7.40524050               15.63157937                7.45001569
              17.22743362                5.27696485               67.76639086                0.00010000                3.56556757               -4.32249979               -5.98899880              -14.11586920               19.92976228                9.16187227
              18.26236960                4.64138550               67.60554703                0.00010000                3.19068695                0.32743043               -8.76589519              -17.90562764               28.27598250               10.08670050
              19.29124736                3.99433035               67.58569038                0.00010000                2.00483260                5.19120160              -12.75228399              -15.77136425               43.55214036               10.82739969
              20.30246625                3.36914498               67.77149716                0.17229541                0.62026390                1.12901933               -4.37232815               -5.95901599               26.96458559               -1.99297138
              21.30365264                2.86328405               67.39274822                0.79473086                0.11863887                0.84180968               -1.81179385               -0.33553604               -0.39466966               -1.55030120
              11.62971586                9.20052005               69.60475007                0.89607028               -0.11001969               -0.12681852                0.66242904               -0.01200014                0.01462836                0.55912292
              12.62861566                8.75312654               69.17631094                0.33173926               -0.00284695               -0.05517941                0.02979169                0.13501637                0.24381533               -0.39856709
              13.62965892                8.30763695               68.75218162                0.00010000               -0.07334738                0.05451857               -0.54074900               -0.74096740                6.90033543               -1.69536579
              14.62714872                7.84139156               68.45760829                0.00010000                0.27725396                0.23988997               -1.83459848               -2.35286586               13.68999813               -0.41954521
              15.63520400                7.34831241               68.17803198                0.00010000                1.55243374               -0.75216482               -3.16527936               -4.70346858               15.04884882                1.43519527
              16.65819739                6.82087367               67.92442492                0.00010000                2.89931121               -1.89109379               -4.65107014               -8.09717524               17.10021122                3.34679250
              17.69319022                6.25170088               67.70709189                0.00010000                3.61929670               -1.77452197               -6.40695949              -11.87078495               20.02562115                4.77606963
              18.73058332                5.64530195               67.54291271                0.00010000                3.99618884                0.27445308               -8.47591271              -14.12628981               24.99296455                5.32243448
              19.77311400                5.02055528               67.46603977                0.00010000                3.83529468                1.95930266              -10.78420159              -14.84984335               35.54665860                2.71046550
              20.80728922                4.38061407               67.55360619                0.11437751                1.76297474                1.54471737               -7.64592638               -7.10230411               21.98152338               -0.75636295
              21.80837350                3.87311701               67.18243141                0.72290142                0.10842782                1.34558117               -3.53698807               -0.41765994                1.48713789               -0.98595240
              12.07666160               10.19934431               69.47649273                0.90649937               -0.05700165               -0.11776461                0.49886012               -0.02115994               -0.00505831                0.56992597
              13.07609158                9.75293033               69.04344279                0.35155113                0.04628453                0.02191784               -0.13767598                0.13269509                0.11327373               -0.31344630
              14.07758729                9.30851626               68.61255090                0.00010000                0.34372613                0.15218153               -0.65070817               -0.67993154                7.47168989               -1.33164148
              15.08296610                8.84504081               68.32699442                0.00010000                0.98102437                0.59964663               -1.91165221               -2.70270116               15.26888305               -2.18606151
              16.09720778                8.34488185               68.06098532                0.00010000                2.13800854               -0.14357166               -3.35162422               -5.67861856               16.74414767               -0.98707460
              17.12572628                7.80925125               67.81927964                0.00010000                3.41909335               -0.81570943               -4.98542041               -8.31781929               18.09445286                0.78561466
              18.16558964                7.24147441               67.60466968                0.00010000                4.26315611               -0.75619403               -6.67028476              -10.47587705               19.52725363                2.14487961
              19.21098940                6.64687457               67.42668296                0.00010000                4.66743648                0.10602890               -8.29662396              -11.78732709               21.92936931                2.59539401
              20.25893837                6.03351640               67.30411617                0.00010000                4.84345225                1.03832816               -9.78743761              -12.77426324               29.39663690                1.72061686
              21.30785844                5.40003933               67.32399361                0.11596979                2.56775988                1.70450844              -10.32627818               -6.68010218               18.23158147                0.00444925
              22.31029357                4.89019567               66.96176541                0.72234272                0.24351281                1.19009613               -6.33091972               -0.40298186                3.58710407               -0.29758484
              12.52212061               11.19816476               69.34846501                0.91191622               -0.00229937               -0.11265509                0.34680080               -0.03394578               -0.01214786                0.58001935
              13.52209762               10.75356490               68.91121041                0.38469543                0.09146012                0.09978388               -0.31976507                0.10724633                0.10722903               -0.25450201
              14.52394981               10.31068058               68.47618967                0.00010000                0.73157432                0.26548693               -0.78986706               -0.49315937                7.12840238               -1.01786285
              15.53672910                9.85338449               68.17934216                0.00010000                1.67356876                0.43882042               -1.19117336               -2.82855385               15.82917987               -4.25006181
              16.55742119                9.34544098               67.92180493                0.00010000                2.92596683               -0.08327678               -2.96658679               -6.43906094               18.43354454               -2.87260742
              17.59524844                8.80455948               67.68957461                0.00010000                4.43140925               -0.47979220               -5.18385966               -8.05771867               19.07842537               -0.69450669
              18.64604937                8.23657700               67.47562218                0.00010000                5.37731768               -0.42394803               -6.95250368               -9.18810966               19.11858798                0.86814510
              19.70279479                7.64742253               67.28456866                0.00010000                5.92073023               -0.04650705               -8.33278996               -9.88102108               20.02834140                1.81623238
              20.76446398                7.04132185               67.13693161                0.00010000                5.71065573                0.41519410               -9.42852809              -10.30639176               25.61180578                2.63518167
              21.81700791                6.41470424               67.10654729                0.15569502                2.77685957                1.01950282               -6.60895362               -5.73947234               15.26658411                0.38133276
              22.82000117                5.89691893               66.74292949                0.76314707                0.29932614                0.33203701               -3.13613143               -0.35894576                1.68931458               -0.09466933
              12.96518240               12.19709120               69.22074809                0.91736850                0.05382862               -0.08648099                0.20396872               -0.05605388               -0.00445376                0.57594111
              13.96572069               11.75492601               68.77955224                0.44432010                0.13610519                0.17300701               -0.53033685                0.05006767                0.23401300               -0.19123911
              14.96790451               11.31382599               68.34303877                0.00010000                1.29569683                0.35276880               -0.97821650               -0.84156244                6.17109108               -0.60232801
              15.99163463               10.85381722               68.02042049                0.00010000                2.46735294               -0.59451355                3.01294848               -2.88894895               16.45822417               -5.12709967
              17.01725157               10.34321631               67.76824409                0.00010000                4.09006287               -0.78008005               -2.55280008               -5.81295706               20.36788289               -3.34559701
              18.07343588                9.79965541               67.54689644                0.00010000                6.08564197               -0.69672555               -5.31228216               -6.73494305               20.08970670               -1.21332952
              19.13896440                9.23299545               67.33205995                0.00010000                6.75941226               -0.39795778               -7.27792616               -7.32654979               18.73835650                0.44947081
              20.20862413                8.64594442               67.13082956                0.00010000                7.32822109               -0.11774123               -8.53094538               -7.96761215               18.88739343                1.81454368
              21.28552883                8.04182029               66.96968084                0.00010000                6.44238915               -0.21471974               -9.07589766               -8.77555084               22.96359692                3.21091539
              22.33747191                7.42042938               66.89235266                0.22794236                2.65782260                0.39314637               -2.39971872               -4.97363647               13.46886225                0.47069446
              23.33868528                6.89683641               66.52558373                0.83710959                0.12133672               -0.03548088               -0.53729020               -0.20922930               -0.00957837                0.00115600
              13.40532992               13.19643514               69.09278300                0.84233596                0.10342581               -0.04075302                0.06884001               -0.07198707                0.10288837                0.48690454
              14.40636418               12.75702504               68.64863746                0.44480650                0.14487160                0.25970280               -0.80901392               -0.01453656                0.62297836               -0.12497572
              15.40822735               12.31773595               68.21471993                0.00010000                2.15978137                0.41446596               -1.15234186               -1.84888899                5.69360652               -0.21777414
              16.44955981               11.84149422               67.87193089                0.00010000                4.35482513               -2.75577372                4.11107364               -2.14658654               16.86552532               -3.45583534
              17.49532386               11.32983938               67.61935927                0.00010000                6.06053148               -1.72159958               -2.21140323               -3.44247707               21.32670346               -2.50168766
              18.57077044               10.79062497               67.39963890                0.00010000                7.89527528               -1.27551167               -5.44892996               -3.86576453               20.01449678               -0.83661820
              19.65322936               10.22861784               67.18057093                0.00010000                8.19236396               -0.57523712               -7.61602533               -4.25843872               17.71076842                0.26137100
              20.73461772                9.64506771               66.96889553                0.00010000                8.06193205               -0.07219971               -8.80936651               -5.15285658               17.33223920                1.43566313
              21.81446800                9.03702745               66.79324595                0.00010000                6.39506678                0.05073410               -8.72317577               -6.36163621               20.37621905                2.66135933
              22.86251905                8.42256717               66.67565075                0.30221872                2.42672605                0.16768359               -0.79761383               -4.43811341               12.04400801                0.43824797
              23.86300252                7.89620931               66.30727003                0.90660528                0.04834720               -0.03501569               -0.05122224               -0.06263245               -0.25142298                0.02366669
              13.84256286               14.19627614               68.96339235                0.90990885                0.15662809               -0.01589940               -0.06738457                0.10768619                0.35786348                0.40021151
              14.84412914               13.76012007               68.51798963                0.73789076                0.19473406                0.30950278               -1.10048260                0.06845478                1.11068183               -0.07598981
              15.84645754               13.32211531               68.08748555                0.51931912                4.62351636                0.43793602               -1.28130405               -4.24789707                6.47771483               -0.01385814
              16.93659947               12.79870175               67.75058060                0.36528015                7.64068645               -4.27924765                3.62988902               -1.96258341               18.63963852               -3.22826608
              17.99927127               12.30878432               67.48133319                0.36082826                8.03713291               -2.10550590               -2.32185217               -0.83308685               19.71215829               -0.79715372
              19.09734213               11.77414518               67.25431812                0.36398319               10.00408134               -1.64797976               -5.64837036               -1.70751132               17.98051300               -0.23564425
              20.19935290               11.22149071               67.02174758                0.37457226                9.99076301               -0.71271327               -7.85959734               -1.86988358               14.70337626                0.34749863
              21.29715739               10.64450043               66.79162076                0.39315733                9.07218704               -0.05672753               -9.11913403               -2.67881985               13.68201710                1.09484193
              22.38079664               10.04283497               66.59509966                0.42043756                4.61851967                0.58075169               -9.19923834               -4.40300513               17.17587828                2.18135236
              23.38952778                9.42378305               66.45639739                0.66194800                0.46758517                0.12158853               -0.76921420               -4.63407045               11.36394404                0.54703994
              24.39014834                8.89613610               66.08757498                0.96019569                0.06205612               -0.00732141               -0.20858441               -0.05011366                0.02533227                0.03701840
               9.78821335                4.34922204               71.25408244                1.00000000               -0.33667800               -0.40045149                1.40069407               -0.11399142               -0.40573892                0.52356712
              10.78484657                3.89040836               70.83969969                1.00000000               -0.25627682               -0.22099935                0.82231879               -0.08551524               -0.48910637                0.06305535
              11.78308781                3.43112434               70.42298622                1.00000000               -0.09496183               -0.04690898                0.25163486               -0.08588036               -0.50104573               -0.06697851
              12.78294733                2.97101715               70.00827800                0.60857705                0.02296216                0.13760464               -0.33016149               -0.15672894               -0.43446680               -0.41813142
              13.78354705                2.50889305               69.59335512                0.46684345                0.13367969                0.35201091               -0.94068169               -0.20478869               -0.31537294               -0.29464397
              14.78562092                2.04464317               69.18183206                0.22184239               -0.37919846                0.53639767               -1.59285674               -0.98581830                0.49294309               -0.58315565
              15.77596308                1.56352041               68.78442164                0.00010000              -10.20381242                1.41898502               -2.10401991              -18.94618068               12.94308720               -1.81397695
              16.58154468                0.71400664               68.62940404                0.00010000              -10.00196061                3.60073179               -3.34782315              -18.65327791               23.51631740                2.93461275
              17.57592387               -0.12185825               68.40231174                0.00010000                7.28673363                0.12970964               -3.30964716              -16.34863523               17.93382973                4.07283914
              18.72727935               -0.94815726               68.11490175                1.00000000                7.80005278                0.81586058               -1.50427009              -14.89809288                6.93294366                0.04334710
              19.73192493               -1.48658526               67.68774998                1.00000000                0.46455793                0.99084111               -1.99801892                0.32303669               -0.05135763               -0.05501267
              10.24588711                5.34521752               71.12461827                1.00000000               -0.28468499               -0.37317340                1.24105173               -0.02242042                0.03396162                0.73865001
              11.24304026                4.88819836               70.71003680                1.00000000               -0.19812534               -0.19954886                0.66280409                0.00367430                0.11033177                0.09036654
              12.24192461                4.43065525               70.29639621                1.00000000               -0.02722907               -0.02529618                0.08757709                0.00299842                0.14369271               -0.26144565
              13.24249568                3.97239320               69.88249549                0.63478880                0.13807765                0.15126682               -0.48715414               -0.04513942                0.31886651               -0.40657448
              14.24468616                3.51241316               69.47295481                0.56855443                0.29766890                0.34472707               -1.13399179               -0.07531004                0.43248793               -0.28207013
              15.24844906                3.05000714               69.06248396                0.33894821                0.35666900                0.53536309               -1.78146178               -0.49301787                0.64356337               -0.49512626
              16.25181954                2.57771026               68.65904173                0.00010000               -0.53739166                1.02506473               -2.46724855              -17.74946511               14.48898538               -0.95998136
              17.23770123                1.75001396               68.52875647                0.00010000               -0.41500340                0.92612440               -4.78739413              -27.23366583               23.00299513                5.79723352
              18.24351947                0.87943885               68.28385866                0.00010000                1.14803484                3.69274088               -7.20188572              -26.22442414               11.65395023               11.40762588
              19.26066192                0.06000134               67.92202765                0.23221157                1.50319079                2.36814775               -3.80591014              -15.48706106                3.33011122               -0.22623830
              20.27358329               -0.47667685               67.49491703                1.00000000                1.29213639                1.62038720               -4.33232977                0.13241467                0.05125699               -2.61294239
              10.70180326                6.34175857               70.99856182                1.00000000               -0.23209315               -0.31247955                1.07154637               -0.02499842                0.18321214                0.86448081
              11.69948233                5.88641738               70.58059583                1.00000000               -0.14251594               -0.15716676                0.50030882               -0.00053817                0.38394860                0.00615591
              12.69895294                5.43061841               70.16614178                0.00010000                0.04021499                0.02509674               -0.07439143               -0.01722519                0.86034246               -0.71674569
              13.70028663                4.97404249               69.75780743                0.00010000                0.27369851               -0.46482940               -0.63582768               -0.87906073                1.38383768                1.11713152
              14.70442691                4.51578760               69.35443044                0.00010000                0.50884192               -1.04486407               -1.30072590               -1.53219070                1.37059660                3.34623689
              15.71046347                4.05535043               68.94730607                0.00010000                0.82700283               -2.21096123               -1.95133049               -2.15143105                1.58020632                6.78171671
              16.72096697                3.58402171               68.55031078                0.00010000                1.23396548               -6.43632211               -2.63768849              -20.03326364               19.37273139               13.36023686
              17.73514277                2.73252913               68.50141395                0.00010000                1.02405199                0.17307982               -6.57546734              -33.77267062               31.05745012               11.09212228
              18.74144801                1.95199657               68.34159916                0.00010000                1.92555236                7.19060229              -12.90157167              -35.66067909                4.30899508               16.67822609
              19.77365382                1.09920569               67.72528476                0.00010000                3.32407956               18.34209019              -26.15418073              -25.52389779               -9.45891708               47.86404085
              20.80792960                0.54582249               67.25285350                0.12673889                3.42757757               22.27431269              -29.42456146               -8.35203177               -3.45860609               55.49104036
              11.15606953                7.33896793               70.87093589                1.00000000               -0.18998710               -0.24533571                0.90446339               -0.02511546                0.29217603                0.70578017
              12.15416966                6.88505503               70.44902618                0.47687582               -0.10572679               -0.11831001                0.34027598                0.01959979                0.49566322               -0.36838172
              13.15395499                6.43115718               70.03074024                0.00010000               -0.72121844                0.08128833               -0.21944522               -0.66748884                3.21823679               -1.19068776
              14.13974529                5.96309661               69.66350858                0.00010000               -1.06102912               -0.71058355               -0.63154964               -2.25968138                6.30002516                2.16391944
              15.13273441                5.49151588               69.30821248                0.00010000               -0.12794805               -2.01181507               -1.69507793               -3.56904980                7.95714305                5.94589940
              16.13718633                5.00578792               68.97578239                0.00010000                2.06205792               -4.65261689               -2.87070601               -7.51112228               12.25744962               11.60850685
              17.17397557                4.44898382               68.71380556                0.00010000                2.85433139               -9.44155932               -4.64576498              -17.35873884               18.49476397               19.08068327
              18.19427295                3.75347556               68.51831030                0.00010000               -0.51731192                1.68684185               -7.91961343              -26.08411349               23.42737177               12.42702451
              19.16362933                3.02325090               68.36976293                0.00010000               -1.89574511                9.03852098              -14.90283296              -22.05569349               49.02355141               15.52696592
              20.15635805                2.42684315               68.74129930                0.05981702                2.48398668               21.76978794              -47.80012746               -8.66648351               44.82104447               52.44395399
              21.21330906                1.96880941               68.45720729                0.65106449                5.69510105               24.26046299              -50.05110225               -2.55906862               22.67387357               56.67531422
              11.60912676                8.33685185               70.74131532                0.91112064               -0.14416866               -0.17912518                0.74980084               -0.01155219                0.04170287                0.58466698
              12.60768507                7.88405118               70.31191915                0.32235913               -0.07825907               -0.08815807                0.18046154                0.08496534                0.50155606               -0.54458820
              13.60756158                7.43224418               69.89139309                0.00010000               -0.64753857                0.08371858               -0.37043021               -0.84902211                5.31863708               -1.63462957
              14.59473430                6.95983082               69.55879735                0.00010000               -0.86034845               -0.15444383               -1.21281440               -2.08856178               10.32439580                0.89620056
              15.59035461                6.47555129               69.24250402                0.00010000                0.40193893               -1.31222851               -2.27003404               -3.69098832               12.26151556                3.65640861
              16.60277308                5.96229809               68.95486311                0.00010000                1.78749725               -3.27191167               -3.65635999               -7.40315943               15.20428285                6.76670107
              17.62610455                5.39519052               68.70848725                0.00010000                1.82101768               -3.54762737               -5.54282185              -14.04746601               19.28263799                8.28880648
              18.63919343                4.76626597               68.51977688                0.00010000                0.04309967                1.54296876               -8.62696971              -17.63769589               25.60357321                9.25920584
              19.62696655                4.13276699               68.42738327                0.00010000                0.77861030                7.99895208              -15.49911116              -14.06270508               46.07181631               11.16214875
              20.65476564                3.53460145               68.69302385                0.01830577                2.29245776                8.82317930              -29.36389370               -5.16833003               36.22139104               -0.85470125
              21.67281570                3.03103175               68.36146628                0.62436970                1.80500631                5.21837386              -26.17209658               -0.89821723               13.90994795               -1.49831733
              12.06143984                9.33538543               70.61111177                0.90360711               -0.09631988               -0.13798242                0.60404389               -0.02318430                0.00776868                0.57478696
              13.06047664                8.88329187               70.17657830                0.30392292               -0.01224643               -0.04521432                0.02603651                0.10712568                0.26850116               -0.40569851
              14.06119491                8.43283155               69.74699569                0.00010000               -0.29048493                0.07475637               -0.50007690               -0.85637362                6.66854888               -1.70107507
              15.05466694                7.96000774               69.44101541                0.00010000               -0.23737682                0.11610298               -1.51111797               -2.37160620               13.22537899               -0.52644388
              16.05644737                7.46527131               69.14897925                0.00010000                0.74084852               -0.66992734               -2.69409168               -4.38638194               14.63072283                1.10674777
              17.06948391                6.94034969               68.88082302                0.00010000                1.63055004               -1.46898232               -4.13748673               -7.56065431               16.69573845                2.75701237
              18.08905837                6.37803128               68.64534928                0.00010000                1.72293301               -0.95925452               -5.97761651              -11.05469940               19.57731302                4.02146367
              19.10394257                5.78433493               68.45751168                0.00010000                1.24906858                1.60089478               -8.68904280              -12.56262953               24.07822703                4.51403206
              20.11403974                5.18322994               68.34217551                0.00010000                2.53920626                3.91373661              -12.92021055              -10.43940379               35.03448855                3.80179509
              21.15472669                4.60330673               68.41540589                0.00010000                4.42221908                4.83867977              -24.45277879               -5.93805390               26.86290807               -7.83950829
              22.20248412                4.07317689               68.11892932                0.57542975                4.77574308                3.78636168              -22.15756077                0.01313122               14.82701671               -5.72307731
              12.51285020               10.33409221               70.48137468                0.91552035               -0.04687382               -0.12559399                0.46559658               -0.03287313               -0.00940198                0.61253020
              13.51238146                9.88314689               70.04199924                0.31676712                0.04340183                0.02235364               -0.14431555                0.09450984                0.16723916               -0.34354505
              14.51371823                9.43373931               69.60596975                0.00010000                0.12404802                0.14514100               -0.66410450               -0.88195306                7.31674276               -1.39957430
              15.51486242                8.96215288               69.30990224                0.00010000                0.42833930                0.24652007               -1.56069717               -2.59053046               14.78101874               -1.79032081
              16.52228502                8.46215275               69.03074915                0.00010000                1.19688051               -0.12680144               -2.80962240               -4.84532350               16.11432343               -0.97390732
              17.53880003                7.93291845               68.77298268                0.00010000                1.93701500               -0.41481509               -4.36707713               -7.16469803               17.49964516                0.30545564
              18.56102532                7.37600543               68.54111052                0.00010000                2.19710756                0.05126400               -6.15520013               -9.07297882               19.10654172                1.35209671
              19.58274218                6.79828386               68.34338063                0.00010000                1.90906749                1.27426788               -8.32692221               -9.79723864               21.78703088                1.76340962
              20.59920667                6.21104172               68.20077887                0.00010000                3.16577156                2.44267745              -11.50452545               -9.04633599               26.76861178                1.40265890
              21.64605761                5.63137505               68.13711582                0.00010000                6.70656753                1.58932876              -22.01532318               -5.49425443               19.52293117               -0.19248244
              22.73333802                5.10675898               67.84336619                0.57212811                8.72804085                1.96614762              -20.42727464               -2.05449214               13.01108836               -0.33664181
              12.96267300               11.33287355               70.35196437                0.92222668                0.00467300               -0.11119773                0.33307838               -0.04496126               -0.01068358                0.65441133
              13.96271973               10.88373894               69.90784941                0.33663133                0.09384280                0.09521474               -0.33545298                0.06389397                0.19598083               -0.31891224
              14.96454986               10.43573437               69.46775498                0.00010000                0.58615789                0.26282242               -0.87941944               -0.97580073                7.49214359               -1.15610146
              15.97444289                9.96493814               69.16966530                0.00010000                1.21127386                0.18739881               -1.10238014               -2.66497684               15.41318134               -2.72273752
              16.98877534                9.46273528               68.89502069                0.00010000                1.89471865               -0.04773283               -2.53957090               -4.75932422               17.10200874               -2.25608841
              18.01233726                8.93205338               68.64264730                0.00010000                2.67290213               -0.06594712               -4.38541712               -6.40805394               18.00023633               -1.08426544
              19.04223338                8.37905656               68.41033600                0.00010000                3.03121215                0.34942774               -6.21928136               -7.39278960               18.50893993                0.04688140
              20.07296151                7.80982029               68.20297079                0.00010000                2.88942308                1.05395801               -8.12213141               -7.64099622               19.59080310                0.86600440
              21.10002184                7.23208349               68.03435765                0.00010000                3.80814204                1.73893827              -10.67883262               -7.74239744               25.23622221                1.16037909
              22.14912435                6.63509331               67.98543995                0.00010000                5.53022865                0.49080953              -18.96710044               -4.16526888               18.73006852                7.54551047
              23.21062641                6.11249984               67.68339314                0.58977383                6.15020658                0.33089311              -17.27893824               -3.80529124               11.30463706                5.84251457
              13.41022019               12.33186825               70.22292541                0.92773301                0.05783206               -0.08014211                0.20194470               -0.06096392               -0.00076059                0.67917837
              14.41079851               11.88505119               69.77390251                0.37059075                0.13914139                0.17266877               -0.56021297                0.03072301                0.36025331               -0.31713994
              15.41300302               11.43899576               69.33205892                0.00010000                1.18817309                0.39668583               -1.17794090               -1.29127089                7.50552864               -0.77855120
              16.43456197               10.96590086               69.02590312                0.00010000                2.34901349               -0.30603491               -0.18793566               -2.73919421               15.46079442               -2.57387997
              17.45998329               10.46119809               68.75036162                0.00010000                2.98778522               -0.53026883               -1.90798641               -4.00564736               17.85297533               -2.50158625
              18.49431768                9.93159950               68.49951767                0.00010000                3.77096670               -0.20734292               -4.31281497               -4.94579528               18.20067918               -1.46776836
              19.53540262                9.38299399               68.26505342                0.00010000                4.12888236                0.32386516               -6.25471860               -5.45384317               17.82953103               -0.32805184
              20.57689533                8.81936302               68.04934619                0.00010000                4.18415394                0.92893357               -8.04096485               -5.61511270               17.89919729                0.84592650
              21.61908570                8.24582049               67.86459706                0.00010000                5.27202782                1.17886093              -10.21627796               -6.50278876               24.93348061                2.18803730
              22.68233588                7.64119124               67.84889403                0.02876105                4.16667166                0.61680565              -15.87661712               -3.07688426               17.65973944                7.14471277
              23.70241914                7.11337684               67.51490215                0.62560561                2.00832533                0.14108526              -13.80281599               -2.05670286                7.37797695                4.90959827
              13.85508785               13.33127071               70.09369829                0.84820755                0.11188336               -0.03896601                0.07348440               -0.06584279                0.07057317                0.61411431
              14.85620669               12.88719231               69.63998917                0.33068867                0.13934586                0.26363249               -0.83855736                0.01489834                0.83609040               -0.31399713
              15.85787477               12.44366809               69.20154331                0.00010000                2.06249920                0.52848377               -1.42973519               -2.09060885                7.79410663               -0.37707839
              16.89745667               11.95881744               68.88699863                0.00010000                4.25444850               -1.45526634                0.30130248               -2.34393238               15.20641611               -1.48814108
              17.94296374               11.45212991               68.60613067                0.00010000                4.70843945               -1.30027823               -1.52821473               -2.31748203               17.72098213               -1.61437829
              18.99162546               10.92790653               68.35246129                0.00010000                5.12146266               -0.64138721               -4.18537625               -2.63013139               17.64077484               -1.04808240
              20.04539299               10.38553386               68.11218536                0.00010000                5.31036453                0.06065425               -6.21216322               -2.91247812               16.50642546               -0.26665271
              21.09783275                9.82839896               67.88659920                0.00010000                5.13724279                0.76965299               -7.91727142               -3.26861280               16.08950895                0.68934933
              22.14813785                9.25566070               67.69129620                0.00010000                6.10987773                1.31186872               -9.87444825               -4.92370957               23.05916386                2.36775231
              23.22003031                8.64742942               67.66200837                0.07050379                3.84916462                0.59242387              -13.15020790               -3.41482538               15.24735746                4.93681708
              24.22512114                8.11532154               67.30603539                0.66608469                0.50908366                0.17130489              -10.39191481               -0.42488763                3.95661869                4.11423856
              14.29706012               14.33108893               69.96307593                0.91164018                0.16389736               -0.01817741               -0.05153365                0.12071708                0.33177126                0.55330516
              15.29869909               13.89032384               69.50630730                0.66509329                0.12527980                0.31315230               -1.11378062                0.17306560                1.51143764               -0.32448134
              16.29956572               13.44956543               69.07312307                0.44511722                4.02612087                0.58973411               -1.57540265               -3.50732091                8.29777085               -0.17651798
              17.37922151               12.93679553               68.75388804                0.36498061                7.24894233               -2.20219107               -0.32787637               -2.54216139               14.58407844                0.16902224
              18.44454456               12.43519253               68.46934015                0.36082025                6.45447937               -1.69373803               -1.45236279               -0.74310641               16.78359136               -0.63558597
              19.50831110               11.91877176               68.20689790                0.36369514                6.60580317               -0.91347671               -4.00854853               -0.88070895               15.70523745               -0.30081525
              20.57666063               11.38420707               67.95424968                0.37377828                6.65425626               -0.13267862               -5.83887485               -1.07402066               13.55730902                0.09922412
              21.64139622               10.83475608               67.71040929                0.39114271                6.24602119                0.63571222               -7.35640904               -1.25111329               12.00124573                0.84226641
              22.70158105               10.27205786               67.49078307                0.41688365                5.64911558                1.63971579               -9.23794398               -3.74149847               18.73261682                2.04352702
              23.75437854                9.65303971               67.44365265                0.54510582                2.82780439                0.56102933              -12.63970569               -4.32792317               13.73048066                6.40263702
              24.75813714                9.11680294               67.08413535                0.84135589                0.37586026                0.14813976              -10.09510824               -0.32207784                2.53141899                6.41217810
              10.20148646                4.48465159               72.26729017                1.00000000               -0.30369916               -0.35600681                1.24247409               -0.09546610               -0.39631377                0.51209649
              11.19844946                4.02148208               71.84761036                1.00000000               -0.23751323               -0.20503548                0.76033871               -0.06907111               -0.47700480                0.06022667
              12.19673619                3.55787663               71.42566245                1.00000000               -0.10400273               -0.05837776                0.28319737               -0.06987687               -0.49009085               -0.06477351
              13.19636941                3.09350378               71.00562465                0.61434816               -0.00830659                0.09491150               -0.20213802               -0.13628449               -0.43883020               -0.39930629
              14.19657006                2.62728414               70.58514348                0.46530029                0.08123611                0.27210486               -0.70549554               -0.18223390               -0.34949064               -0.29889680
              15.19799413                2.15915746               70.16766867                0.20524896               -0.59979231                0.41802499               -1.24675786               -1.09349810                0.52219133               -0.57231532
              16.18457421                1.67186628               69.76587594                0.00010000               -9.20632408                1.44902579               -1.61820645              -17.19452810               12.75838426               -1.95938671
              17.01386765                0.85127709               69.60028628                0.00010000               -8.46865573                2.64821650               -2.68679674              -16.71549026               23.96292644                2.67885709
              18.01520110                0.04739553               69.37229626                0.00010000                7.10865193               -0.93734758               -2.86852265              -13.84240638               19.33210258                3.12864439
              19.15604069               -0.74272174               69.10058503                1.00000000                7.32064448                0.63336062               -1.71721366              -12.92750112                7.90168232               -0.27717804
              20.16161399               -1.28207989               68.66888678                1.00000000                0.55732994                0.77206079               -2.12108939                0.23000911                0.04049346               -0.42266118
              10.66370131                5.48109152               72.13630939                1.00000000               -0.25550707               -0.33373346                1.09833523               -0.01845061                0.03408471                0.72255441
              11.66114623                5.01943172               71.71643203                1.00000000               -0.18373666               -0.18605130                0.61633521                0.00573344                0.11130031                0.08606759
              12.66002657                4.55729285               71.29752114                1.00000000               -0.04217124               -0.03874463                0.13663198                0.00360682                0.14748315               -0.25853824
              13.66030281                4.09445289               70.87836695                0.66281594                0.09471553                0.10487271               -0.34014676               -0.04164877                0.29315823               -0.38235422
              14.66192088                3.63000519               70.46294394                0.58587783                0.22326344                0.26505528               -0.87281501               -0.07316513                0.37584635               -0.27196718
              15.66476808                3.16333771               70.04656590                0.33711727                0.23241155                0.41992727               -1.41017723               -0.52325638                0.56926697               -0.47247166
              16.66656911                2.68635654               69.63677856                0.00010000               -0.29099761                0.97676595               -1.99836935              -16.47835076               13.58389505               -0.99961876
              17.65894813                1.87775926               69.48359663                0.00010000                0.36036704                0.22689990               -4.19259518              -25.19202208               21.93377743                5.59503088
              18.67377645                1.03802205               69.22640778                0.00010000                1.62776297                1.20936985               -4.87734580              -22.03880149               13.29151631                8.26797962
              19.69150339                0.26361186               68.88351075                0.74763117                1.47478849                0.19926885               -3.24664143              -11.72921046                4.66991723               -2.11959239
              20.70327222               -0.27435928               68.45114760                1.00000000                1.17688386                0.28270089               -3.69250167               -0.11878403               -0.17930506               -2.52012241
              11.12443704                6.47797692               72.00865275                1.00000000               -0.20742326               -0.28448969                0.94728807               -0.02187962                0.17981548                0.84696023
              12.12236280                6.01776105               71.58545401                1.00000000               -0.13249405               -0.14735220                0.47060446               -0.00066745                0.37819327                0.00160152
              13.12178716                5.55710173               71.16573455                0.00010000                0.02306464                0.00739242               -0.00873938               -0.02414150                0.86186708               -0.70561810
              14.12282410                5.09560123               70.75229178                0.00010000                0.22173948               -0.52393114               -0.46940711               -0.88787169                1.34627530                1.12233379
              15.12622195                4.63258524               70.34285089                0.00010000                0.41767760               -1.08541793               -1.02034337               -1.51716306                1.29048110                3.24169153
              16.13117765                4.16755600               69.92976794                0.00010000                0.71818497               -2.22653999               -1.56383952               -2.15269480                1.48303586                6.45395292
              17.14058565                3.69140160               69.52630056                0.00010000                1.35920248               -6.23842390               -2.17290996              -19.05613375               17.85125210               12.51614052
              18.15836170                2.85581509               69.44265206                0.00010000                2.39934105               -0.44141814               -5.78598352              -33.00576782               26.87427730               10.89368483
              19.18857247                2.07158292               69.19660838                0.00010000                3.77380561                5.17322036              -12.80863827              -34.72725578                4.25937226               15.20473380
              20.23383781                1.26126363               68.63028518                0.07061944                2.33040636                8.77809046               -4.62789547              -21.75562072               -5.29019310               25.90409437
              21.23518059                0.72357413               68.19304472                0.64707535                0.13427822                7.77667990               -2.89356935                2.31863076               -0.58983402               27.27482720
              11.58369545                7.47540173               71.87945174                1.00000000               -0.16873755               -0.22893947                0.79863300               -0.02650717                0.28838084                0.70097033
              12.58200807                7.01648468               71.45236506                0.45133170               -0.09959430               -0.10855079                0.32614759                0.00688364                0.49363539               -0.37472050
              13.58170356                6.55744070               71.02896589                0.00010000               -0.74731020                0.06880529               -0.13974374               -0.70656838                3.19660356               -1.18144575
              14.56706187                6.08397427               70.65610572                0.00010000               -1.10403531               -0.74705231               -0.70584469               -2.29460468                6.19679783                1.97206483
              15.55962285                5.60829683               70.29247442                0.00010000               -0.20820217               -2.01493492               -1.49531264               -3.57327490                7.73076720                5.68982240
              16.56289782                5.11880691               69.94939438                0.00010000                1.87822471               -4.50947426               -2.53594229               -7.43628717               12.01174604               10.94020188
              17.59718735                4.56158806               69.67007508                0.00010000                2.78768124               -9.01021706               -4.30584328              -17.11445225               17.84427606               17.85739538
              18.61865145                3.86893090               69.44016990                0.00010000               -1.17022751                1.57765741               -7.82627728              -26.14591311               22.88971801               11.57408289
              19.57378280                3.14148646               69.24531278                0.00010000               -0.71258413                8.67889104              -12.85359050              -28.94464858               25.52462134               17.14378087
              20.60439977                2.43917367               69.00744417                0.00010000               12.56205245               20.83403621              -65.97977013              -20.06694443               19.81633064               31.10511723
              21.82502385                1.88117432               68.58799386                0.58243249               22.06240815               22.40107692              -73.70627788               -5.31062824                7.86308092               33.17245850
              12.04174099                8.47339813               71.74838878                0.91710903               -0.12794808               -0.17226465                0.66240454               -0.01867229                0.03075500                0.59879093
              13.04046151                8.01559004               71.31369114                0.29995807               -0.07873958               -0.07760980                0.17557457                0.05867046                0.50060781               -0.55412437
              14.04016620                7.55847784               70.88807460                0.00010000               -0.71928164                0.07990433               -0.29342531               -0.90203130                5.22588259               -1.65362416
              15.02607587                7.08066019               70.54811759                0.00010000               -1.01211913               -0.21082379               -1.01695194               -2.17902148               10.13197002                0.69543383
              16.01992381                6.59228654               70.22145011                0.00010000                0.15423981               -1.30472959               -2.02277045               -3.74528383               12.04613106                3.31353127
              17.02916067                6.07736652               69.92038544                0.00010000                1.41243983               -3.04562760               -3.37280290               -7.41224878               15.08426504                6.15631690
              18.04817261                5.51119726               69.65553442                0.00010000                1.31921858               -3.10405889               -5.36996643              -13.95688991               19.06921542                7.50191849
              19.05554504                4.88736824               69.43300764                0.00010000               -0.43679450                2.15239769               -8.73453669              -18.46831606               25.01792008                8.45946538
              20.03943672                4.24516075               69.27570815                0.00010000                1.86330106                9.08545655              -17.38164414              -13.36485574               33.83811074                9.05778549
              21.09281106                3.67794436               69.18421928                0.00010000               10.27650082               17.02791341              -43.79314237               -5.50856373               26.38191302               12.29201026
              22.24496674                3.17159567               68.86930629                0.51222358               15.21556733               19.77906185              -46.67139408               -6.99271252               17.22853229               16.37295948
              12.49893819                9.47195643               71.61683094                0.91257521               -0.08364168               -0.13279083                0.53341824               -0.02822222                0.00253364                0.60963858
              13.49810177                9.01493248               71.17683167                0.28020323               -0.01727021               -0.04008578                0.02887144                0.07310691                0.28194218               -0.42662366
              14.49859278                8.55903878               70.74218009                0.00010000               -0.42145187                0.06438186               -0.45714856               -0.96608691                6.52364515               -1.77538863
              15.48967273                8.07975780               70.42738593                0.00010000               -0.52909669               -0.00378404               -1.28153723               -2.45526712               12.94926312               -0.58573575
              16.48801085                7.58220224               70.12415015                0.00010000                0.30346995               -0.64621380               -2.39081043               -4.26867245               14.38362177                0.88786886
              17.49574213                7.05789435               69.84167518                0.00010000                1.00184886               -1.19152111               -3.85281780               -7.32491043               16.59239659                2.29078208
              18.50804783                6.49950689               69.58753956                0.00010000                0.97897560               -0.38338178               -5.86750584              -10.83827913               19.58542933                3.28488437
              19.51532164                5.91197885               69.36913185                0.00010000                0.39308702                2.46577072               -9.15977813              -12.23973350               24.32651210                3.66384159
              20.51590957                5.32319559               69.20763556                0.00010000                2.62359622                6.21133484              -15.19767399               -8.55541060               28.70396916                2.64367809
              21.56779357                4.77973194               69.06455062                0.00010000                9.09787049                7.41056314              -32.21497052               -4.17606746               20.84266507               -1.39326025
              22.69786698                4.27675556               68.73928019                0.48763984               13.00734082                7.37016716              -35.50061009               -4.64524532               12.60938784               -0.68187575
              12.95522444               10.47074231               71.48580466                0.92683084               -0.03831485               -0.11270887                0.40886915               -0.03546528               -0.01180660                0.66800576
              13.95484129               10.01478832               71.04055648                0.28952511                0.03973509                0.01754523               -0.13438718                0.05740071                0.19392952               -0.38819114
              14.95601914                9.55976548               70.59926881                0.00010000               -0.05171074                0.12152986               -0.65671494               -1.04099027                7.26561410               -1.54567408
              15.95380708                9.08058451               70.29578047                0.00010000                0.01973308                0.15855324               -1.37116172               -2.61744562               14.51678750               -1.57535226
              16.95641381                8.57936227               70.00479287                0.00010000                0.57753660               -0.07477479               -2.51508664               -4.42899460               15.71362938               -0.91812942
              17.96535781                8.05353609               69.73193810                0.00010000                1.04543625               -0.07775846               -4.03673077               -6.58184635               17.26566510               -0.04024807
              18.97732253                7.50352963               69.48156568                0.00010000                1.08519280                0.70324179               -6.00170012               -8.44977920               19.28594038                0.63707936
              19.98706167                6.93668366               69.26014451                0.00010000                1.16264437                2.33991006               -8.75611401               -8.94373065               22.08109836                0.87427380
              21.00057542                6.36938744               69.07402566                0.00010000                3.43340401                3.87578245              -13.83446094               -6.98591699               23.98228759                0.32236741
              22.05572975                5.82615562               68.88368715                0.00010000                7.87195905                3.70521503              -24.31610509               -3.78041080               16.80211222               -0.26185070
              23.15801460                5.31899901               68.55321992                0.48486162               10.22848517                3.27388482              -28.00033042               -3.09963368                9.02325349                0.84725449
              13.41013686               11.46970226               71.35512658                0.93467642                0.00897553               -0.09007270                0.28344727               -0.04245881               -0.00959700                0.72501177
              14.41022662               11.01528339               70.90450135                0.30253025                0.09199628                0.08275651               -0.31471848                0.03590384                0.22970666               -0.39373461
              15.41197679               10.56146938               70.45860129                0.00010000                0.37502040                0.23505827               -0.90897497               -1.11796034                7.68341910               -1.39545345
              16.41772703               10.08292886               70.15729456                0.00010000                0.72512894                0.22108912               -1.29695573               -2.60109548               15.27598841               -2.05727984
              17.42647937                9.58070674               69.87101351                0.00010000                1.11054096                0.13561643               -2.39079682               -4.11534789               16.41316867               -1.90915074
              18.43993785                9.05633919               69.60186627                0.00010000                1.47126558                0.34749759               -3.99063644               -5.48675815               17.45715573               -1.30091177
              19.45590468                8.51357172               69.35123655                0.00010000                1.53256833                1.05277147               -5.90167849               -6.45790804               18.53000983               -0.68156905
              20.47058921                7.95877705               69.12212603                0.00010000                1.54072900                2.12754420               -8.34627518               -6.64288535               20.25461624               -0.30728612
              21.48671926                7.40071124               68.92335496                0.00010000                3.59922839                2.96275191              -12.43421066               -6.04328121               21.76152010                0.43589798
              22.54257378                6.85383624               68.72720528                0.00010000                8.17341299                3.02997954              -24.02180257               -3.69230662               15.22421405                3.84174685
              23.65018752                6.34223325               68.39735073                0.49045564               10.76137389                2.66935559              -27.19858189               -1.34960082                9.05365267                5.22385206
              13.86321300               12.46894086               71.22478699                0.93928784                0.05792436               -0.05676760                0.15354052               -0.04860312               -0.00178747                0.75935397
              14.86379225               12.01644345               70.76834798                0.32264842                0.14007309                0.15284548               -0.51811725                0.02700621                0.37475969               -0.43438364
              15.86601446               11.56446664               70.31947996                0.00010000                0.93777825                0.38304295               -1.25266689               -1.31569644                8.05168881               -1.07621593
              16.88254781               11.08500629               70.01666178                0.00010000                1.73410298                0.04088088               -1.13887728               -2.55091524               15.61980548               -1.95872482
              17.90069652               10.58207460               69.73008436                0.00010000                2.01049279               -0.10667256               -2.12138912               -3.33593858               16.61888207               -2.02084585
              18.92275767               10.06048605               69.46064015                0.00010000                2.25149898                0.29719549               -3.78467773               -3.99480729               17.25779452               -1.61940984
              19.94572650                9.52458505               69.20696557                0.00010000                2.21533881                1.02584075               -5.69985788               -4.39681129               17.56635892               -1.07031772
              20.96706444                8.97923454               68.97001026                0.00010000                1.94620509                1.95072720               -7.95493676               -4.46173626               18.69951023               -0.43188115
              21.98465061                8.42864248               68.76535528                0.00010000                3.66485795                2.87426216              -11.44949437               -3.94782398               20.16253140                0.85615656
              23.04036160                7.88675521               68.57482032                0.00010000                8.47889778                3.63543239              -24.74010749               -2.30515673               13.45218050                5.68021059
              24.15422856                7.37238612               68.24952741                0.50273186               11.38669589                3.35138164              -26.06114966               -1.24224215                9.17335223                7.83974298
              14.31415962               13.46856690               71.09425268                0.85493595                0.10813429               -0.01769527                0.02105934               -0.04653353                0.05191959                0.70637707
              15.31524096               13.01834030               70.63186632                0.25899917                0.14702024                0.22753592               -0.74371474                0.05409259                0.87690854               -0.46543571
              16.31710002               12.56913024               70.18612523                0.00010000                1.69299036                0.54794020               -1.54059571               -1.78880305                8.62284836               -0.67484073
              17.34910077               12.08374648               69.87795694                0.00010000                3.35904090               -0.83514594               -1.13817613               -2.05204021               15.62314800               -1.21918191
              18.38428084               11.57857329               69.58879497                0.00010000                3.42152379               -0.62104721               -1.87945167               -2.01133327               16.35438926               -1.29934398
              19.41753124               11.06228310               69.31593138                0.00010000                3.24695606               -0.06151964               -3.49706573               -2.03525347               16.50358340               -1.14434481
              20.44921996               10.53408854               69.05632766                0.00010000                2.98829098                0.73807575               -5.33324726               -2.16151553               16.15755720               -0.81787304
              21.47729706                9.99779160               68.81055010                0.00010000                2.55110735                1.72455226               -7.42213189               -2.11537941               16.67033982               -0.30501687
              22.50024211                9.45819648               68.59575699                0.00010000                3.77149700                2.80446405              -10.68437202               -1.68458476               18.50769195                0.92144903
              23.55272700                8.92654489               68.41264659                0.00010000                7.69193724                5.08960170              -23.39419702               -0.92560428               12.29765305                5.12368408
              24.65408085                8.40926088               68.09943174                0.51827667               10.13538502                4.78968108              -23.30150820               -1.44926280                8.81188182                7.30807329
              14.76273554               14.46858695               70.96236168                0.91367383                0.15752174                0.00200496               -0.10777309                0.09831427                0.33492100                0.66073460
              15.76431076               14.02099417               70.49571402                0.62073401                0.10483388                0.26538718               -0.95865005                0.24890477                1.66887507               -0.50179683
              16.76483222               13.57542545               70.05597750                0.39845244                3.38765982                0.62952064               -1.78816641               -2.86131997                9.50209968               -0.57941463
              17.83206396               13.06830337               69.74402307                0.36481966                5.85505100               -1.54431078               -1.11407029               -1.99227062               15.41784672               -0.33444058
              18.88193324               12.56965365               69.45228594                0.36088726                4.72366958               -0.89196355               -1.72535057               -0.68714571               15.67382595               -0.38969485
              19.92653735               12.05925565               69.17414715                0.36355382                4.25272250               -0.30274415               -3.04299591               -0.61474353               15.10936532               -0.41739891
              20.96698769               11.53934657               68.90497008                0.37294560                3.70557797                0.52580335               -4.53127668               -0.49973042               13.79775409               -0.24661781
              22.00064891               11.01372558               68.64449258                0.38922332                2.76089628                1.59339886               -6.11788179               -0.39555584               13.21824774                0.08799220
              23.02220562               10.48473176               68.41034078                0.41323823                3.50681022                2.65352791               -8.67480597                0.93743396               13.89880257                1.01638726
              24.07078511                9.98854725               68.20360327                0.47090803                6.88028477                6.20023571              -20.87134792                0.97821025                8.95627488                4.90951876
              25.15981131                9.46817975               67.88567281                0.76367055                8.90261994                5.89188605              -20.69855893               -1.46370410                5.85125479                7.07589176
              10.61964669                4.62142552               73.27893192                1.00000000               -0.27124976               -0.31194926                1.08780906               -0.07791248               -0.39084909                0.50429256
              11.61693419                4.15396955               72.85490646                1.00000000               -0.21874951               -0.18934840                0.69929157               -0.05366934               -0.47026578                0.05818826
              12.61527170                3.68611148               72.42865017                1.00000000               -0.11222489               -0.06990954                0.31357579               -0.05439024               -0.48436296               -0.06280679
              13.61468969                3.21754644               72.00423523                0.62067655               -0.03792372                0.05325502               -0.07807645               -0.11522964               -0.44188156               -0.38194229
              14.61451323                2.74731418               71.57924521                0.46467973                0.03212989                0.19522202               -0.47993196               -0.15811121               -0.37519792               -0.30132985
              15.61533229                2.27540240               71.15689690                0.18983005               -0.80000335                0.30560381               -0.91590143               -1.17258762                0.57380440               -0.56413909
              16.59851316                1.78252744               70.75205751                0.00010000               -8.04747039                1.47658294               -1.15732345              -14.92660988               12.56222812               -2.11616472
              17.45438288                1.00096309               70.57566811                0.00010000               -6.81229936                1.85857104               -2.41650232              -14.26532506               23.86649639                2.14715425
              18.46226717                0.23249160               70.34494128                0.00010000                6.71697927               -1.20052787               -2.71889078              -11.30891731               20.05121790                2.81219594
              19.58872247               -0.51955226               70.08055748                1.00000000                6.69320624                0.74616070               -2.29694982              -10.54278764                8.46806675               -0.26113069
              20.59613130               -1.05956011               69.64532819                1.00000000                0.74088261                0.83228805               -2.59209485               -0.14156524                0.05768483               -0.38650978
              11.08632353                5.61830603               73.14658497                1.00000000               -0.22690147               -0.29350479                0.95824691               -0.01547774                0.03310271                0.71155498
              12.08405452                5.15207607               72.72236351                1.00000000               -0.16920914               -0.17265871                0.56993345                0.00682791                0.11068410                0.08318961
              13.08293935                4.68541238               72.29912885                1.00000000               -0.05592380               -0.05250891                0.18346844                0.00418674                0.15076337               -0.25616652
              14.08293604                4.21807899               71.87569256                0.69172382                0.05323912                0.06019775               -0.19780515               -0.03699415                0.27576910               -0.35920217
              15.08400413                3.74926640               71.45549851                0.60394622                0.15318721                0.18883827               -0.62332944               -0.06867062                0.33315945               -0.26247475
              16.08599979                3.27845844               71.03428041                0.33563327                0.12312898                0.30993021               -1.05622654               -0.53154545                0.50069445               -0.45434749
              17.08646671                2.79729327               70.61907435                0.00010000                0.03738832                0.92602784               -1.55340130              -14.61574507               12.73171718               -1.06402288
              18.08674755                2.01954880               70.44490456                0.00010000                1.14844799               -0.35667682               -3.49772627              -21.44346683               21.28808396                5.04685735
              19.10943567                1.22048632               70.18631174                0.00010000                2.12864470                0.23473225               -3.66034790              -17.74521500               14.11947760                5.57007101
              20.12932045                0.48790934               69.85709483                1.00000000                1.26439095                0.64532130               -2.06668708               -9.45162014                5.51613606               -0.32469804
              21.13472349               -0.05123723               69.42106700                1.00000000                0.54030442                0.70164433               -2.33866130               -0.19053031               -0.20059470               -0.53960691
              11.55179706                6.61555542               73.01750758                1.00000000               -0.18326617               -0.25273600                0.82417246               -0.01955640                0.17628945                0.83619279
              12.54996440                6.15051637               72.59000792                1.00000000               -0.12222738               -0.13762901                0.43949458               -0.00102177                0.37301835               -0.00136797
              13.54935251                5.68506130               72.16596699                0.00010000                0.00656961               -0.01120819                0.05333159               -0.02794634                0.86732098               -0.69710102
              14.55009579                5.21875039               71.74841929                0.00010000                0.17039289               -0.56834471               -0.30904043               -0.83668373                1.32034948                1.07052398
              15.55276037                4.75109095               71.33402357                0.00010000                0.32893652               -1.12766481               -0.75321252               -1.35462211                1.22560702                3.06619724
              16.55667452                4.28160100               70.91602928                0.00010000                0.61737631               -2.22419901               -1.19268714               -1.81110767                1.38486306                6.02393816
              17.56510789                3.80104800               70.50685258                0.00010000                2.28229898               -6.01977012               -1.72509421              -16.70762960               16.12846657               11.49871149
              18.60232050                2.99382955               70.38569428                0.00010000                3.69472162               -1.24735820               -5.50838915              -28.68898486               23.32653344                9.99947171
              19.63900233                2.23718624               70.08542640                0.00010000                3.45465603                3.32702088               -8.77399372              -25.15317874                7.28699823               13.69757583
              20.67141362                1.49335416               69.63272685                1.00000000                1.58057577                0.35510229                0.04246176              -10.10151637               -0.79476561                0.51189695
              21.67061384                0.95447277               69.19498211                1.00000000               -0.07997770                0.36171227               -0.00878054               -0.15074828               -0.06114549                0.29687418
              12.01601050                7.61325131               72.88690855                1.00000000               -0.14822934               -0.20534765                0.69214511               -0.02577764                0.28507378                0.70244427
              13.01452821                7.14932349               72.45554913                0.43036223               -0.09320488               -0.10071442                0.30992362               -0.00080364                0.49273093               -0.38136642
              14.01414641                6.68518822               72.02794536                0.00010000               -0.71777459                0.04481045               -0.06694787               -0.71555622                3.12559638               -1.18126790
              15.00017272                6.20671210               71.64939169                0.00010000               -1.00426600               -0.81455541               -0.63248478               -2.22863561                6.06445330                1.85607776
              15.99406109                5.72671311               71.27830623                0.00010000               -0.01760649               -2.04723792               -1.36856994               -3.32443157                7.51999651                5.33375783
              16.99982059                5.23397445               70.92506354                0.00010000                2.30122431               -4.42286856               -2.39586523               -6.80578430               11.54227703               10.19171376
              18.04008557                4.67689787               70.62768870                0.00010000                3.85045117               -8.66417899               -4.30800290              -15.48070230               16.57501122               16.40704031
              19.07682961                3.99460163               70.36178476                0.00010000                3.33809583                0.63318871               -7.62634930              -23.64067649               20.56461582               11.00582275
              20.10684749                3.28702674               70.11269112                0.00010000                6.65869895                5.72068389              -14.49799241              -29.30377291                4.71219028               14.53946686
              21.21000359                2.49501139               69.42170389                0.00010000                5.13119084               11.49905218              -29.21629985              -20.68187872               -4.26590316               22.57899048
              22.20947131                1.95599701               68.98308173                0.53375448               -0.05322855               12.63659136              -30.17351597               -5.07151247               -2.71648487               25.94892701
              12.47913715                8.61144847               72.75456342                0.92547396               -0.11257349               -0.15444914                0.57049331               -0.02071023                0.02064474                0.61698084
              13.47801141                8.14850209               72.31543064                0.28261780               -0.07421861               -0.07147165                0.17367639                0.03735833                0.49702758               -0.56663284
              14.47765277                7.68595751               71.88552458                0.00010000               -0.70066137                0.04706774               -0.21623903               -0.95378292                5.09887190               -1.70024601
              15.46399818                7.20245929               71.53845831                0.00010000               -0.93216990               -0.30409781               -0.94211713               -2.21509484                9.88515965                0.55509519
              16.45900938                6.71014619               71.20204861                0.00010000                0.31879445               -1.35135890               -1.92666972               -3.67730959               11.71819863                3.00717101
              17.47037407                6.19314363               70.88740705                0.00010000                1.79286459               -2.96808892               -3.33952100               -7.21299644               14.57306816                5.59446410
              18.49486667                5.62776442               70.60108792                0.00010000                2.45020123               -2.96000817               -5.52990506              -13.67127918               18.21158640                6.80101135
              19.51937810                5.00649333               70.34508615                0.00010000                2.88252224                1.79366270               -9.28354101              -19.13086516               21.06933468                7.74674996
              20.55251711                4.35159992               70.07975039                0.00010000                3.47138347                7.53796291              -17.62257152              -19.86526251               23.82545907                8.05890613
              21.58880577                3.72333521               69.81716100                0.00010000                4.73476158               19.04811372              -31.75166497              -15.72317728               16.40151533               25.01419866
              22.64721235                3.20720460               69.42803840                0.46001878                5.84065770               20.98143640              -37.06337808               -6.82598911                2.85461414               27.98244155
              12.94148907                9.61016232               72.62178014                0.92366412               -0.07227263               -0.11458924                0.45189572               -0.02816325               -0.00125015                0.64264338
              13.94076634                9.14789405               72.17715573                0.26595388               -0.01877591               -0.03943529                0.03969711                0.03758677                0.27568706               -0.44994671
              14.94111355                8.68612957               71.73785272                0.00010000               -0.45421012                0.02235598               -0.39711961               -1.05550839                6.37285154               -1.88273071
              15.93168214                8.20063014               71.41538467                0.00010000               -0.56414987               -0.08610395               -1.18134977               -2.53838610               12.65151126               -0.64340798
              16.92983055                7.69968593               71.10116305                0.00010000                0.31301485               -0.66096978               -2.29853317               -4.23134267               14.00346227                0.72700047
              17.93794243                7.17461268               70.80376667                0.00010000                1.17398712               -1.06106138               -3.84993459               -7.25108879               16.13634504                1.94627913
              18.95331029                6.61769770               70.52799917                0.00010000                1.62171854               -0.13571973               -6.12556992              -11.02333731               18.83886095                2.80511250
              19.97037680                6.03047489               70.27431612                0.00010000                1.96950328                2.81409155               -9.81024340              -13.36928199               21.91393739                3.07096846
              20.99270036                5.43778599               70.03822203                0.00010000                3.47792800                7.50848755              -16.72906143              -12.58542770               22.82051111                3.68376849
              22.03993536                4.87597366               69.77110648                0.00010000                5.62561878               12.00740807              -26.11794174               -7.40302114               15.51912917                1.71153924
              23.10521273                4.37562574               69.40891712                0.45218219                6.52773690               12.92144673              -29.75810714               -3.65853173                6.07711266                2.60791091
              13.40311043               10.60915669               72.48955206                0.93993847               -0.03145256               -0.08854332                0.33446352               -0.03220796               -0.01268460                0.70960153
              14.40279590               10.14771338               72.03931150                0.27519044                0.03480474                0.00893475               -0.10719184                0.01603814                0.18175793               -0.42870173
              15.40380652                9.68640463               71.59283545                0.00010000               -0.15608974                0.07422929               -0.60081090               -1.13323413                7.15665874               -1.71523204
              16.39967410                9.20073721               71.28247901                0.00010000               -0.17032668                0.11405499               -1.32095128               -2.68047685               14.25863863               -1.50279482
              17.40039999                8.69692680               70.98044742                0.00010000                0.38332101               -0.02125753               -2.44998250               -4.30891782               15.30095419               -0.90315005
              18.40734052                8.17192240               70.69224806                0.00010000                0.90688622                0.13602109               -4.03125119               -6.42809352               16.83779836               -0.24555642
              19.41853771                7.62505002               70.42107652                0.00010000                1.22818212                1.11637880               -6.22889414               -8.49418650               18.77839103                0.23443225
              20.43190417                7.06277516               70.16825835                0.00010000                1.83860368                3.16669640               -9.56676115               -9.38608663               20.67945598                0.42212116
              21.45530978                6.50176967               69.92408965                0.00010000                3.55007159                5.58429169              -15.00711154               -8.09095786               20.34036845                0.04112581
              22.50290560                5.96348337               69.65079371                0.00010000                5.97138858                7.24107071              -21.91792388               -4.82293199               13.28371901               -0.44763591
              23.57473756                5.46563354               69.28335958                0.45132853                7.18319567                7.25218241              -25.20852157               -2.47519104                5.86083094               -0.09535770
              13.86373152               11.60839146               72.35763332                0.94796906                0.01076456               -0.06137282                0.21257496               -0.03426941               -0.00720000                0.76734390
              14.86383916               11.14807275               71.90155504                0.28637435                0.08467616                0.06425856               -0.26351594                0.00137680                0.19868092               -0.45162915
              15.86542504               10.68761416               71.44957548                0.00010000                0.18556350                0.17714335               -0.84301369               -1.16225153                7.68638292               -1.65342508
              16.86755043               10.20291124               71.14372619                0.00010000                0.35209800                0.26633844               -1.37236467               -2.58369024               15.15477533               -1.91086063
              17.87246700                9.69926078               70.84720475                0.00010000                0.68534529                0.30364592               -2.42213687               -3.87977830               15.96339388               -1.76404956
              18.88125734                9.17733310               70.56283457                0.00010000                1.00534049                0.66118949               -3.96381403               -5.19918346               16.99999611               -1.42932621
              19.89257381                8.64002528               70.29230243                0.00010000                1.23390430                1.57232501               -6.04186407               -6.23511542               18.23234628               -1.12429239
              20.90593542                8.09380882               70.03604528                0.00010000                1.87995909                2.97630889               -8.99346864               -6.49808951               19.37841213               -0.90123932
              21.93017299                7.54947183               69.78567343                0.00010000                3.68387190                4.43859594              -13.88599073               -5.53986236               18.66319394               -0.48080706
              22.97961286                7.02079508               69.50500390                0.00010000                6.06177934                5.29353876              -20.56532125               -3.22503385               12.07175653                0.29892233
              24.05140858                6.52066939               69.13942150                0.45312471                7.17957162                5.12285791              -23.86555260               -1.92584668                5.09271440                1.48543108
              14.32306246               12.60792923               72.22599622                0.95245149                0.05382780               -0.02839505                0.08517242               -0.03469445               -0.00215743                0.79816917
              15.32360073               12.14899855               71.76354016                0.30255844                0.13302701                0.12224040               -0.43012830                0.00257080                0.28885186               -0.50976137
              16.32572300               11.68994749               71.30700558                0.00010000                0.63764716                0.30297867               -1.15006619               -1.20592496                8.19359733               -1.38319251
              17.33635368               11.20606398               71.00312558                0.00010000                1.13297820                0.20806342               -1.38472558               -2.36241609               15.72413869               -1.85311469
              18.34838256               10.70299971               70.70793384                0.00010000                1.31193389                0.23403345               -2.28349671               -3.06538481               16.20581141               -1.88414910
              19.36259236               10.18514619               70.42382411                0.00010000                1.44885619                0.70897641               -3.73310714               -3.67980456               16.76475796               -1.73431391
              20.37735968                9.65649652               70.15105627                0.00010000                1.49517361                1.55733052               -5.67543220               -4.07466225               17.42830953               -1.54663221
              21.39249583                9.12230133               69.89024746                0.00010000                2.00832954                2.70037430               -8.33344974               -4.00400669               18.11702844               -1.28129622
              22.41752628                8.59054159               69.63560717                0.00010000                3.73557668                3.98161765              -13.06447946               -3.34624925               17.49631989               -0.49250734
              23.46720736                8.06935414               69.35409188                0.00010000                5.94728620                5.01625342              -20.10605316               -1.98775688               11.38706622                0.84738175
              24.53647200                7.56809069               68.99367916                0.45716415                6.92646381                5.23341072              -23.57589070               -1.30734959                4.44552668                2.42808960
              14.78089898               13.60782356               72.09411947                0.86332421                0.09733322                0.00782042               -0.04710010               -0.03103052                0.04692538                0.74504496
              15.78187231               13.15051755               71.62511487                0.23276474                0.16710676                0.17969678               -0.59862406                0.03551052                0.76632572               -0.54636595
              16.78424112               12.69367373               71.17073140                0.00010000                1.26887884                0.41625509               -1.41562158               -1.39346913                8.92895019               -1.04073547
              17.80724989               12.20707251               70.86423511                0.00010000                2.39179854               -0.40447602               -1.39484053               -1.74079767               16.01499963               -1.27527554
              18.83207709               11.70394145               70.56854164                0.00010000                2.34572741               -0.12915100               -2.09146978               -1.80227192               16.12856695               -1.24207188
              19.85416444               11.19151263               70.28251998                0.00010000                2.09241674                0.44230256               -3.37504468               -1.87738263               16.19101187               -1.23080132
              20.87392542               10.67117189               70.00552042                0.00010000                1.88228921                1.27466783               -5.11224080               -1.93928681               16.30093807               -1.17094066
              21.89181022               10.14781630               69.73815656                0.00010000                2.11348881                2.31648100               -7.48455201               -1.70865279               16.57992461               -0.99815346
              22.91619520                9.62910418               69.47760876                0.00010000                3.52491992                3.63382185              -11.87256271               -1.18880101               15.86076093               -0.45408461
              23.96230862                9.12112015               69.19412443                0.00010000                5.57966431                4.99812895              -19.38211097               -0.64009696               10.40287430                0.53373386
              25.02778848                8.62533760               68.84000523                0.46232441                6.54798637                5.88739659              -23.43819714               -0.85069650                4.33374788                2.10088908
              15.23705385               14.60808564               71.96092047                0.91669541                0.14069216                0.02620814               -0.17473780                0.06617185                0.33929490                0.70085934
              16.23846077               14.15259249               71.48713430                0.60429703                0.21224066                0.20749328               -0.75827150                0.16819365                1.52194976               -0.57945403
              17.24129866               13.69827260               71.03735974                0.37866966                2.64046186                0.45988644               -1.73700524               -2.02514699               10.11381978               -1.09161740
              18.29127001               13.19797446               70.73160664                0.36450472                4.32991710               -0.90980521               -1.26915351               -1.49078328               16.14614951               -0.41851631
              19.32789700               12.70041669               70.43483314                0.36096312                3.32721275               -0.35247547               -1.80902175               -0.61711889               15.82904728               -0.48641673
              20.35781426               12.19399224               70.14603798                0.36338626                2.71866347                0.24796166               -2.84718493               -0.55635827               15.39492076               -0.51536126
              21.38227027               11.68198988               69.86362414                0.37209436                2.12881092                1.08179892               -4.19204372               -0.43357926               14.90970575               -0.53422974
              22.40039048               11.16863095               69.58805165                0.38732478                1.90880693                2.08146522               -5.96967997               -0.08056671               14.59359010               -0.50414207
              23.42044641               10.66321803               69.31728695                0.40968879                2.88907599                3.41138455               -9.51609206                0.45940976               13.72727451               -0.17869199
              24.45817200               10.16931672               69.02622569                0.44061032                4.52883717                4.81965754              -15.87737630                0.71736795                8.53261661               -0.73995898
              25.51102316                9.68583863               68.67016417                0.73303316                5.28511547                6.05010217              -19.70104311               -0.02434250                2.97686139                0.95436456
              11.04172039                4.75943134               74.28904635                1.00000000               -0.23944865               -0.26843755                0.93730515               -0.06136806               -0.38835728                0.49914283
              12.03932590                4.28773176               73.86159619                1.00000000               -0.20001137               -0.17376967                0.63897565               -0.03939773               -0.46754915                0.05674181
              13.03772016                3.81566312               73.43193396                1.00000000               -0.11945847               -0.08104274                0.34193574               -0.03981132               -0.48261802               -0.06084499
              14.03693673                3.34295028               73.00406312                0.62771988               -0.06578624                0.01345167                0.04046167               -0.09442910               -0.44474837               -0.36517362
              15.03640444                2.86875094               72.57554484                0.46462896               -0.01394068                0.12263945               -0.26607256               -0.13295373               -0.39551234               -0.30234382
              16.03665792                2.39310765               72.14935064                0.17551399               -0.96784357                0.20107261               -0.60314998               -1.20725923                0.64398647               -0.55949797
              17.01704757                1.89550933               71.74272947                0.00010000               -6.91720557                1.47716934               -0.72421511              -12.51484477               12.16688639               -2.30583567
              17.89831381                1.15574727               71.55195623                0.00010000               -5.28557369                1.29229695               -2.29251088              -11.81467939               23.20277638                1.58244979
              18.91133609                0.42089853               71.31791844                0.00010000                6.33506543               -1.19601766               -2.69779362               -9.57435109               20.00925335                2.11273914
              20.02501512               -0.30101906               71.05464603                1.00000000                6.09450809                0.59675878               -2.56874876               -8.90373889                8.70522275               -0.05478901
              21.03322625               -0.84128770               70.61704488                1.00000000                0.82111364                0.64823607               -2.75157316               -0.21789168                0.00902931               -0.08576933
              11.51280629                5.75674696               74.15547433                1.00000000               -0.19902543               -0.25270699                0.82147036               -0.01320239                0.03138634                0.70389977
              12.51081603                5.28599406               73.72783070                1.00000000               -0.15467517               -0.15918440                0.52348213                0.00717910                0.10900042                0.08122781
              13.50971279                4.81485269               73.30119051                1.00000000               -0.06837517               -0.06599583                0.22696164                0.00463923                0.15372106               -0.25386500
              14.50944853                4.34308480               72.87441084                0.72065600                0.01417162                0.01811520               -0.06258656               -0.03187890                0.26401709               -0.33615635
              15.50999622                3.86997734               72.45047736                0.62180919                0.08788017                0.11752639               -0.38906843               -0.06233877                0.30085286               -0.25371146
              16.51120613                3.39511837               72.02544137                0.33499412                0.02915439                0.20719939               -0.72332997               -0.51541673                0.43545548               -0.44066497
              17.51057931                2.91028102               71.60571053                0.00010000                0.31331378                0.86260766               -1.12873542              -12.50028576               11.98483371               -1.16326229
              18.51747241                2.16867024               71.41364210                0.00010000                1.66982196               -0.84114689               -2.79465918              -17.66689617               20.50492296                3.89892709
              19.54397574                1.40893836               71.15320082                0.00010000                2.47992178               -0.08717349               -2.98432663              -14.38889710               14.94156853                3.71683488
              20.56707085                0.70494853               70.84217701                1.00000000                1.36701177                0.39557815               -1.43605572               -8.01860165                6.36598826               -0.07808253
              21.57131598                0.16519466               70.40437437                1.00000000                0.42451344                0.43922937               -1.57882589               -0.16434229               -0.01955993               -0.15077283
              11.98296214                6.75437720               74.02513620                1.00000000               -0.15983896               -0.21760959                0.70253718               -0.01743952                0.17260747                0.82888701
              12.98136376                6.28454807               73.59424390                1.00000000               -0.11199688               -0.12797185                0.40723099               -0.00120791                0.36809366               -0.00304619
              13.98072221                5.81434320               73.16680118                0.00010000               -0.00946217               -0.02974729                0.11128255               -0.02876691                0.87550422               -0.69089613
              14.98117451                5.34331259               72.74611097                0.00010000                0.12009408               -0.60140012               -0.15768992               -0.73501011                1.30270936                0.97121911
              15.98312409                4.87110147               72.32778664                0.00010000                0.24356946               -1.15151978               -0.50388827               -1.08531227                1.17407200                2.79808669
              16.98604590                4.39725163               71.90591420                0.00010000                0.51829470               -2.19274816               -0.84271890               -1.25926137                1.28805390                5.43582178
              17.99348998                3.91276148               71.49179867                0.00010000                3.01363230               -5.73937488               -1.28964209              -13.84701253               14.30937820               10.16978434
              19.04631855                3.13892433               71.33248427                0.00010000                4.68949384               -1.95073808               -4.76598602              -23.30687401               20.56196720                8.24037537
              20.08727986                2.41915506               71.02112850                0.00010000                3.10341177                1.45067229               -5.11831833              -18.39500520                9.23940515                8.07873727
              21.10838678                1.70689251               70.63113442                1.00000000                1.10836448                0.06853981               -0.25619599               -8.50189675                2.35650392               -0.01074138
              22.10944715                1.16749689               70.19286911                1.00000000                0.10603670                0.09509575               -0.31597218               -0.10843705                0.05767456               -0.09106614
              12.45211576                7.75239477               73.89329464                1.00000000               -0.12898841               -0.17555230                0.58523413               -0.02315057                0.28181529                0.70472787
              13.45082587                7.28343462               73.45856353                0.41685645               -0.08714133               -0.09486446                0.29243762               -0.00299454                0.49024867               -0.38591797
              14.45037293                6.81425775               73.02762694                0.00010000               -0.64179045                0.01111790                0.00092432               -0.69920358                3.01147407               -1.18631617
              15.43799006                6.33105680               72.64345602                0.00010000               -0.80110021               -0.87717404               -0.56108917               -2.06151392                5.81989555                1.66741920
              16.43435093                5.84694694               72.26510302                0.00010000                0.31854168               -2.07641599               -1.27681439               -2.87892158                7.10096659                4.86349590
              17.44436090                5.35126341               71.90147708                0.00010000                2.88077157               -4.33494802               -2.31536962               -5.79582999               10.53242282                9.20787515
              18.49196636                4.79549352               71.58391502                0.00010000                5.02902241               -8.29272305               -4.22711045              -13.01863359               14.44897607               14.67701991
              19.54494135                4.12965548               71.28764291                0.00010000                5.80705557               -0.45762278               -7.10819057              -20.27954984               14.73590484                9.44333807
              20.60810747                3.43795180               70.95535293                0.00010000                5.18748720                3.08264465              -11.61953414              -23.33724820                3.86139573               10.92420343
              21.64869109                2.70631933               70.42311817                0.00010000                1.99155049                6.09666192                0.28560900              -15.33443254               -4.64783228               16.74737504
              22.64793848                2.16709657               69.98452354                0.47816345               -0.07526111                6.89561126                0.26620379               -5.37942134               -0.01146190               17.57828190
              12.92041943                8.75086615               73.75979865                0.93606730               -0.09785385               -0.12870603                0.47596056               -0.01922468                0.01202219                0.62997029
              13.91944089                8.28265078               73.31716467                0.27461785               -0.06517329               -0.06909647                0.17386501                0.02082323                0.48754141               -0.57651302
              14.91911596                7.81456556               72.88374982                0.00010000               -0.60929247               -0.00922237               -0.13889236               -0.97168677                4.90702217               -1.76252826
              15.90725504                7.32576911               72.52927525                0.00010000               -0.68884582               -0.40939264               -0.90557655               -2.17949224                9.46375958                0.42587707
              16.90533905                6.82957315               72.18291672                0.00010000                0.71638398               -1.43017523               -1.91527226               -3.49346314               11.04615597                2.68726581
              17.92158272                6.31055267               71.85359502                0.00010000                2.46930984               -2.96422410               -3.38202583               -6.76970588               13.39506105                5.01497342
              18.95472524                5.74690702               71.54493632                0.00010000                3.83432748               -2.99364899               -5.59710706              -12.92357817               15.70142987                6.13608671
              19.99826927                5.12977188               71.24733682                0.00010000                4.45729028                1.02852726               -9.17504539              -18.38314379               16.13220308                7.03207299
              21.04387105                4.48080796               70.92325672                0.00010000                3.71420458                5.72899487              -13.59027075              -21.67620868               12.95988519                9.63443555
              22.07255336                3.82882574               70.54918599                0.00010000                1.82165893               13.70053436              -20.11137296              -15.83044378                7.25279813               20.02557772
              23.08030423                3.30540911               70.12803872                0.44490871                0.77508659               15.32480106              -22.02654141               -7.54918937                1.56537584               21.95894201
              13.38816201                9.74982065               73.62586886                0.93720397               -0.06190783               -0.08924947                0.36450258               -0.02517263               -0.00322441                0.66178792
              14.38754293                9.28205270               73.17762561                0.26190336               -0.01705692               -0.04179042                0.05618477                0.00024112                0.24960896               -0.46733609
              15.38782087                8.81407330               72.73423769                0.00010000               -0.40751491               -0.04137457               -0.31578206               -1.11574509                6.13566668               -1.99560595
              16.37939263                8.32286895               72.40375893                0.00010000               -0.40613865               -0.17910072               -1.15750580               -2.58085086               12.15793988               -0.68941307
              17.37969810                7.81834344               72.07817949                0.00010000                0.61201399               -0.71577930               -2.32150435               -4.17826159               13.26165884                0.59603395
              18.39163291                7.29197893               71.76467649                0.00010000                1.72887474               -1.04978038               -3.94832933               -7.14104661               14.95626002                1.71208833
              19.41427559                6.73562054               71.46502816                0.00010000                2.58723101               -0.14960083               -6.30458688              -10.97990386               16.66573148                2.54212392
              20.44337753                6.15022602               71.17292698                0.00010000                3.06269189                2.68125198               -9.83094285              -14.18602276               17.53586799                3.31169960
              21.47552943                5.55253170               70.87305433                0.00010000                3.20517646                7.09752972              -15.00555191              -14.44598199               16.10378762                4.80557821
              22.50748106                4.98033001               70.54219178                0.00010000                3.41292638               12.72398719              -20.27465584               -9.46791334               10.02940398                6.66366032
              23.54378796                4.47359260               70.14411805                0.44362906                3.63068961               14.05891797              -23.03936980               -4.18397850                4.36331542                7.61893726
              13.85545189               10.74908116               73.49249393                0.95501996               -0.02588239               -0.06078375                0.25305625               -0.02724843               -0.01228012                0.72915225
              14.85519306               10.28181497               73.03841264                0.27770945                0.02664613               -0.00152777               -0.06955925               -0.03139765                0.13902104               -0.45532968
              15.85598481                9.81373807               72.58725259                0.00010000               -0.19125886                0.00787252               -0.48672786               -1.19577249                6.92276712               -1.84229067
              16.85136789                9.32218709               72.26936145                0.00010000               -0.16604892                0.05980662               -1.31073678               -2.73399340               13.79591572               -1.47342548
              17.85266383                8.81525756               71.95579322                0.00010000                0.50583973               -0.02020548               -2.50340106               -4.28446273               14.58666587               -0.88083318
              18.86148468                8.28955707               71.65131307                0.00010000                1.21081189                0.20988408               -4.15471726               -6.40676944               15.79209526               -0.29533317
              19.87688007                7.74391500               71.35698780                0.00010000                1.80764874                1.27427907               -6.46614672               -8.65474252               17.03015431                0.18370059
              20.89763766                7.18339692               71.06880929                0.00010000                2.39836747                3.42685653               -9.79998857               -9.98737614               17.57596847                0.58013146
              21.92484742                6.62275855               70.77388343                0.00010000                3.22482718                6.35229383              -14.26582870               -9.22981658               15.76084198                0.84998563
              22.96213420                6.08330549               70.44532867                0.00010000                4.26260370                8.80932561              -18.81782620               -5.66956504                9.77372089                0.88040936
              24.01009949                5.58658747               70.04904948                0.44376011                4.79652934                9.40148470              -21.20977003               -2.70086993                4.38262404                1.03863519
              14.32214942               11.74860498               73.35937808                0.96336968                0.01086493               -0.03315388                0.13751151               -0.02677924               -0.00491034                0.78083868
              15.32225807               11.28202214               72.89923104                0.29381381                0.06919394                0.04367072               -0.19790609               -0.05036840                0.12769547               -0.48381959
              16.32353330               10.81423075               72.44174101                0.00010000                0.04675997                0.09544038               -0.66423289               -1.18204380                7.50056849               -1.80484927
              17.32319327               10.32406508               72.12984726                0.00010000                0.15527840                0.26239901               -1.38601833               -2.57784920               14.81874368               -1.84181112
              18.32663887                9.81793933               71.82257077                0.00010000                0.58234071                0.38985798               -2.51439864               -3.82190438               15.34844720               -1.66637815
              19.33484008                9.29617661               71.52258999                0.00010000                1.03510114                0.82786455               -4.10106817               -5.16937413               16.13809080               -1.40399147
              20.34734089                8.76110612               71.23039927                0.00010000                1.49731875                1.82597118               -6.28073656               -6.32120861               16.91841309               -1.16881171
              21.36478646                8.21876315               70.94225666                0.00010000                2.18418181                3.40502086               -9.34391311               -6.71560459               17.03915385               -0.98832665
              22.39102453                7.67957758               70.64563515                0.00010000                3.27371910                5.20492287              -13.42423637               -5.81807319               15.03019432               -0.85079098
              23.43026084                7.15651653               70.31589886                0.00010000                4.60910327                6.56384112              -17.57951158               -3.50292768                9.20100433               -0.63183315
              24.48320659                6.66162229               69.92003967                0.44470113                5.29457512                6.68883590              -20.08812185               -1.79617203                4.24560647               -0.24378805
              14.78808198               12.74841809               73.22649043                0.96763475                0.04779463               -0.00307114                0.01729998               -0.02507492               -0.00190968                0.80272574
              15.78855992               12.28268839               72.75974541                0.31418324                0.11095101                0.08983479               -0.32756372               -0.05368653                0.16568194               -0.54272759
              16.79030100               11.81564688               72.29647863                0.00010000                0.37712020                0.18653122               -0.86333483               -1.11139119                8.07564838               -1.53690380
              17.79610233               11.32743507               71.98896726                0.00010000                0.69066083                0.28474141               -1.41081219               -2.20974531               15.59805021               -1.80774601
              18.80411421               10.82305472               71.68441443                0.00010000                0.94140374                0.44466146               -2.41255666               -2.96961348               15.75266563               -1.78605028
              19.81493040               10.30611436               71.38597800                0.00010000                1.18775699                0.96382958               -3.87212186               -3.65438394               16.14422531               -1.70774248
              20.82786935                9.78043443               71.09345693                0.00010000                1.49618547                1.84978617               -5.87200333               -4.11778885               16.51179761               -1.64593395
              21.84485411                9.25149733               70.80334127                0.00010000                2.14316158                3.06305883               -8.69878297               -4.07783285               16.34269132               -1.57207098
              22.87073258                8.72685701               70.50406569                0.00010000                3.25884118                4.39287146              -12.59430599               -3.32250461               14.28005075               -1.42423440
              23.91003093                8.21458231               70.17269925                0.00010000                4.66159704                5.42846138              -16.74975600               -1.91828230                8.69030465               -1.08341903
              24.96396452                7.72036419               69.77800959                0.44639989                5.39335908                5.65856821              -19.58071753               -1.13243104                4.12932664               -0.61824063
              15.25310732               13.74854355               73.09331068                0.87292774                0.08482279                0.02920277               -0.10768887               -0.02188169                0.04819592                0.74556011
              16.25395555               13.28381884               72.61989383                0.24231358                0.17257349                0.13389215               -0.45200191               -0.04158062                0.60245445               -0.57307785
              17.25655879               12.81796137               72.15781280                0.00010000                0.88174847                0.23447699               -1.06129639               -1.08618209                8.86543284               -1.22536900
              18.27159052               12.32975991               71.85006013                0.00010000                1.60042613               -0.11225409               -1.40579006               -1.48587972               16.11899064               -1.23245660
              19.28856731               11.82683256               71.54696558                0.00010000                1.63910923                0.21438020               -2.23215330               -1.71690377               15.94674077               -1.19678170
              20.30437270               11.31545320               71.24843049                0.00010000                1.55174120                0.78990301               -3.51959358               -1.90081749               15.92775402               -1.21582632
              21.31960214               10.79810185               70.95408285                0.00010000                1.62172579                1.60100520               -5.28931851               -2.00650429               15.92810206               -1.24792960
              22.33680722               10.28002433               70.66085906                0.00010000                2.09436608                2.61776154               -7.81295168               -1.83315242               15.51419701               -1.26180520
              23.36148946                9.76743501               70.35830573                0.00010000                3.07903984                3.74722618              -11.45268776               -1.35470451               13.48690258               -1.23893475
              24.39838801                9.26508575               70.02500437                0.00010000                4.37523777                4.74816217              -15.55110453               -0.70560318                8.21397757               -1.10010511
              25.44899421                8.77479365               69.63066779                0.44889856                5.06061988                5.32924813              -18.80062503               -0.65385763                3.92406106               -0.89671487
              15.71709378               14.74900214               72.95886692                0.92052280                0.12167115                0.04585884               -0.22650346                0.03505456                0.33509746                0.69929287
              16.71831049               14.28536623               72.48054859                0.60406845                0.27712531                0.15473947               -0.57360328                0.00220786                1.26696187               -0.59681446
              17.72263628               13.82033642               72.02123740                0.37396106                1.96015307                0.23750433               -1.33276521               -1.40106261               10.08323048               -1.29323027
              18.75751355               13.32518999               71.71864000                0.36427680                3.07232793               -0.45699152               -1.32255241               -1.05740124               16.64127387               -0.48147979
              19.78408284               12.82734233               71.41610550                0.36096008                2.40656045                0.05097718               -1.99429157               -0.61232570               16.00544489               -0.52737234
              20.80564476               12.32191242               71.11720345                0.36321871                1.95426472                0.64592168               -3.07075248               -0.61718419               15.70668638               -0.57356272
              21.82316814               11.81245453               70.82112921                0.37134454                1.66065716                1.43526824               -4.53192172               -0.54639265               15.41747949               -0.65140521
              22.83885790               11.30385257               70.52509898                0.38545984                1.77044674                2.38282339               -6.61795027               -0.32758143               14.86016073               -0.73068851
              23.85857707               10.80180153               70.22001894                0.40623885                2.48511605                3.43665258               -9.69753328               -0.00658925               12.94672465               -0.91054933
              24.88856022               10.30954555               69.88605575                0.43139089                3.64472498                4.44598003              -13.31698471                0.27460178                7.97395613               -1.06399983
              25.93147157                9.82694915               69.49165195                0.72518649                4.29113477                5.21554976              -16.46668035               -0.01190449                4.15246134               -1.30665617
              11.46677986                4.89855241               75.29767802                1.00000000               -0.20842661               -0.22582442                0.79157288               -0.04583790               -0.38771745                0.49543844
              12.46469560                4.42263537               74.86768598                1.00000000               -0.18137281               -0.15824579                0.57928475               -0.02627156               -0.46740309                0.05569386
              13.46315241                3.94638148               74.43548888                1.00000000               -0.12558730               -0.09136167                0.36738153               -0.02627011               -0.48350823               -0.05874463
              14.46218385                3.46954753               74.00504447                0.63531307               -0.09184717               -0.02395104                0.15186531               -0.07439131               -0.44732105               -0.34831146
              15.46131546                2.99140227               73.57392376                0.46510200               -0.05782288                0.05480983               -0.06494887               -0.10830700               -0.41227139               -0.30296201
              16.46102739                2.51203098               73.14483390                0.16229544               -1.10350851                0.10505963               -0.31000006               -1.20285061                0.72754259               -0.55804019
              17.43924529                2.01044860               72.73757321                0.00010000               -5.88889771                1.45102183               -0.32811655              -10.26779528               11.61321022               -2.52912682
              18.34324944                1.30924035               72.52981789                0.00010000               -3.97414284                0.77589517               -2.06820102               -9.70272025               22.16125181                1.06103742
              19.35976244                0.60418162               72.29098541                0.00010000                6.02255215               -1.25686699               -2.60500445               -8.25054690               19.78556007                1.49320267
              20.46370048               -0.09570999               72.02918250                1.00000000                5.58758735                0.55693026               -2.49985340               -7.82918681                8.87885071               -0.07113272
              21.47151418               -0.63593448               71.59029673                1.00000000                0.78137012                0.58575603               -2.59547816               -0.18010951               -0.00797726               -0.05756659
              11.94223853                5.89629417               75.16301438                1.00000000               -0.17201789               -0.21197824                0.68881174               -0.01142827                0.02922406                0.69777223
              12.94051835                5.42105291               74.73283315                1.00000000               -0.14024498               -0.14563782                0.47705098                0.00696933                0.10656664                0.07980389
              13.93943363                4.94546786               74.30366809                1.00000000               -0.07944037               -0.07872658                0.26632332                0.00491101                0.15638324               -0.25121281
              14.93892954                4.46930802               73.87444083                0.74933181               -0.02214802               -0.02089644                0.06377141               -0.02684145                0.25556384               -0.31283746
              15.93899067                3.99195037               73.44771714                0.63943296                0.02730914                0.05123720               -0.17119822               -0.05516633                0.27486616               -0.24625395
              16.93947572                3.51308157               73.01981381                0.33497226               -0.05140055                0.11253732               -0.41337323               -0.47976896                0.37565856               -0.43074677
              17.93796266                3.02495882               72.59649964                0.00010000                0.49400008                0.78952963               -0.72585983              -10.53010930               11.31743195               -1.29023645
              18.94935572                2.31699930               72.38901138                0.00010000                2.08847403               -1.23020508               -2.18157456              -14.61826473               19.74716957                2.68459136
              19.97973214                1.59161295               72.12662521                0.00010000                2.80554686               -0.37863740               -2.41715754              -12.08810692               15.56961909                2.45739874
              21.00546666                0.90985931               71.82837371                1.00000000                1.51027164                0.39540832               -1.40278342               -6.92936282                7.02963166               -0.08498243
              22.00993757                0.36992309               71.38949048                1.00000000                0.44709071                0.42183806               -1.48551852               -0.15443406                0.00608642               -0.09352531
              12.41703381                6.89431285               75.03155832                1.00000000               -0.13725214               -0.18053772                0.58356351               -0.01549840                0.16872757                0.82231649
              13.41566129                6.41972261               74.59815254                1.00000000               -0.10191440               -0.11842774                0.37423827               -0.00116797                0.36317915               -0.00365922
              14.41499552                5.94480695               74.16819264                0.00010000               -0.02483885               -0.04773036                0.16457512               -0.02716227                0.88489763               -0.68610667
              15.41516451                5.46912960               73.74526549                0.00010000                0.07215271               -0.62059082               -0.01732423               -0.61074631                1.28910566                0.82396904
              16.41643858                4.99242702               73.32394580                0.00010000                0.16295269               -1.15487112               -0.27340512               -0.78895898                1.13178654                2.44311544
              17.41842357                4.51428172               72.89917490                0.00010000                0.41434029               -2.13152205               -0.51736321               -0.70032514                1.20174523                4.70941735
              18.42472538                4.02623919               72.48105974                0.00010000                3.29032215               -5.38290999               -0.86765623              -11.23544386               12.78651557                8.75131323
              19.48423001                3.28463624               72.29037456                0.00010000                5.02074513               -2.41917223               -3.63079961              -18.94381233               18.73812794                6.02856408
              20.52514029                2.59660887               71.98306003                0.00010000                3.12865413                0.58848163               -3.19854322              -15.17850301               10.55841965                5.06504388
              21.54680309                1.91219817               71.62760293                1.00000000                1.15788318                0.10240066               -0.40079534               -7.08484538                4.16206225               -0.02078090
              22.54829795                1.37250229               71.18866267                1.00000000                0.14948571                0.12349753               -0.45766796               -0.14490031                0.01267961               -0.04420328
              12.89110903                7.89268341               74.89861323                1.00000000               -0.11081392               -0.14195941                0.47965396               -0.01931849                0.27811040                0.70425384
              13.89000089                7.41868436               74.46139788                0.41597514               -0.08128150               -0.09064309                0.27392979               -0.00101890                0.48495592               -0.38675006
              14.88948340                6.94451326               74.02796385                0.00010000               -0.54531722               -0.03553808                0.06395654               -0.65505232                2.84996969               -1.19338480
              15.87909454                6.45689620               73.63816990                0.00010000               -0.57120194               -0.92278400               -0.49126882               -1.83591724                5.44454864                1.40427551
              16.87805936                5.96885295               73.25276994                0.00010000                0.62812502               -2.08059867               -1.17218798               -2.36354609                6.46219245                4.25275656
              17.89165705                5.47045113               72.87875615                0.00010000                3.24199495               -4.20190191               -2.14760483               -4.68601003                9.22086335                8.02814521
              18.94289926                4.91730062               72.54314649                0.00010000                5.42263756               -7.84330886               -3.80777048              -10.57035950               11.88986454               12.69617149
              20.00010980                4.26861585               72.21962095                0.00010000                5.28504443               -1.13927627               -5.81586297              -16.72231446               11.71419859                7.54891248
              21.04860015                3.60338258               71.88030043                0.00010000                4.38832730                1.49891790               -6.14335110              -18.59915840                4.39155878                7.71728947
              22.08787634                2.91190732               71.42741607                0.00010000                1.89155946                4.62874876                0.46100203              -12.43564551               -0.66916780                9.41689461
              23.08643134                2.37239304               70.98840580                0.44397326               -0.14450058                5.71433210                0.42010561               -5.32560690               -0.01061423                9.97257520
              13.36464556                8.89147366               74.76408263                0.94922129               -0.08344848               -0.09903066                0.38161928               -0.01628829                0.00502473                0.63341601
              14.36381107                8.41790975               74.31890794                0.28213139               -0.04814607               -0.06925015                0.17452396                0.00056605                0.46997750               -0.58022746
              15.36368263                7.94409619               73.88274674                0.00010000               -0.48522985               -0.08992875               -0.05917413               -0.95128385                4.62612167               -1.81042669
              16.35410647                7.45067392               73.52034678                0.00010000               -0.40349566               -0.50702602               -0.87034579               -2.07382725                8.82267305                0.27271635
              17.35561272                6.95081504               73.16374317                0.00010000                1.10746108               -1.50614213               -1.88308446               -3.21717116               10.04861769                2.31267078
              18.37625570                6.43024369               72.81976654                0.00010000                2.97703759               -2.96573686               -3.29280821               -6.14400552               11.68330237                4.38462627
              19.41515347                5.86937302               72.48914578                0.00010000                4.37230288               -3.04059573               -5.27380027              -11.64588965               12.83757970                5.35403508
              20.46370175                5.26185072               72.16158524                0.00010000                4.73560876                0.33102776               -7.73805408              -16.49137952               11.87897594                6.33557628
              21.50986565                4.62658723               71.80794498                0.00010000                3.26889886                3.99441351               -9.74389790              -18.00832043                8.41340553                7.91512549
              22.52907973                4.00477315               71.41493354                0.00010000                0.54743677               10.05984308              -10.82647748              -12.91074592                4.08036685               14.41526119
              23.52081438                3.48678893               70.98750757                0.44095944               -0.82653472               11.73003449              -11.03768582               -6.68866332                1.41838913               16.02938207
              13.83791108                9.89070280               74.62907019                0.95243255               -0.05213950               -0.06215756                0.27710939               -0.02125268               -0.00341938                0.66446434
              14.83738968                9.41729935               74.17827942                0.27574682               -0.01087616               -0.04541960                0.07456852               -0.04907669                0.20859667               -0.47537188
              15.83769356                8.94271468               73.73153708                0.00010000               -0.32452711               -0.10203455               -0.20497566               -1.14566277                5.77617917               -2.03000541
              16.83089914                8.44675568               73.39223455                0.00010000               -0.17736944               -0.27467744               -1.13767447               -2.55196312               11.40383477               -0.73206468
              17.83414617                7.93873011               73.05473296                0.00010000                0.96599104               -0.79481004               -2.33169669               -4.05251616               12.14364495                0.46928564
              18.85021896                7.41113640               72.72480008                0.00010000                2.21141327               -1.10707198               -3.92445513               -6.82546209               13.20918086                1.50771994
              19.87837443                6.85648870               72.40190743                0.00010000                3.14245129               -0.30100479               -6.07509998              -10.47044410               13.87279020                2.38629717
              20.91306799                6.27523641               72.07769726                0.00010000                3.35684382                2.15986951               -8.83380427              -13.51958489               13.33748467                3.32950531
              21.94551131                5.68327086               71.73811099                0.00010000                2.81958696                5.98006692              -12.01633997              -13.89953156               10.83316756                5.11436485
              22.96945973                5.11310418               71.36561336                0.00010000                2.15576005               10.13056659              -15.00732884               -9.10714498                6.25311665                7.16523065
              23.98862651                4.60699373               70.94812972                0.44148893                1.91667823               11.18478424              -16.34021961               -3.90434450                2.68390502                7.93232734
              14.31102740               10.89023051               74.49461319                0.97158326               -0.02097379               -0.03455377                0.17316173               -0.02209901               -0.01085845                0.72924527
              15.31081766               10.41700136               74.03792031                0.29513283                0.01428291               -0.01178845               -0.02922203               -0.07672797                0.08768179               -0.46623766
              16.31131306                9.94205550               73.58310090                0.00010000               -0.18829363               -0.02117750               -0.31697100               -1.23471832                6.54980076               -1.83620634
              17.30705179                9.44518037               73.25626427                0.00010000               -0.05656870               -0.01432387               -1.29689404               -2.74701267               13.04503592               -1.42772835
              18.31018168                8.93491884               72.93037940                0.00010000                0.74680351               -0.07090469               -2.54625818               -4.22655348               13.50517243               -0.83233168
              19.32198786                8.40810225               72.60915372                0.00010000                1.57314490                0.17259709               -4.18843625               -6.27971152               14.18996041               -0.24547100
              20.34164458                7.86335292               72.29175358                0.00010000                2.22700240                1.18456038               -6.36180166               -8.50765869               14.59760007                0.30553331
              21.36652790                7.30504811               71.97225857                0.00010000                2.61813312                3.21369483               -9.16207709               -9.93748561               14.05237099                0.92113165
              22.39400724                6.74618857               71.63877307                0.00010000                2.83430281                5.95014476              -12.41989079               -9.30201301               11.73264201                1.61191751
              23.42321396                6.20738448               71.27443719                0.00010000                3.04705843                8.38418245              -15.36513447               -5.79676336                6.93940940                2.24103803
              24.45494841                5.71048461               70.85916418                0.44248610                3.17344492                8.99198972              -16.81810002               -2.71935863                3.09614526                2.30112183
              14.78392740               11.89001173               74.36038355                0.98038779                0.01027412               -0.00896833                0.06769575               -0.02046860               -0.00261717                0.77388712
              15.78403014               11.41706359               73.89759692                0.31398180                0.04463917                0.02399205               -0.13067383               -0.08060401                0.07078282               -0.49277811
              16.78482018               10.94229113               73.43629083                0.00010000               -0.04672989                0.05410681               -0.41783213               -1.19466640                7.15054033               -1.77530255
              17.78309554               10.44646920               73.11600582                0.00010000                0.09365192                0.22579107               -1.36734239               -2.58260086               14.15605851               -1.74661989
              18.78669322                9.93731201               72.79691678                0.00010000                0.65475574                0.39825320               -2.58743592               -3.78187045               14.40040460               -1.52519972
              19.79619066                9.41458834               72.48081320                0.00010000                1.22910884                0.85242977               -4.18678074               -5.13427992               14.78067055               -1.24099513
              20.81127540                8.88017991               72.16668770                0.00010000                1.76459846                1.82706740               -6.28363626               -6.32451202               14.92287121               -0.96172427
              21.83148263                8.33951030               71.84916702                0.00010000                2.29296407                3.36047041               -8.95865193               -6.78465841               14.21551967               -0.70159747
              22.85713468                7.80227375               71.51718871                0.00010000                2.88728965                5.15988711              -12.03416051               -5.94802043               11.79832801               -0.47810451
              23.88922842                7.28078783               71.15341366                0.00010000                3.54521969                6.55978851              -14.86613906               -3.57923211                6.97337287               -0.37722435
              24.92803907                6.78683352               70.73765907                0.44296476                3.88106534                6.73065747              -16.43219061               -1.72095907                3.19018047               -0.48522381
              15.25651431               12.89005114               74.22634222                0.98422123                0.04118684                0.01732725               -0.04055367               -0.01853452               -0.00034087                0.78658460
              16.25692617               12.41748120               73.75698889                0.33675971                0.07499026                0.05946160               -0.22881313               -0.07621828                0.09821246               -0.54607124
              17.25801411               11.94313763               73.28973889                0.00010000                0.17263562                0.10582282               -0.51521165               -1.06108570                7.76623170               -1.50492429
              18.26037889               11.44969619               72.97490933                0.00010000                0.42055120                0.31407196               -1.38478817               -2.14361714               15.07869097               -1.69680802
              19.26642514               10.94288391               72.65968271                0.00010000                0.80277360                0.55013625               -2.51407627               -2.92985117               15.00569632               -1.62540855
              20.27643436               10.42515084               72.34638168                0.00010000                1.19036183                1.06911578               -4.00884085               -3.67890245               15.09202169               -1.52691942
              21.29023237                9.89989427               72.03361620                0.00010000                1.61532691                1.91805544               -5.96628344               -4.20549150               14.97652321               -1.45046398
              22.30874090                9.37225752               71.71627180                0.00010000                2.17684664                3.06560886               -8.46682314               -4.20596531               14.09632040               -1.40586845
              23.33376931                8.84938631               71.38372105                0.00010000                2.91643258                4.30492422              -11.37268762               -3.45120043               11.62875755               -1.39403286
              24.36706955                8.33858025               71.01909676                0.00010000                3.73342745                5.24868588              -14.14647299               -1.96454280                6.86484871               -1.44739262
              25.40843785                7.84509776               70.60206481                0.44392738                4.13683049                5.34637143              -15.89630476               -1.00305956                3.19582301               -1.69196235
              15.72869659               13.89035827               74.09196569                0.88440545                0.07226938                0.04539368               -0.15255006               -0.01663800                0.05118946                0.72526255
              16.72941929               13.41825282               73.61607484                0.26181564                0.13434436                0.09327414               -0.32260538               -0.07236641                0.50508519               -0.56975063
              17.73138348               12.94440759               73.14950547                0.00010000                0.55288191                0.12105805               -0.65077760               -0.93222126                8.56642887               -1.20778797
              18.74047692               12.45275064               72.83611931                0.00010000                1.06290329                0.07444636               -1.37680159               -1.36221801               15.77255818               -1.13401563
              19.75264154               11.94831474               72.52389858                0.00010000                1.25626617                0.43527422               -2.37891676               -1.68813354               15.46023873               -1.08742897
              20.76560225               11.43597065               72.21212811                0.00010000                1.37086736                0.99121099               -3.73521937               -1.96418948               15.24868959               -1.08611815
              21.78005889               10.91854102               71.89973405                0.00010000                1.61345136                1.74873935               -5.51058563               -2.13281074               14.91216003               -1.10836674
              22.79787127               10.40082248               71.58189753                0.00010000                2.08645224                2.66399066               -7.79588736               -2.01028592               13.91723618               -1.16052049
              23.82178794                9.88837223               71.24855500                0.00010000                2.81774196                3.60971607              -10.49978898               -1.52030475               11.46351058               -1.23714968
              24.85422611                9.38576155               70.88310234                0.00010000                3.65774601                4.36768601              -13.18401328               -0.78313617                6.77851845               -1.32815146
              25.89494286                8.89376095               70.46399273                0.44542723                4.07167435                4.63197137              -15.09660981               -0.47795405                3.26219267               -1.71889272
              16.20039245               14.89095902               73.95639040                0.92474481                0.10370772                0.06007450               -0.26005144                0.00835302                0.32365953                0.67711832
              17.20142953               14.41934668               73.47566224                0.60921888                0.22397047                0.10938663               -0.41893407               -0.06898659                1.09531379               -0.58610487
              18.20487186               13.94555879               73.01070443                0.37304005                1.38989228                0.11512056               -0.83517635               -1.05923985                9.76054235               -1.23518249
              19.22922738               13.45118512               72.70515559                0.36398672                2.22852942               -0.15655235               -1.36510425               -0.82342472               16.58814735               -0.48922864
              20.24944245               12.95158939               72.39494731                0.36085617                1.88484550                0.32746538               -2.24790819               -0.63041202               15.81904753               -0.51838104
              21.26692429               12.44497506               72.08462293                0.36310705                1.66409385                0.90044083               -3.46191728               -0.70381283               15.44712153               -0.55080805
              22.28272433               11.93486905               71.77298571                0.37064287                1.58898389                1.63280341               -5.04845099               -0.70534286               15.00190521               -0.61998354
              23.29870396               11.42553733               71.45569265                0.38360367                1.78499064                2.47148483               -7.09255586               -0.58115196               14.01475825               -0.73411303
              24.31842414               10.92158063               71.12333629                0.40288414                2.36570736                3.32083993               -9.55377945               -0.31654747               11.71598324               -0.90779441
              25.34601811               10.42593397               70.75988599                0.42733428                3.22279171                4.01724200              -12.06615403               -0.01297235                7.17033044               -1.11504011
              26.38287998                9.93773719               70.34083057                0.72315003                3.68618642                4.39762409              -13.97571285               -0.02596612                3.86616314               -1.72165807
              11.89395013                5.03866740               76.30487781                1.00000000               -0.17831524               -0.18452877                0.65117899               -0.03130137               -0.38797252                0.49227629
              12.89216698                4.55855129               75.87318188                1.00000000               -0.16293146               -0.14277123                0.52021556               -0.01421110               -0.46858428                0.05494100
              13.89069151                4.07812982               75.43928159                1.00000000               -0.13057751               -0.10051468                0.38915665               -0.01387144               -0.48584290               -0.05644460
              14.88955543                3.59719133               75.00710043                0.64383530               -0.11609642               -0.05843011                0.25479491               -0.05571252               -0.44932918               -0.33112025
              15.88836958                3.11510494               74.57424586                0.46668097               -0.09980553               -0.00747206                0.12173467               -0.08511804               -0.42563905               -0.30290723
              16.88755932                2.63198702               74.14315064                0.15051941               -1.20209000                0.01754175               -0.03598342               -1.16380071                0.81663804               -0.55756794
              17.86432778                2.12707394               73.73616714                0.00010000               -4.97163386                1.39158268                0.00535057               -8.33003860               11.01220880               -2.75390663
              18.78812664                1.45858104               73.51059221                0.00010000               -2.83225461                0.32243615               -1.75578239               -7.96318850               20.94625406                0.65384337
              19.80768268                0.77948300               73.26581835                0.00010000                5.75770849               -1.34712836               -2.40070832               -7.13794769               19.45298624                1.03769689
              20.90328081                0.09917587               73.00464897                1.00000000                5.15777834                0.56525884               -2.45296253               -6.86373802                8.93871419               -0.04705808
              21.91083825               -0.44082654               72.56513532                1.00000000                0.75574376                0.57847528               -2.48758966               -0.16364946                0.00266024               -0.01827472
              12.37375323                6.03682211               76.16925056                1.00000000               -0.14595689               -0.17213603                0.56103101               -0.00994689                0.02686211                0.69195451
              13.37229366                5.55712358               75.73737172                1.00000000               -0.12602295               -0.13205687                0.43077248                0.00642976                0.10364755                0.07874145
              14.37123277                5.07712468               75.30651698                1.00000000               -0.08914555               -0.09022575                0.30105053                0.00495785                0.15866562               -0.24786151
              15.37051075                4.59660703               74.87568627                0.77664143               -0.05561072               -0.05642191                0.17996304               -0.02232122                0.24906253               -0.28940247
              16.37012056                4.11503022               74.44705339                0.65641073               -0.02869682               -0.00969791                0.03000366               -0.04818874                0.25338840               -0.23967342
              17.36993681                3.63216243               74.01717390                0.33640997               -0.11950891                0.02553147               -0.12528485               -0.43164494                0.32186593               -0.42285818
              18.36773038                3.14098977               73.59119333                0.00010000                0.61767091                0.70334762               -0.34426674               -8.83320815               10.69587512               -1.42733618
              19.38229023                2.46180540               73.37001061                0.00010000                2.41377093               -1.48474970               -1.67812135              -12.20119442               19.02297562                1.75531802
              20.41600580                1.76601171               73.10485767                0.00010000                3.12539861               -0.63511404               -2.01432731              -10.17198767               15.85465141                1.61548661
              21.44479820                1.10482845               72.81412134                1.00000000                1.65991846                0.41293297               -1.43393084               -5.91544644                7.43985779               -0.05469015
              22.44920417                0.56495821               72.37466400                1.00000000                0.44059620                0.42620204               -1.46786166               -0.14987423                0.00032431               -0.04178409
              12.85314826                7.03522468               76.03680747                1.00000000               -0.11552481               -0.14332852                0.46856116               -0.01368096                0.16478211                0.81495590
              13.85199301                6.55591015               75.60172866                1.00000000               -0.09205265               -0.10896811                0.34091266               -0.00093311                0.35825822               -0.00335467
              14.85130721                6.07632531               75.17009268                0.00010000               -0.03947741               -0.06443588                0.21279097               -0.02398637                0.89398646               -0.68188377
              15.85120347                5.59606290               74.74576448                0.00010000                0.02715962               -0.62730101                0.11081825               -0.49250678                1.27704137                0.63993923
              16.85185040                5.11491098               74.32231854                0.00010000                0.08817030               -1.14127540               -0.06086046               -0.53386404                1.09626986                2.02960868
              17.85296687                4.63249764               73.89556694                0.00010000                0.30851205               -2.04638758               -0.21585181               -0.26526405                1.12960579                3.94024594
              18.85802064                4.14114089               73.47444555                0.00010000                3.30569688               -4.98294313               -0.46488433               -9.12215613               11.61019281                7.37699944
              19.91908081                3.42888605               73.25986828                0.00010000                5.15996190               -2.61911807               -2.66714040              -15.72895179               17.56962376                4.34435202
              20.96121988                2.76678072               72.95715764                0.00010000                3.34722889                0.07004680               -2.30896352              -12.46569006               11.76269991                3.05723114
              21.98602539                2.10743453               72.62311851                1.00000000                1.31806869                0.12490740               -0.45072402               -5.83395292                5.27433190               -0.05669624
              22.98758125                1.56769750               72.18371575                1.00000000                0.15558671                0.13724839               -0.48188177               -0.14657438               -0.00277283               -0.05656980
              13.33210866                8.03395554               75.90288772                1.00000000               -0.09342895               -0.10735836                0.37726277               -0.01508109                0.27379852                0.69952734
              14.33117437                7.55494422               75.46404213                0.42793125               -0.07541790               -0.08727316                0.25452994                0.00318651                0.47634583               -0.38334559
              15.33060030                7.07583596               75.02890607                0.00010000               -0.45497145               -0.07707546                0.12226088               -0.59954298                2.64940122               -1.19598715
              16.32207494                6.58406101               74.63363065                0.00010000               -0.37958882               -0.94520565               -0.40647392               -1.60613215                4.97108619                1.07793412
              17.32300853                6.09220471               74.24165926                0.00010000                0.81633385               -2.05237149               -1.01993266               -1.88925441                5.73105039                3.54056996
              18.33840162                5.59123468               73.85852498                0.00010000                3.29451629               -4.01481874               -1.85313788               -3.69972637                7.88539587                6.74906902
              19.38889885                5.04133090               73.50775961                0.00010000                5.18348767               -7.29570565               -3.15432350               -8.50870747               10.00397248               10.71119364
              20.44207137                4.40942304               73.17132566                0.00010000                4.96223332               -1.52394811               -4.29008554              -13.79747347               10.16375366                5.68689972
              21.48814352                3.76741265               72.83248591                0.00010000                4.25654951                0.72595983               -4.19310698              -15.22627320                6.85822827                4.74645024
              22.52720236                3.10732660               72.43233821                0.00010000                1.88016067                3.57495758                0.45108107              -10.55683781                1.95317816                4.51597452
              23.52574673                2.56770318               71.99292565                0.43446373               -0.14556311                4.92876687                0.42392058               -5.16520740                0.01984776                5.20715505
              13.81086929                9.03307751               75.76743103                0.96506726               -0.06929610               -0.06880832                0.29014587               -0.01295729               -0.00042048                0.62707697
              14.81017633                8.55416469               75.32065515                0.29741192               -0.03348674               -0.07056639                0.17369388               -0.01100556                0.44794478               -0.57663524
              15.81019956                8.07478380               74.88256634                0.00010000               -0.37321283               -0.13584629                0.02096939               -0.91084457                4.25584507               -1.80435981
              16.80271207                7.57715878               74.51186833                0.00010000               -0.16539551               -0.58754233               -0.80548902               -1.93608723                8.01528658                0.08454796
              17.80689164                7.07386355               74.14525503                0.00010000                1.35670386               -1.55558964               -1.76786664               -2.89802854                8.88106860                1.87844793
              18.82984615                6.55220127               73.78773886                0.00010000                3.13832437               -2.92442674               -3.01761270               -5.41981656                9.91694488                3.67388151
              19.86965813                5.99522678               73.43946031                0.00010000                4.36017234               -3.02961091               -4.57484868              -10.19294119               10.38675177                4.47834107
              20.91704960                5.39840709               73.09257573                0.00010000                4.45663623               -0.16401224               -6.16906467              -14.10372870                9.33603007                5.00523280
              21.95879086                4.78129991               72.72837877                0.00010000                2.87742530                2.82891248               -6.96392743              -15.16701236                6.45444437                5.49824701
              22.97459810                4.17893368               72.33265644                0.00010000                0.23665490                7.84021886               -7.05917410              -10.98523891                3.19882128                7.71632304
              23.96352395                3.66627284               71.90728501                0.43576160               -1.10741473                9.64396791               -6.70207101               -5.93175351                1.65323102                8.96855908
              14.28967516               10.03257938               75.63141105                0.97036906               -0.04271827               -0.03624002                0.19377574               -0.01708931               -0.00251470                0.65338868
              15.28924797                9.55353289               75.17911698                0.29450741               -0.01429185               -0.04959835                0.09170450               -0.05888401                0.17289258               -0.47406589
              16.28938932                9.07311903               74.73013818                0.00010000               -0.24872640               -0.12618016               -0.07517205               -1.13927062                5.31435306               -1.97525393
              17.28427345                8.57231017               74.38100544                0.00010000                0.03080741               -0.36487619               -1.08337091               -2.48740426               10.43236396               -0.78690242
              18.29000547                8.06109292               74.03154555                0.00010000                1.21843059               -0.87182185               -2.25071374               -3.82889164               10.81122664                0.31312889
              19.30864206                7.53274615               73.68618739                0.00010000                2.44143719               -1.17833726               -3.69836842               -6.31453371               11.30853893                1.26715600
              20.33883421                6.98073869               73.34352616                0.00010000                3.26408039               -0.49906928               -5.46975330               -9.52671331               11.27527735                2.08455136
              21.37392367                6.40614280               72.99625090                0.00010000                3.27212342                1.59713538               -7.43537664              -12.10658999               10.13203094                2.92682304
              22.40427668                5.82399090               72.63272753                0.00010000                2.43004976                4.73096363               -9.34090982              -12.17405160                7.68503265                4.15709503
              23.42252466                5.26413098               72.24204521                0.00010000                1.40783314                8.06961356              -10.73101515               -7.87375894                4.15129129                5.57682593
              24.43243334                4.76058254               71.81731366                0.43702497                0.99086821                8.84038625              -11.18845742               -3.40262075                1.79347626                5.79242005
              14.76862048               11.03235271               75.49595716                0.99059749               -0.01614831               -0.01128440                0.09887699               -0.01823970               -0.00888262                0.71465824
              15.76845899               10.55317272               75.03782820                0.31653394                0.00081956               -0.02174435                0.00895168               -0.07870222                0.05687264               -0.46362002
              16.76863687               10.07226019               74.58091317                0.00010000               -0.17344447               -0.05161612               -0.13473067               -1.22827917                6.06017006               -1.75501164
              17.76499010                9.56986126               74.24342357                0.00010000                0.06204824               -0.09112738               -1.24434841               -2.72090190               12.03005381               -1.36926285
              18.76987783                9.05642711               73.90486806                0.00010000                0.94598010               -0.14804470               -2.50224501               -4.06963124               12.17223142               -0.78314036
              19.78390970                8.52863452               73.56754435                0.00010000                1.79246917                0.06913006               -4.03539732               -5.95706043               12.35988286               -0.19460439
              20.80572721                7.98524539               73.22975176                0.00010000                2.38779395                0.96351675               -5.89943298               -7.98372227               12.12784775                0.39353020
              21.83166558                7.43034979               72.88556775                0.00010000                2.57972140                2.72875922               -8.05357411               -9.23270117               11.01061967                1.05963546
              22.85732164                6.87591919               72.52548561                0.00010000                2.44328508                5.05383073              -10.27127494               -8.57780414                8.62311798                1.83070769
              23.88053129                6.34032595               72.13802598                0.00010000                2.26233916                7.00907466              -12.08850386               -5.30526742                4.84518106                2.42382217
              24.90256843                5.84308056               71.71268748                0.43817934                2.20371406                7.42173213              -12.81698554               -2.42023605                2.18098175                2.23626073
              15.24767034               12.03235369               75.36073200                0.99939485                0.00961087                0.01074596                0.00701353               -0.01750084               -0.00060645                0.75266383
              16.24776645               11.55309800               74.89661756                0.33708158                0.02324319                0.00581595               -0.06916505               -0.07992320                0.04315988               -0.48424261
              17.24813520               11.07208671               74.43338437                0.00010000               -0.10389782                0.00367766               -0.19001551               -1.17710335                6.66787358               -1.69691539
              18.24568849               10.57048762               74.10250041                0.00010000                0.08521877                0.17620829               -1.31250488               -2.56062336               13.18450666               -1.61734907
              19.24983958               10.05813202               73.77082206                0.00010000                0.74970387                0.35688207               -2.58371377               -3.67404545               13.16857393               -1.35719606
              20.26068257                9.53412875               73.43885437                0.00010000                1.38024600                0.78132714               -4.11795111               -4.95976814               13.13863324               -1.02931990
              21.27744450                9.00000902               73.10472655                0.00010000                1.89566416                1.65667032               -5.97531247               -6.08141417               12.75459788               -0.68458120
              22.29859585                8.46071798               72.76308362                0.00010000                2.26499729                3.01498312               -8.12466976               -6.49657111               11.57643317               -0.32765479
              23.32274444                7.92506751               72.40495194                0.00010000                2.53310427                4.58454352              -10.35855673               -5.66221879                9.15963824               -0.01416255
              24.34925794                7.40431247               72.01857608                0.00010000                2.78874763                5.78099160              -12.21700036               -3.37987367                5.21688512                0.08929758
              25.37851940                6.90901718               71.59139586                0.43936867                2.92614593                5.85553586              -13.07748583               -1.56070688                2.38778491               -0.31634572
              15.72678183               13.03256763               75.22567936                1.00000000                0.03456781                0.03234684               -0.08536071               -0.01573439                0.00152453                0.75873847
              16.72712751               12.55328904               74.75516915                0.36171181                0.04616782                0.03262345               -0.14261953               -0.07414269                0.07148377               -0.53109619
              17.72770518               12.07233375               74.28617440                0.00010000                0.03024085                0.03766785               -0.24247503               -1.00979629                7.30821556               -1.44708814
              18.72773232               11.57338542               73.96127150                0.00010000                0.25253043                0.31728592               -1.33034827               -2.09044538               14.19995032               -1.54594898
              19.73275579               11.06356475               73.63413290                0.00010000                0.75525098                0.58436785               -2.55768917               -2.86003215               13.93687529               -1.42060884
              20.74283734               10.54426107               73.30580119                0.00010000                1.23769520                1.06804180               -4.03537295               -3.61787505               13.70664482               -1.26732241
              21.75750970               10.01837880               72.97413126                0.00010000                1.69191635                1.82779917               -5.81714136               -4.14900975               13.16886221               -1.12139484
              22.77667567                9.49064946               72.63400480                0.00010000                2.14865396                2.83375448               -7.87647593               -4.15168028               11.90226186               -1.00147748
              23.80048278                8.96761006               72.27661193                0.00010000                2.61542382                3.90046316              -10.02955540               -3.39466305                9.42284095               -0.95492189
              24.82898415                8.45594578               71.88976979                0.00010000                3.07310500                4.67105063              -11.86941757               -1.90780290                5.37915767               -1.10043746
              25.86194488                7.96019128               71.46008350                0.44038217                3.29607299                4.63164320              -12.82579334               -0.87855544                2.51710922               -1.65240746
              16.20591283               14.03300062               75.09025968                0.89695269                0.06046497                0.05637314               -0.18112630               -0.01294185                0.05218705                0.69520519
              17.20651748               13.55375047               74.61344173                0.28381280                0.09650343                0.05901435               -0.21595875               -0.06926660                0.45003258               -0.55134715
              18.20784289               13.07284007               74.14479725                0.00010000                0.30655506                0.04505461               -0.34263062               -0.81342700                8.12120136               -1.16831575
              19.21264858               12.57683334               73.82252410                0.00010000                0.69601983                0.19737173               -1.33726392               -1.28596920               15.02375306               -1.01670109
              20.22176329               12.06981938               73.49938724                0.00010000                1.04312215                0.56562465               -2.49209245               -1.65515486               14.58891302               -0.94039280
              21.23351102               11.55548958               73.17372610                0.00010000                1.31563110                1.08227676               -3.88539533               -1.97714651               14.14747595               -0.89350966
              22.24807591               11.03656500               72.84387113                0.00010000                1.64099850                1.75863709               -5.56044367               -2.17348410               13.48440613               -0.86215319
              23.26633099               10.51739307               72.50494131                0.00010000                2.07394724                2.54653068               -7.49732587               -2.06807041               12.16236253               -0.85871720
              24.28955486               10.00307678               72.14830996                0.00010000                2.60948328                3.32365105               -9.54180461               -1.57194866                9.66847299               -0.90545801
              25.31852066                9.49773349               71.76132410                0.00010000                3.14512161                3.88658329              -11.33706484               -0.79691642                5.54633113               -1.06700620
              26.35245729                9.00165004               71.32873560                0.44152596                3.39366347                3.93245196              -12.34174127               -0.36030356                2.67040530               -1.64212158
              16.68502330               15.03369509               74.95366589                0.93066521                0.08794359                0.06944698               -0.27990898               -0.01152940                0.30983582                0.64656466
              17.68590273               14.55446933               74.47216991                0.61540497                0.16652418                0.07188583               -0.29282080               -0.08448707                0.98786803               -0.56375737
              18.68835378               14.07323484               74.00453387                0.37200412                0.95654474                0.03947736               -0.46443301               -0.80573506                9.31471578               -1.17986360
              19.70503363               13.57733286               73.69133791                0.36381856                1.63213347                0.04995224               -1.38156853               -0.67937470               16.00717528               -0.46190184
              20.72099645               13.07487725               73.37114734                0.36102709                1.57575803                0.50578674               -2.47285982               -0.64799704               15.13392284               -0.47121098
              21.73654879               12.56590660               73.04796510                0.36302994                1.55700389                1.04170191               -3.79632655               -0.76250848               14.58772095               -0.47673966
              22.75213653               12.05355154               72.72016019                0.36968249                1.61268513                1.69865375               -5.38651735               -0.81026527               13.88109087               -0.51367272
              23.76880249               11.54158007               72.38324787                0.38191354                1.82834311                2.41869981               -7.23072012               -0.72627326               12.60208376               -0.58689656
              24.78870339               11.03408308               72.02894335                0.39957311                2.28350307                3.10063002               -9.19686767               -0.48027809               10.22752040               -0.71075785
              25.81447255               10.53367745               71.64473267                0.42340227                2.91011506                3.59439602              -10.95966655               -0.16694836                6.12521117               -0.90437708
              26.84690569               10.03884032               71.21213769                0.72116575                3.24331389                3.71902744              -11.97128908               -0.03887283                3.29063229               -1.53451950
              12.32241226                5.17965242               77.31070160                1.00000000               -0.14921308               -0.14488284                0.51651550               -0.01766888               -0.38848289                0.48916225
              13.32092012                4.69535453               76.87809029                1.00000000               -0.14476257               -0.12735642                0.46180344               -0.00305405               -0.47025929                0.05446230
              14.31951700                4.21078182               76.44327202                1.00000000               -0.13435633               -0.10822762                0.40667246               -0.00251642               -0.48886725               -0.05384869
              15.31823300                3.72575344               76.01014037                0.65215189               -0.13822653               -0.08975256                0.34835761               -0.03849976               -0.45092326               -0.31394867
              16.31675247                3.23972907               75.57635846                0.46924529               -0.13970599               -0.06448436                0.29300572               -0.06418456               -0.43517496               -0.30227971
              17.31543888                2.75283309               75.14411423                0.14195062               -1.23522895               -0.06249739                0.21860828               -1.08712766                0.88307678               -0.55834854
              18.29204789                2.24531807               74.73768022                0.00010000               -4.14577869                1.28156113                0.24498418               -6.76807767               10.41772301               -2.89657047
              19.23252330                1.60348042               74.49470224                0.00010000               -1.86412444               -0.06508298               -1.42863358               -6.56029753               19.66108453                0.36191520
              20.25476541                0.94685693               74.24297125                0.00010000                5.53172458               -1.42735299               -2.17659270               -6.15891322               18.90978740                0.70098423
              21.34315780                0.28440410               73.98012325                1.00000000                4.79146365                0.58918650               -2.45712007               -5.98074387                8.85341779               -0.01631065
              22.35059468               -0.25535733               73.54054494                1.00000000                0.74368826                0.58643043               -2.43233905               -0.14973719                0.00513500                0.00492749
              12.80653346                6.17820359               77.17423500                1.00000000               -0.12085776               -0.13388079                0.43863335               -0.00852274                0.02444245                0.68593030
              13.80532489                5.69408096               76.74144860                1.00000000               -0.11205396               -0.11847095                0.38477370                0.00585329                0.10043463                0.07802111
              14.80429238                5.20969954               76.30968910                1.00000000               -0.09752552               -0.10008192                0.33088495                0.00486879                0.16040890               -0.24365154
              15.80337438                4.72485591               75.87804009                0.80158926               -0.08607912               -0.08847145                0.28538091               -0.01844172                0.24378797               -0.26651166
              16.80257080                4.23908422               75.44831722                0.67276795               -0.08006384               -0.06578739                0.21460400               -0.04193736                0.23645524               -0.23379896
              17.80177310                3.75220811               75.01730812                0.34075383               -0.17636752               -0.05487615                0.14188574               -0.37503720                0.27899120               -0.41671507
              18.79904345                3.25813368               74.58961430                0.00010000                0.71889014                0.59474157                0.02117255               -7.43992632               10.07536190               -1.53576960
              19.81615090                2.60282959               74.35544895                0.00010000                2.68354907               -1.66360893               -1.28477474              -10.25815999               18.24399953                1.04433550
              20.85271443                1.93258340               74.08633866                0.00010000                3.41532915               -0.83658356               -1.74114593               -8.50774880               15.89416132                0.98507796
              21.88445749                1.29029596               73.79969509                1.00000000                1.80721501                0.42216404               -1.47317950               -4.97512988                7.65140908               -0.02898530
              22.88885873                0.75050697               73.36013325                1.00000000                0.44012485                0.42332868               -1.45443537               -0.15623200               -0.00002080               -0.02620688
              13.29048707                7.17697481               77.04092954                1.00000000               -0.09458242               -0.10765986                0.35848953               -0.01183401                0.16084455                0.80650807
              14.28954124                6.69298511               76.60497079                1.00000000               -0.08238178               -0.09949989                0.30756049               -0.00050267                0.35324679               -0.00226288
              15.28883943                6.20878018               76.17244846                0.00010000               -0.05308802               -0.07898417                0.25568568               -0.02052893                0.90155879               -0.67755310
              16.28847948                5.72398401               75.74748185                0.00010000               -0.01389537               -0.62524388                0.22666472               -0.39890811                1.26571339                0.43529262
              17.28856152                5.23841332               75.32272859                0.00010000                0.02045962               -1.11781833                0.13487359               -0.35166079                1.06734768                1.59722646
              18.28888867                4.75173556               74.89485787                0.00010000                0.20331846               -1.94737616                0.06388475                0.01455488                1.07490792                3.18719733
              19.29262789                4.25721290               74.47176205                0.00010000                3.20108586               -4.58119788               -0.07947755               -7.51963703               10.59855779                6.17778658
              20.35291039                3.57020824               74.23703175                0.00010000                5.22580811               -2.65915964               -2.01529516              -13.22899905               16.56619299                2.87787293
              21.39714406                2.93012525               73.93688076                0.00010000                3.64106140               -0.27464662               -1.94590045              -10.26615686               12.55506715                1.51410985
              22.42573162                2.29284738               73.61858845                1.00000000                1.49519794                0.11964631               -0.42385599               -4.74866639                6.08314411               -0.06210100
              23.42704801                1.75310924               73.17902504                1.00000000                0.13163938                0.12299528               -0.42123383               -0.13407923               -0.01030430               -0.06960107
              13.77427619                8.17605040               76.90615848                1.00000000               -0.07667249               -0.07414659                0.27956308               -0.01085049                0.26913000                0.69110210
              14.77350946                7.69209096               76.46648848                0.44269706               -0.06966393               -0.08414542                0.23464126                0.00814426                0.46519260               -0.37643207
              15.77288291                7.20811986               76.03040907                0.00010000               -0.38731928               -0.10016509                0.17631369               -0.54965073                2.42536909               -1.19380780
              16.76576307                6.71235103               75.63004042                0.00010000               -0.25484382               -0.94969638               -0.30100316               -1.40739865                4.46097636                0.71054018
              17.76778603                6.21672786               75.23237129                0.00010000                0.87507692               -1.99578033               -0.82038356               -1.51441998                5.01485874                2.78066246
              18.78326461                5.71326059               74.84169339                0.00010000                3.11960030               -3.78383266               -1.48390735               -2.93587475                6.76580860                5.47341019
              19.83017804                5.16650973               74.48006002                0.00010000                4.76969785               -6.70198060               -2.45847591               -6.90952269                8.57492118                8.83140111
              20.87865857                4.54964639               74.13381924                0.00010000                4.72870604               -1.65890520               -3.28685113              -11.54128763                9.25047846                3.98174373
              21.92475216                3.92709046               73.79643829                0.00010000                4.39207993                0.30926482               -3.66115806              -12.76138632                8.18634995                2.38711231
              22.96650017                3.29268889               73.43643769                0.00010000                2.04506302                2.82726184                0.31152294               -9.28526442                3.97214505                0.92632622
              23.96565342                2.75296688               72.99688422                0.42830063               -0.08467511                4.43314292                0.29881934               -5.09350852                0.01515958                1.88754418
              14.25818892                9.17549188               76.76988554                0.98477063               -0.05542583               -0.04029758                0.20299157               -0.01033085               -0.00477988                0.61245848
              15.25763467                8.69130220               76.32238182                0.31518239               -0.03012884               -0.07229914                0.17052480               -0.00520273                0.42333809               -0.56599533
              16.25758635                8.20677688               75.88316612                0.00010000               -0.29555777               -0.16285462                0.09576384               -0.85514367                3.84358222               -1.77395448
              17.25172351                7.70499008               75.50423700                0.00010000               -0.01113902               -0.64443181               -0.70166253               -1.79515951                7.13851518               -0.13567329
              18.25736357                7.19849771               75.12838583                0.00010000                1.43329001               -1.56741010               -1.56972320               -2.57642226                7.72332941                1.39335341
              19.28038931                6.67605891               74.75941428                0.00010000                3.03440331               -2.82932797               -2.61080922               -4.70899493                8.35636746                2.90792614
              20.31805163                6.12317329               74.39764881                0.00010000                4.05572952               -2.93107221               -3.79206248               -8.76951691                8.53122379                3.46626886
              21.36150390                5.53703013               74.03820395                0.00010000                4.04111007               -0.44327687               -4.89848010              -11.95070391                7.64324010                3.63923441
              22.39887384                4.93631055               73.66866643                0.00010000                2.63230069                2.11077234               -5.34149485              -12.94860124                5.37773056                3.18278497
              23.41414992                4.34939261               73.27375006                0.00010000                0.28740125                6.32911344               -5.58349040               -9.65695939                2.63293830                2.97444254
              24.40462186                3.84177210               72.85346615                0.42967208               -0.95280553                8.22363856               -4.95722371               -5.34676541                1.67286056                4.02446048
              14.74244892               10.17524445               76.63294570                0.99068000               -0.03285196               -0.01445749                0.11650708               -0.01400927               -0.00079510                0.63077303
              15.74212040                9.69064498               76.18011351                0.31446876               -0.01783850               -0.05369096                0.10556587               -0.05086202                0.14639306               -0.46322892
              16.74209215                9.20486277               75.73003364                0.00010000               -0.19906764               -0.15339023                0.04696352               -1.09239215                4.79905058               -1.91692941
              17.73813905                8.69946240               75.37056714                0.00010000                0.15483007               -0.43449694               -0.97991250               -2.37543243                9.34397214               -0.85972709
              18.74518875                8.18537966               75.00971868                0.00010000                1.31350430               -0.92590909               -2.07131936               -3.53232014                9.44449830                0.10794941
              19.76440914                7.65667403               74.65083271                0.00010000                2.43138599               -1.22578658               -3.31952141               -5.67894375                9.54901154                0.93523195
              20.79381647                7.10788828               74.29251236                0.00010000                3.10490479               -0.65750783               -4.71370114               -8.38833363                9.14523606                1.61709166
              21.82650723                6.54078086               73.92898973                0.00010000                2.98005893                1.11889800               -6.10059494              -10.45399121                7.85812752                2.20304156
              22.85341765                5.96930591               73.55129279                0.00010000                2.06960991                3.71338854               -7.28168674              -10.31860846                5.63042320                2.86535747
              23.86789943                5.41927116               73.15099306                0.00010000                1.02707412                6.49687195               -7.96959456               -6.65502322                2.90077416                3.52421317
              24.87395913                4.91743965               72.72436057                0.43075768                0.60597045                6.96777601               -8.08267297               -2.95199157                1.36492067                3.15915121
              15.22710767               11.17520273               76.49659073                1.00000000               -0.01085641                0.00491803                0.03360255               -0.01267370               -0.00515548                0.69210157
              16.22699911               10.69022838               76.03809934                0.33873941               -0.00932900               -0.03035977                0.04214803               -0.06865459                0.03956279               -0.45038894
              17.22692109               10.20370907               75.58040628                0.00010000               -0.16505658               -0.08855864                0.01860679               -1.18627972                5.49074785               -1.68741707
              18.22369797                9.69630014               75.23137730                0.00010000                0.12922208               -0.15940547               -1.14248819               -2.62603027               10.84382620               -1.31778196
              19.22950553                9.17997953               74.88033450                0.00010000                1.03019181               -0.22382034               -2.35879603               -3.81174865               10.74394319               -0.77225273
              20.24430181                8.65154318               74.52844577                0.00010000                1.83363012               -0.04644645               -3.72504321               -5.46533507               10.56968683               -0.21807700
              21.26617813                8.11002313               74.17376492                0.00010000                2.33523193                0.71102540               -5.24918125               -7.19067267                9.96310893                0.33358807
              22.29100645                7.55940809               73.81118709                0.00010000                2.39166164                2.18696473               -6.84595466               -8.15830727                8.62808427                0.92642463
              23.31401137                7.01057832               73.43334758                0.00010000                2.09546310                4.07791339               -8.31634023               -7.43303534                6.44840763                1.54099544
              24.33291571                6.47933005               73.03266711                0.00010000                1.76168372                5.57794083               -9.36866263               -4.51139682                3.48312480                1.91873379
              25.34924504                5.98112762               72.60282447                0.43215601                1.63293301                5.78354711               -9.66700414               -2.01044002                1.59358164                1.46393552
              15.71214414               12.17534281               76.36052382                1.00000000                0.00968214                0.02477507               -0.04366584               -0.00762467                0.00158410                0.73114649
              16.71224096               11.69003779               75.89621362                0.36145556                0.00753276               -0.00966353               -0.01745164               -0.06947537                0.03098286               -0.46626103
              17.71229480               11.20309159               75.43249052                0.00010000               -0.14464880               -0.04630409               -0.00994740               -1.13042588                6.08254574               -1.62763768
              18.70934799               10.69627429               75.08975572                0.00010000                0.07079728                0.12266939               -1.21942595               -2.47334641               11.98591170               -1.49035080
              19.71371074               10.18090325               74.74524250                0.00010000                0.78554220                0.29635071               -2.48887794               -3.47008803               11.77353232               -1.20991790
              20.72505883                9.65574510               74.39845418                0.00010000                1.42136808                0.66947435               -3.90099354               -4.62636866               11.43620156               -0.86017625
              21.74213810                9.12210879               74.04718145                0.00010000                1.88635341                1.41493238               -5.47399285               -5.59985427               10.72215101               -0.48419931
              22.76278590                8.58452015               73.68667363                0.00010000                2.13484411                2.54810920               -7.13885894               -5.89727992                9.35339354               -0.09833546
              23.78483499                8.05086418               73.31001757                0.00010000                2.21681473                3.81757667               -8.71143920               -5.06202047                7.11178122                0.22048881
              24.80712219                7.53082997               72.90907366                0.00010000                2.26601054                4.72467104               -9.88810405               -2.97440779                3.92685410                0.25140148
              25.83015520                7.03311059               72.47610935                0.43334914                2.30330035                4.67911285              -10.30017393               -1.32655853                1.81314077               -0.33197845
              16.19756522               13.17569823               76.22463501                1.00000000                0.02955924                0.04665184               -0.12227391               -0.00470707                0.00259732                0.73482318
              17.19786081               12.69003511               75.75413650                0.38791269                0.02554261                0.00936637               -0.07281441               -0.06369139                0.06087659               -0.50964782
              18.19807607               12.20278299               75.28488939                0.00010000               -0.07207099               -0.02048962               -0.04009675               -0.94256207                6.72387452               -1.39391988
              19.19641939               11.69875353               74.94830237                0.00010000                0.12784430                0.30379590               -1.25246932               -1.99312225               13.03861812               -1.39690271
              20.20063296               11.18590655               74.60852892                0.00010000                0.70747525                0.57945971               -2.52297146               -2.71569012               12.63342092               -1.22369985
              21.21056890               10.66493267               74.26567422                0.00010000                1.23865202                1.00957206               -3.92962662               -3.42878611               12.15759231               -1.02110650
              22.22540600               10.13832178               73.91727337                0.00010000                1.68682827                1.65801204               -5.48968032               -3.90843441               11.34799644               -0.81252634
              23.24430546                9.61037028               73.55874228                0.00010000                2.05275690                2.49424624               -7.14210691               -3.87490614                9.92101556               -0.62490813
              24.26646114                9.08692986               73.18312994                0.00010000                2.34378390                3.35337410               -8.71513630               -3.13035945                7.59872367               -0.53364526
              25.29118114                8.57382347               72.78170840                0.00010000                2.58457476                3.93142902               -9.91489747               -1.73075383                4.22828946               -0.69722603
              26.31815263                8.07470988               72.34554894                0.43476143                2.69714909                3.78768644              -10.37545323               -0.74272065                1.97974456               -1.35564127
              16.68337624               14.17627584               76.08834317                0.91141644                0.05061332                0.06898295               -0.20155921               -0.00427738                0.04801664                0.66432425
              17.68388237               13.69022511               75.61175566                0.30758016                0.06744493                0.02900303               -0.13059567               -0.05679696                0.41333960               -0.52748596
              18.68472514               13.20268180               75.14265286                0.00010000                0.12398090               -0.01473595               -0.11494178               -0.69764021                7.53367438               -1.13088563
              19.68636199               12.70235020               74.80937403                0.00010000                0.42463333                0.27829577               -1.28336882               -1.19256694               13.93273554               -0.90832144
              20.69321780               12.19249244               74.47405673                0.00010000                0.88529415                0.63692137               -2.53187146               -1.57764500               13.39676156               -0.79453113
              21.70406787               11.67593654               74.13442020                0.00010000                1.26570002                1.10147962               -3.90908452               -1.90632252               12.76398804               -0.70313917
              22.71853180               11.15526903               73.78852518                0.00010000                1.63059157                1.68478560               -5.43035239               -2.09370396               11.87734756               -0.61594739
              23.73667970               10.63440508               73.43195101                0.00010000                2.01213994                2.34080035               -7.04103602               -1.98401769               10.41543438               -0.55058626
              24.75877460               10.11793166               73.05771891                0.00010000                2.40236952                2.95844174               -8.58427225               -1.49589541                8.04333219               -0.55202577
              25.78472709                9.60945855               72.65636104                0.00010000                2.73766866                3.36029151               -9.77820254               -0.74602430                4.50651774               -0.71468115
              26.81352798                9.10886432               72.21715790                0.43576187                2.88008812                3.27663654              -10.24034399               -0.27292628                2.15709969               -1.30461146
              17.16958113               15.17707789               75.95079222                0.93645833                0.07377819                0.08020429               -0.29133866               -0.02578228                0.29939844                0.60951571
              18.17031891               14.69061517               75.46980582                0.62364191                0.12085214                0.03900563               -0.18798413               -0.08582638                0.91567362               -0.53523473
              19.17199817               14.20248827               75.00141577                0.37104404                0.62192486               -0.01935286               -0.19688598               -0.58748244                8.69914521               -1.13359542
              20.18275741               13.70431944               74.67752422                0.36364203                1.17477724                0.19692387               -1.36532720               -0.55262279               14.96792712               -0.42478131
              21.19549372               13.19864497               74.34549011                0.36092049                1.34542236                0.61525301               -2.60064557               -0.64026761               14.01492018               -0.41030332
              22.20966586               12.68696226               74.00869640                0.36273937                1.47848320                1.10257159               -3.96386563               -0.77157531               13.29747683               -0.38907884
              23.22506338               12.17201749               73.66525536                0.36901700                1.61483098                1.67484639               -5.47002463               -0.83564059               12.38194211               -0.38929410
              24.24196248               11.65718629               73.31107824                0.38020590                1.82131832                2.27812090               -7.07013454               -0.76766275               10.95720464               -0.41488292
              25.26148975               11.14609869               72.93939893                0.39662120                2.16827569                2.81670302               -8.61622510               -0.53633427                8.66473839               -0.49045712
              26.28532799               10.64102930               72.54069266                0.41875155                2.61964092                3.15707506               -9.83890440               -0.23271425                5.08371250               -0.65665093
              27.31388257               10.14024261               72.10140478                0.71830513                2.85545766                3.13782876              -10.30859756               -0.04321015                2.68787186               -1.20748943
              12.75140311                5.32138386               78.31520812                1.00000000               -0.12117237               -0.10710776                0.38779236               -0.00481694               -0.38899803                0.48594162
              13.75019139                4.83292392               77.88241795                1.00000000               -0.12695133               -0.11204179                0.40409511                0.00742854               -0.47216034                0.05428999
              14.74886408                4.34421869               77.44741504                1.00000000               -0.13704292               -0.11434904                0.41954501                0.00798729               -0.49235133               -0.05089430
              15.74745053                3.85511291               77.01406758                0.66067948               -0.15859347               -0.11776003                0.43193995               -0.02305735               -0.45232847               -0.29741249
              16.74569221                3.36514182               76.58010597                0.47345786               -0.17757188               -0.11577199                0.44781757               -0.04508997               -0.44077175               -0.30125696
              17.74389909                2.87443227               76.14752280                0.13763476               -1.17989944               -0.13477793                0.45190575               -0.96132601                0.88815327               -0.55958897
              18.72209422                2.36527437               75.74106682                0.00010000               -3.39208883                1.09181758                0.39056854               -5.60506182                9.80053015               -2.88008643
              19.67605731                1.74432593               75.48201954                0.00010000               -1.08183981               -0.39633173               -1.11980513               -5.48647119               18.33813573                0.13717905
              20.70045743                1.10676785               75.22228650                0.00010000                5.33590836               -1.49640933               -1.96984210               -5.31245282               18.13861047                0.41920367
              21.78277548                0.45970596               74.95550656                1.00000000                4.48200764                0.60775877               -2.45653228               -5.20799193                8.62548708               -0.04311760
              22.79009758               -0.07990462               74.51648854                1.00000000                0.73221006                0.58585942               -2.36137314               -0.13807262                0.00036552               -0.03906275
              13.23981488                6.32031278               78.17802323                1.00000000               -0.09666232               -0.09762504                0.32185276               -0.00695038                0.02200718                0.67963747
              14.23884826                5.83180350               77.74506719                1.00000000               -0.09827108               -0.10494508                0.33915433                0.00550316                0.09697885                0.07769539
              15.23784946                5.34307520               77.31313468                1.00000000               -0.10449341               -0.10822061                0.35576753                0.00475274                0.16145827               -0.23857205
              16.23675839                4.85393531               76.88139389                0.82382813               -0.11339119               -0.11722500                0.38009348               -0.01520100                0.23951240               -0.24488530
              17.23558163                4.36398410               76.45134547                0.68810380               -0.12694174               -0.11701918                0.38334477               -0.03608465                0.22461284               -0.22849105
              18.23421955                3.87308449               76.02001162                0.34902576               -0.22424274               -0.12879794                0.38927389               -0.31295324                0.25340177               -0.41170926
              19.23109678                3.37619255               75.59161678                0.00010000                0.81131551                0.44882671                0.37039624               -6.34990940                9.42026326               -1.57089821
              20.25044586                2.74036261               75.34431511                0.00010000                2.92730517               -1.81263517               -0.97443256               -8.75800738               17.33522381                0.48006945
              21.28964288                2.09180376               75.07003475                0.00010000                3.67929669               -0.99022849               -1.54735268               -7.21359813               15.67807117                0.37368318
              22.32403180                1.46578355               74.78465775                1.00000000                1.93422786                0.48719710               -1.51058399               -4.15406342                7.68939904               -0.00114464
              23.32832744                0.92595397               74.34557529                1.00000000                0.42956427                0.47295662               -1.42696289               -0.16273723               -0.00042752               -0.03390661
              13.72828266                7.31943136               78.04397726                1.00000000               -0.07436293               -0.07455980                0.25376377               -0.00981447                0.15690378                0.79742948
              14.72753903                6.83082502               77.60787987                1.00000000               -0.07276683               -0.08994771                0.27436251                0.00011520                0.34802649               -0.00035155
              15.72682732                6.34205428               77.17520640                0.00010000               -0.06507133               -0.09165285                0.29338327               -0.01751600                0.90698769               -0.67253778
              16.72623760                5.85276841               76.75029778                0.00010000               -0.05029921               -0.62093242                0.33112942               -0.33394907                1.25541137                0.22621955
              17.72582134                5.36280144               76.32501601                0.00010000               -0.04030145               -1.09116907                0.31586070               -0.24205008                1.04599975                1.17155118
              18.72543158                4.87185631               75.89684463                0.00010000                0.09982902               -1.84690122                0.32508295                0.16294907                1.04288937                2.49028342
              19.72781792                4.37425091               75.47285600                0.00010000                2.99271914               -4.20601916                0.29158486               -6.33042183                9.65241514                5.08908498
              20.78528596                3.70807322               75.21956238                0.00010000                5.14733026               -2.62384471               -1.51226077              -11.35154120               15.44277074                1.69719603
              21.83076452                3.08696328               74.91823963                0.00010000                4.01290188               -0.42172636               -1.84474424               -8.95070711               13.01569540               -0.24990364
              22.86554400                2.46944991               74.61464139                0.00010000                1.78687337                0.24539808               -0.52967905               -3.76206122                6.77889188               -0.22551225
              23.86650199                1.92955451               74.17529107                1.00000000                0.09579969                0.25294871               -0.45624369               -0.14806739                0.02154279               -0.30085033
              14.21683127                8.31882158               77.90847898                1.00000000               -0.06036287               -0.04459473                0.18744855               -0.00677978                0.26415702                0.68007192
              15.21622764                7.83000455               77.46873495                0.45835858               -0.06377647               -0.08026317                0.21454482                0.01220181                0.45237160               -0.36678670
              16.21555574                7.34124214               77.03243234                0.00010000               -0.34476975               -0.11870690                0.22595764               -0.50495933                2.19438625               -1.18789141
              17.20933225                6.84151667               76.62761058                0.00010000               -0.19515043               -0.94249046               -0.17979031               -1.25281788                3.95961637                0.32704184
              18.21165273                6.34216072               76.22525159                0.00010000                0.83484085               -1.92091063               -0.59683759               -1.25052911                4.38289568                2.01852256
              19.22602906                5.83614647               75.82884684                0.00010000                2.83093507               -3.53179206               -1.09926283               -2.39048028                5.84969801                4.24998019
              20.26827143                5.29207217               75.45859009                0.00010000                4.23368020               -6.10755478               -1.85870783               -5.72928646                7.53511400                7.08430903
              21.31070267                4.68788572               75.10558863                0.00010000                4.04903132               -1.60259725               -2.54762360               -9.75460565                8.12343341                2.47753484
              22.34925206                4.08336923               74.75926275                0.00010000                4.77483375                0.15689169               -2.91042421              -10.85796867                8.74232991                0.36331668
              23.40619934                3.47069151               74.43856867                0.00010000                2.79524106                2.72086280               -3.14946598               -8.77215668                2.69509965               -0.99297761
              24.40515688                2.93101295               73.99890204                0.42261163               -0.10424612                4.48655891               -0.77841566               -5.41550674               -2.86614391                1.64503094
              14.70578114                9.31853946               77.77149087                1.00000000               -0.04186295               -0.01659661                0.12115071               -0.00735225               -0.00728436                0.59226664
              15.70536251                8.82921975               77.32406564                0.33450845               -0.02825612               -0.07268790                0.16664543                0.00004689                0.39764168               -0.54951706
              16.70521602                8.33968014               76.88448161                0.00010000               -0.25499210               -0.18509273                0.16472562               -0.79700904                3.42686289               -1.73917122
              17.70026267                7.83391860               76.49783508                0.00010000                0.04824676               -0.67706698               -0.56741769               -1.65806585                6.26687469               -0.37543095
              18.70618095                7.32438322               76.11386057                0.00010000                1.37239269               -1.54287398               -1.32259937               -2.28605026                6.66774581                0.87651483
              19.72771052                6.80122047               75.73552268                0.00010000                2.76559955               -2.68635862               -2.16955511               -4.07419321                7.07908176                2.10036379
              20.76149294                6.25209981               75.36361906                0.00010000                3.55931297               -2.75538800               -3.07159255               -7.49443561                7.12661932                2.43216210
              21.79889678                5.67602128               74.99460613                0.00010000                3.46532058               -0.53326155               -3.87749468              -10.01977885                6.43389310                2.24247478
              22.83079936                5.09010111               74.62154887                0.00010000                2.17801815                1.66238348               -4.37107903              -10.32621813                4.09411869                1.76253602
              23.84245714                4.52386716               74.22098663                0.00010000                0.33748166                5.25033395               -4.30814089               -8.47712015                1.94742320               -0.33882868
              24.83754899                4.01928569               73.80814053                0.42380289               -0.49081560                7.16971494               -4.18754441               -5.06615455                1.89022321                0.28417066
              15.19532364               10.31848965               77.63374119                1.00000000               -0.02357389                0.00385844                0.04847745               -0.00793654                0.00194910                0.60451184
              16.19508790                9.82855079               77.18122830                0.33641768               -0.02034670               -0.05774559                0.11634895               -0.04385905                0.12849199               -0.44536129
              17.19491671                9.33754029               76.73107745                0.00010000               -0.18100300               -0.18125816                0.15258289               -1.03088060                4.25719668               -1.85052116
              18.19146784                8.82797533               76.36140719                0.00010000                0.18565750               -0.48007865               -0.83920615               -2.22806513                8.21978342               -0.95757149
              19.19862986                8.31130324               75.99011916                0.00010000                1.26803836               -0.94624914               -1.82957349               -3.20243779                8.15281174               -0.15422331
              20.21682861                7.78241930               75.61979696                0.00010000                2.24760287               -1.22844786               -2.88190021               -5.00881690                8.03799848                0.51037802
              21.24358191                7.23696441               75.24925213                0.00010000                2.77385891               -0.74258739               -3.96980517               -7.22218411                7.49491268                1.00222709
              22.27230579                6.67722049               74.87423900                0.00010000                2.56499501                0.75865564               -4.97318682               -8.72998356                6.22584217                1.35546174
              23.29488181                6.11661690               74.48709380                0.00010000                1.75832878                2.89566005               -5.72527067               -8.37559373                4.34776798                1.55612721
              24.30747236                5.57569819               74.08265331                0.00010000                0.90574593                4.83764333               -6.11258853               -5.19749530                2.18475383                1.97245065
              25.31299673                5.07440725               73.65566020                0.42494733                0.55243700                5.06624022               -6.03895192               -2.30027627                1.07926213                1.03199496
              15.68550014               11.31861663               77.49662921                1.00000000               -0.00654412                0.02213445               -0.02082214               -0.00523976               -0.00186889                0.67071069
              16.68543469               10.82806484               77.03867116                0.36336098               -0.01631343               -0.04075781                0.06963684               -0.06150767                0.03073569               -0.43134331
              17.68517387               10.33605497               76.58128531                0.00010000               -0.17481413               -0.12447157                0.14576330               -1.12102537                4.87666020               -1.61394755
              18.68193841                9.82431703               76.22057380                0.00010000                0.12571789               -0.21098942               -1.00626485               -2.47049178                9.57528392               -1.29714403
              19.68768822                9.30545824               75.85769214                0.00010000                0.99673022               -0.27820007               -2.14698093               -3.48418031                9.33116548               -0.82610432
              20.70187302                8.77665152               75.49304348                0.00010000                1.72799243               -0.13612608               -3.33852961               -4.87855698                8.95146810               -0.35335613
              21.72224807                8.23724806               75.12476814                0.00010000                2.13858003                0.49260897               -4.56698079               -6.26854826                8.18102907                0.10150872
              22.74464462                7.69119439               74.74864865                0.00010000                2.12808505                1.69878006               -5.74489389               -6.93559657                6.85321845                0.54032585
              23.76480977                7.14801432               74.35915881                0.00010000                1.80361373                3.15390127               -6.72370141               -6.14380715                4.95326395                0.94488260
              24.78071689                6.62062003               73.95065273                0.00010000                1.46577900                4.23005099               -7.33105426               -3.65864731                2.61270202                1.00981453
              25.79412535                6.12061049               73.51934740                0.42614198                1.34084627                4.26229432               -7.42235368               -1.61524887                1.25165908                0.37653155
              16.17632242               12.31893234               77.35985868                1.00000000                0.00969809                0.04140570               -0.08662367               -0.00313778                0.00193901                0.71164386
              17.17641940               11.82773563               76.89626853                0.38736098               -0.00392074               -0.02553999                0.02497031               -0.06127606                0.02740212               -0.44412132
              18.17624401               11.33505085               76.43318542                0.00010000               -0.18823323               -0.08809826                0.13377677               -1.05685785                5.43194991               -1.55222262
              19.17265474               10.82375554               76.07811190                0.00010000                0.01838785                0.07560158               -1.09858824               -2.31924409               10.65272814               -1.39391606
              20.17661177               10.30573924               75.72104450                0.00010000                0.74064530                0.24091455               -2.32537969               -3.18473137               10.32278439               -1.12378479
              21.18746765                9.77969678               75.36083450                0.00010000                1.35281536                0.56107017               -3.59769394               -4.17754637                9.80543786               -0.79231614
              22.20366807                9.24681659               74.99524669                0.00010000                1.76799797                1.17682437               -4.91007553               -4.96735983                8.93969388               -0.44214331
              23.22282760                8.71119609               74.62030644                0.00010000                1.94559813                2.08397573               -6.18791180               -5.12634322                7.56317972               -0.10095473
              24.24258004                8.17969492               74.23072315                0.00010000                1.94378165                3.06107482               -7.28826014               -4.31077629                5.58742921                0.13534591
              25.26170324                7.66029921               73.82081400                0.00010000                1.90653940                3.70469218               -8.01558485               -2.48138758                3.01823234                0.06640979
              26.28071082                7.15965313               73.38539238                0.42737179                1.90075856                3.57097024               -8.16588879               -1.07794114                1.41266502               -0.61516810
              16.66783080               13.31944474               77.22323388                1.00000000                0.02598620                0.05987771               -0.15544171               -0.00278280                0.00417480                0.71365029
              17.66809066               12.82755404               76.75371286                0.41572833                0.00930033               -0.01021024               -0.01544973               -0.05482809                0.05969074               -0.48425257
              18.66801680               12.33429301               76.28537246                0.00010000               -0.16127565               -0.06774443                0.12051893               -0.85354870                6.05119544               -1.33451734
              19.66486515               11.82582906               75.93622211                0.00010000                0.00177774                0.28447594               -1.15346868               -1.83858985               11.68640062               -1.27442186
              20.66805236               11.31027653               75.58367347                0.00010000                0.61897973                0.56141676               -2.41944876               -2.49577776               11.19693133               -1.07682973
              21.67724474               10.78787292               75.22720865                0.00010000                1.16746036                0.93539207               -3.72884008               -3.13186474               10.57372323               -0.85454520
              22.69140157               10.26078455               74.86433765                0.00010000                1.59973363                1.47237417               -5.07640051               -3.52875173                9.63376362               -0.62443742
              23.70923941                9.73287391               74.49116267                0.00010000                1.90447788                2.14246471               -6.39429095               -3.44652004                8.20101101               -0.42027823
              24.72949112                9.20923581               74.10230921                0.00010000                2.09457594                2.80361725               -7.54188892               -2.73643009                6.12275213               -0.32823252
              25.75113093                8.69471387               73.69147184                0.00010000                2.21837829                3.20781963               -8.31370158               -1.48485683                3.34158219               -0.51185655
              26.77385869                8.19202990               73.25257443                0.42826960                2.27277570                3.00244202               -8.48133107               -0.60366026                1.57340101               -1.18109986
              17.16004817               14.32012989               77.08622850                0.92869870                0.04264047                0.07712784               -0.22061358               -0.00218335                0.04088421                0.63498812
              18.16047458               13.82753143               76.61082981                0.33248175                0.04249199                0.00551368               -0.05773245               -0.04659681                0.38661009               -0.49726386
              19.16089801               13.33369597               76.14249841                0.00010000               -0.02875789               -0.06279545                0.06580362               -0.57424436                6.83585159               -1.08537843
              20.15989942               12.82944506               75.79685672                0.00010000                0.18771707                0.33538973               -1.20784071               -1.06378523               12.58891608               -0.82008032
              21.16465235               12.31696757               75.44874981                0.00010000                0.72114554                0.67639415               -2.49316451               -1.44850644               11.98912978               -0.67910869
              22.17432233               11.79840462               75.09554441                0.00010000                1.17198484                1.08498502               -3.81659155               -1.76075865               11.23719602               -0.56106188
              23.18809205               11.27626407               74.73526409                0.00010000                1.55618067                1.57603694               -5.17561488               -1.91836381               10.23856871               -0.44280757
              24.20544594               10.75404538               74.36412059                0.00010000                1.89597090                2.10770200               -6.50654998               -1.79666006                8.76962669               -0.34515813
              25.22601147               10.23576727               73.97662451                0.00010000                2.18830351                2.58390386               -7.67297033               -1.33485813                6.61806352               -0.32313254
              26.24921201                9.72445560               73.56576005                0.00010000                2.39970475                2.85836595               -8.46212649               -0.65276404                3.64058366               -0.47638708
              27.27400556                9.21970197               73.12392872                0.42953819                2.47935496                2.70834353               -8.61330680               -0.20635335                1.73460979               -1.01925927
              17.65298407               15.32098730               76.94783912                0.94473098                0.06085865                0.08574068               -0.29756315               -0.03870935                0.29133630                0.57067228
              18.65359265               14.82766431               76.46841023                0.63298737                0.08171108                0.01328883               -0.09739502               -0.08570262                0.86005854               -0.49811422
              19.65461829               14.33303710               76.00059615                0.37026971                0.33625912               -0.06588655                0.01038152               -0.38434540                7.94656460               -1.08154316
              20.66031783               13.83253686               75.66403137                0.36348937                0.77521908                0.30918018               -1.31452649               -0.41979281               13.59500605               -0.38680976
              21.67012267               13.32380441               75.31913443                0.36084486                1.12076187                0.68368419               -2.61875762               -0.60118042               12.60039704               -0.35380545
              22.68273307               12.80957262               74.96868779                0.36270289                1.36354287                1.11680027               -3.96203973               -0.73388211               11.76949078               -0.31467496
              23.69739353               12.29230529               74.61075970                0.36831692                1.55349699                1.60412215               -5.34254876               -0.79708612               10.73941133               -0.29021045
              24.71380301               11.77502795               74.24184518                0.37846372                1.74951058                2.09825662               -6.70080482               -0.73386334                9.29317738               -0.28509866
              25.73238374               11.26091389               73.85661885                0.39342522                2.01689684                2.51466192               -7.90356365               -0.52011093                7.19120849               -0.32857134
              26.75414095               10.75188119               73.44795458                0.41394913                2.34275734                2.74255867               -8.73960530               -0.24296258                4.14675815               -0.46759731
              27.77923888               10.24619677               73.00596574                0.71521380                2.50979362                2.64947965               -8.89722864               -0.04511007                2.15888361               -0.92485008
              13.18021262                5.46374103               79.31845745                1.00000000               -0.09426284               -0.07138262                0.26519105                0.00738935               -0.38968078                0.48271714
              14.17926999                4.97114185               78.88617219                1.00000000               -0.10961354               -0.09689016                0.34721230                0.01748467               -0.47461932                0.05447768
              15.17802035                4.47832466               78.45166292                1.00000000               -0.13872487               -0.11879176                0.42755164                0.01798606               -0.49685616               -0.04755383
              16.17649549                3.98515257               78.01877917                0.66870664               -0.17692666               -0.14245630                0.50511393               -0.00915312               -0.45498056               -0.28198228
              17.17448182                3.49122494               77.58531481                0.47883542               -0.21271978               -0.16205696                0.58574789               -0.02809325               -0.44363707               -0.29862559
              18.17224110                2.99666368               77.15315235                0.13881901               -1.04600281               -0.20115763                0.66398839               -0.79755397                0.80320670               -0.56006624
              19.15356176                2.48661641               76.74549159                0.00010000               -2.70873790                0.83101291                0.48351925               -4.79319527                9.12087803               -2.66752981
              20.11806634                1.88163285               76.47230614                0.00010000               -0.47555852               -0.67447112               -0.83415268               -4.70648874               16.98698959               -0.05225566
              21.14405059                1.25974449               76.20357440                0.00010000                5.16995771               -1.56405684               -1.77763530               -4.63141064               17.15242649                0.18079581
              22.22146550                0.62523937               75.93099260                1.00000000                4.22937246                0.58988693               -2.43370413               -4.57888671                8.27421754               -0.04894729
              23.22863804                0.08568791               75.49331747                1.00000000                0.71725437                0.53384016               -2.24842394               -0.11744100               -0.01009443               -0.06836427
              13.67288569                6.46302720               79.18067205                1.00000000               -0.07326696               -0.06366908                0.21080121               -0.00506015                0.01948483                0.67320708
              14.67215302                5.97017295               78.74823168                1.00000000               -0.08454187               -0.09157696                0.29401346                0.00560970                0.09317896                0.07784399
              15.67119485                5.47713675               78.31680445                1.00000000               -0.10995955               -0.11464536                0.37571680                0.00479932                0.16156734               -0.23257747
              16.66995383                4.98372801               77.88564196                0.84284196               -0.13747604               -0.14304322                0.46450136               -0.01248910                0.23631978               -0.22499401
              17.66844533                4.48960437               77.45598411                0.70282699               -0.16920035               -0.16433565                0.53746384               -0.03115275                0.21912366               -0.22283582
              18.66656982                3.99465210               77.02509359                0.36247397               -0.26500547               -0.19788312                0.61828773               -0.25062231                0.24970508               -0.40692757
              19.66314522                3.49492654               76.59702223                0.00010000                0.89337961                0.27024406                0.69913817               -5.51836373                8.71337506               -1.50265229
              20.68443741                2.87488814               76.33596030                0.00010000                3.13940000               -1.93771040               -0.71387815               -7.62533928               16.27174991                0.06170353
              21.72593322                2.24410393               76.05539161                0.00010000                3.91337545               -1.19226561               -1.42240747               -6.27107669               15.22512154               -0.23056278
              22.76270492                1.63113824               75.76948341                1.00000000                2.05409377                0.45934197               -1.54001151               -3.51425490                7.58857132               -0.04394873
              23.76701510                1.09102631               75.33159399                1.00000000                0.43101742                0.40387947               -1.37334976               -0.13412023                0.00523522               -0.09911713
              14.16581992                7.46246764               79.04600482                1.00000000               -0.05472796               -0.04444839                0.15452248               -0.00764840                0.15297804                0.78822901
              15.16527264                6.96931031               78.61045804                1.00000000               -0.06293191               -0.08017436                0.24138686                0.00073148                0.34269200                0.00236284
              16.16456128                6.47603176               78.17831613                0.00010000               -0.07472722               -0.10249663                0.32603439               -0.01592276                0.91028465               -0.66657308
              17.16377809                5.98229170               77.75410444                0.00010000               -0.08133060               -0.61867202                0.42556323               -0.29556048                1.24792340                0.02285925
              18.16293467                5.48793822               77.32904581                0.00010000               -0.09358082               -1.06753063                0.48440553               -0.19116656                1.03566954                0.76605145
              19.16190648                4.99270601               76.90135953                0.00010000                0.00118900               -1.75349758                0.57081815                0.22166606                1.04027276                1.84345377
              20.16295845                4.49202129               76.47759375                0.00010000                2.72378474               -3.87468514                0.64739106               -5.44170369                8.75472978                4.09264121
              21.21638217                3.84287864               76.20678653                0.00010000                4.97102515               -2.53674002               -1.10688587              -10.00524720               14.23613971                0.72005503
              22.26237895                3.23589918               75.89998588                0.00010000                4.39379216               -0.65281834               -1.77528109               -8.38834652               13.21489103               -1.15730991
              23.30425802                2.63442621               75.60799487                0.00010000                2.19002769                1.76729282               -0.73744396               -6.20378658                7.29501271               -3.67212361
              24.30617950                2.09376550               75.16990016                0.95436674                0.19214893                3.09958654               -0.58153645               -3.03363607                0.06955540               -1.45677287
              14.65904738                8.46213823               78.90990745                1.00000000               -0.04438504               -0.01963195                0.10090875               -0.00318850                0.25796146                0.66776879
              15.65860353                7.96856946               78.47077938                0.47503665               -0.05761908               -0.07458976                0.19418042                0.01363498                0.43772102               -0.35405547
              16.65789500                7.47508681               78.03492822                0.00010000               -0.32336906               -0.13417058                0.27048695               -0.47110061                1.96686190               -1.17771053
              17.65213615                6.97135456               77.62644462                0.00010000               -0.18436567               -0.93034272               -0.05425914               -1.14645520                3.48945307               -0.05183562
              18.65420769                6.46825375               77.22043454                0.00010000                0.73919589               -1.83888935               -0.37391711               -1.08380968                3.83818574                1.27613264
              19.66692007                5.95958215               76.81970814                0.00010000                2.49654148               -3.27949761               -0.74650971               -2.02574713                5.12318470                3.08950072
              20.70413852                5.41743284               76.44288586                0.00010000                3.67672553               -5.54334009               -1.35642229               -4.84433477                6.68165715                5.44749189
              21.74045458                4.82415334               76.08286676                0.00010000                3.12400993               -1.48246875               -1.97417693               -8.52577474                7.73418474                1.17712003
              22.76661872                4.23104756               75.73822981                0.00010000                2.01541476                0.39155208               -2.10315479               -8.28362371                6.80384682               -1.28766719
              23.78076288                3.66648410               75.37344838                0.00010000                1.05225456                3.20525915               -4.74122949               -5.78904099                2.23296022               -3.68539765
              24.78766381                3.15301804               74.98131590                0.41718676                0.69009327                4.84659286               -2.81528973               -3.24965565                0.85649209               -1.18885603
              15.15289369                9.46207500               78.77230856                1.00000000               -0.02969323                0.00290514                0.04625481               -0.00233360               -0.00696076                0.57363942
              16.15259675                8.96781852               78.32571473                0.35539366               -0.02697612               -0.07186134                0.16402658                0.00118939                0.37174243               -0.53004816
              17.15235416                8.47334835               77.88646064                0.00010000               -0.24573519               -0.20190826                0.22784825               -0.74857407                3.01418595               -1.69235620
              18.14768205                7.96368485               77.49288865                0.00010000                0.03383637               -0.68911598               -0.42171825               -1.54155294                5.43313260               -0.62551614
              19.15303089                7.45116044               77.10193385                0.00010000                1.22651994               -1.48950684               -1.06864112               -2.04606291                5.73444284                0.34053846
              20.17221245                6.92711606               76.71602318                0.00010000                2.42348358               -2.51106820               -1.76054823               -3.54449394                6.04353954                1.27833208
              21.20150056                6.38115449               76.33621696                0.00010000                3.00197542               -2.53245451               -2.47308696               -6.43763119                6.12511083                1.38663469
              22.23225196                5.81322927               75.96065405                0.00010000                2.64375757               -0.51528829               -3.07276805               -8.23482194                5.56206009                0.93904207
              23.25437571                5.24373022               75.58124485                0.00010000                1.71273789                1.58854787               -3.59959713               -7.46789466                3.92262447               -0.18444958
              24.26650672                4.69853140               75.18758724                0.00010000                0.68713991                3.12849847               -3.31325067               -4.53838196                1.80895270               -0.98155675
              25.26811851                4.19069735               74.76971526                0.41810887                0.16117971                3.69273220               -3.51264422               -2.69006413                0.97066693               -2.65224014
              15.64751369               10.46219633               78.63391525                1.00000000               -0.01597089                0.02122228               -0.01032825               -0.00177434                0.00277980                0.58297523
              16.64735398                9.96713223               78.18244049                0.35993696               -0.02282506               -0.06286165                0.12661596               -0.03933553                0.11623703               -0.42599387
              17.64705719                9.47104865               77.73308530                0.00010000               -0.19304882               -0.20130967                0.24187449               -0.96812509                3.71233066               -1.77006326
              18.64349300                8.95757225               77.35378301                0.00010000                0.13990161               -0.50161460               -0.68508810               -2.07351315                7.11052686               -1.08083274
              19.64985522                8.43846362               76.97312721                0.00010000                1.12715657               -0.93141620               -1.57264072               -2.87915951                6.96957861               -0.46881011
              20.66603614                7.90936078               76.59319471                0.00010000                1.97087354               -1.18387713               -2.46365727               -4.38185722                6.77421829                0.00672811
              21.68927269                7.36678375               76.21311626                0.00010000                2.35731379               -0.75478689               -3.32853979               -6.14101159                6.23859356                0.28720812
              22.71318241                6.81384757               75.82952599                0.00010000                2.13430016                0.54589511               -4.08890507               -7.12685214                5.16277272                0.34748516
              23.73195869                6.26281852               75.43678738                0.00010000                1.49228481                2.10581986               -4.58031373               -6.40483235                3.58326729                0.24582013
              24.74302811                5.72905407               75.02874129                0.00010000                0.87859591                3.14171339               -4.82008285               -3.87356957                1.82220741               -0.09882590
              25.74953061                5.22687268               74.60358153                0.41935258                0.65025050                3.41143565               -4.74567720               -1.77962031                1.03006705               -0.97048878
              16.14298640               11.46249945               78.49617429                1.00000000               -0.00286696                0.03873416               -0.06788080               -0.00133985               -0.00002615                0.64891305
              17.14295773               10.96656128               78.03949208                0.38824052               -0.02173731               -0.05092873                0.09292379               -0.05345075                0.02938461               -0.40857485
              18.14255165               10.46932215               77.58332155                0.00010000               -0.20804542               -0.15443329                0.25220898               -1.04377441                4.24606500               -1.53267800
              19.13879682                9.95365256               77.21125200                0.00010000                0.05537558               -0.24122951               -0.85690629               -2.28697859                8.28653495               -1.31286193
              20.14365916                9.43253211               76.83739488                0.00010000                0.87291765               -0.30086990               -1.91173563               -3.13127166                7.98464856               -0.95270465
              21.15625517                8.90343852               76.46167518                0.00010000                1.52671902               -0.18135883               -2.95165777               -4.27720483                7.52776327               -0.60123393
              22.17419354                8.36605875               76.08242531                0.00010000                1.87124874                0.34563287               -3.95631430               -5.35520010                6.74773873               -0.29451242
              23.19368015                7.82414717               75.69628921                0.00010000                1.84395133                1.30697368               -4.84727200               -5.74107573                5.54822212               -0.05208087
              24.21107257                7.28584662               75.29887355                0.00010000                1.56505050                2.38010899               -5.52455850               -4.93320908                3.95299416                0.07688117
              25.22498116                6.76136566               74.88604603                0.00010000                1.29081541                3.11424931               -5.88663126               -2.85655270                2.06609409               -0.06470139
              26.23688888                6.25892607               74.45437739                0.42008064                1.19077207                3.03537588               -5.87993122               -1.25790441                1.00873979               -0.86293991
              16.63936323               12.46297102               78.35879134                1.00000000                0.00990366                0.05509829               -0.12487414               -0.00051776                0.00216519                0.68644389
              17.63946226               11.96611366               77.89671302                0.41478645               -0.01364005               -0.03862567                0.06146188               -0.05263592                0.02915139               -0.41613372
              18.63909043               11.46795998               77.43516605                0.00010000               -0.24593950               -0.12712482                0.25215697               -0.96634654                4.74555870               -1.46963259
              19.63454347               10.95274766               77.06778396                0.00010000               -0.08232994                0.04338544               -0.96444766               -2.12320946                9.25575058               -1.33749781
              20.63744383               10.43244622               76.69873491                0.00010000                0.62109617                0.20662623               -2.13001804               -2.85440831                8.87952608               -1.11554306
              21.64696540                9.90573361               76.32650030                0.00010000                1.20081065                0.48466674               -3.27376964               -3.68129035                8.29230093               -0.84536222
              22.66146004                9.37369641               75.94897994                0.00010000                1.58038173                0.98784408               -4.37904651               -4.29064245                7.40580736               -0.57334422
              23.67857303                8.83998704               75.56291539                0.00010000                1.73079885                1.70016994               -5.37926578               -4.33008648                6.13357603               -0.33772901
              24.69607602                8.31042070               75.16425237                0.00010000                1.71222886                2.43086128               -6.16796853               -3.55567798                4.44609045               -0.22631383
              25.71281761                7.79133905               74.74876196                0.00010000                1.65878518                2.86373110               -6.62266971               -2.00370471                2.37205070               -0.41525361
              26.72925172                7.28758020               74.31279157                0.42124529                1.64341120                2.68127411               -6.63073953               -0.84955569                1.13372849               -1.11576792
              17.13669076               13.46360142               78.22152617                1.00000000                0.02252871                0.06996761               -0.18379860                0.00013835                0.00624574                0.68650507
              18.13691604               12.96578877               77.75382750                0.44591755               -0.00500153               -0.02655958                0.03489982               -0.04696821                0.06167285               -0.45179332
              19.13659073               12.46677966               77.28729976                0.00010000               -0.25348241               -0.11047181                0.25239495               -0.74718337                5.31987206               -1.26523605
              20.13184640               11.95452027               76.92523299                0.00010000               -0.15028403                0.26958435               -1.03913278               -1.63847920               10.21972624               -1.18714313
              21.13358505               11.43666464               76.56013995                0.00010000                0.47663917                0.55015468               -2.27347609               -2.22597648                9.70262692               -0.99890092
              22.14137918               10.91313185               76.19109742                0.00010000                1.02711058                0.87512798               -3.48413789               -2.77584398                9.02074034               -0.79456818
              23.15412726               10.38581564               75.81574536                0.00010000                1.44874749                1.31472161               -4.65493441               -3.08571650                8.06060382               -0.58969566
              24.17035413                9.85815057               75.43085646                0.00010000                1.72398719                1.84161800               -5.72233991               -2.96065041                6.72274568               -0.42036059
              25.18860700                9.33446385               75.03229216                0.00010000                1.86967155                2.33693372               -6.57624394               -2.30449445                4.92698602               -0.37037388
              26.20774756                8.81864029               74.61543437                0.00010000                1.94042366                2.60545116               -7.07414992               -1.22476730                2.65460503               -0.57949420
              27.22741547                8.31255155               74.17592232                0.42238107                1.96679143                2.37538138               -7.07536194               -0.47731769                1.25956945               -1.21717237
              17.63499129               14.46437037               78.08393090                0.94658492                0.03533727                0.08343356               -0.23776985               -0.00004597                0.03328240                0.60262657
              18.63534466               13.96558247               77.61060101                0.36040115                0.02119878               -0.01483567                0.00778113               -0.03864061                0.36140961               -0.46153124
              19.63541526               13.46575055               77.14396893                0.00010000               -0.17278749               -0.10588630                0.21416391               -0.43627640                6.05724333               -1.02777598
              20.63188891               12.95813934               76.78521722                0.00010000               -0.05512754                0.38568403               -1.11107529               -0.90141885               11.07903583               -0.75404360
              21.63431271               12.44344931               76.42419344                0.00010000                0.52043043                0.70674965               -2.39465729               -1.28214903               10.45939666               -0.60677236
              22.64229752               11.92323617               76.05808837                0.00010000                1.02071429                1.06250698               -3.64860708               -1.57036225                9.66113450               -0.48682122
              23.65472700               11.39999084               75.68501288                0.00010000                1.42071480                1.47032162               -4.86164250               -1.69248962                8.64486098               -0.36838558
              24.67071181               10.87681940               75.30182001                0.00010000                1.73847060                1.89422865               -5.97206837               -1.56093614                7.26376993               -0.27267631
              25.68949641               10.35715937               74.90425950                0.00010000                1.97613735                2.25373724               -6.86752899               -1.13869050                5.38479471               -0.25437024
              26.71023456                9.84344808               74.48711851                0.00010000                2.11932167                2.43240111               -7.39124588               -0.54514207                2.92340204               -0.40395100
              27.73188284                9.33508783               74.04489177                0.42337077                2.16482815                2.25600061               -7.36937580               -0.15490301                1.39172630               -0.88436340
              18.13426564               15.46527009               77.94484096                0.95322270                0.04974148                0.08997175               -0.30233614               -0.05036781                0.28154485                0.53166564
              19.13476305               14.96549206               77.46785792                0.64299617                0.05213428               -0.00904123               -0.01848368               -0.08856838                0.80860500               -0.45806072
              20.13530832               14.46466193               77.00162340                0.36927458                0.06780998               -0.10886173                0.17829906               -0.17359921                7.09171834               -1.01612064
              21.13611925               13.96223395               76.65123369                0.36323917                0.37684580                0.40946047               -1.22992568               -0.27008061               12.00773449               -0.35154083
              22.14284524               13.45079963               76.29311496                0.36084094                0.86555774                0.73503170               -2.54952137               -0.53934477               11.01986937               -0.31097832
              23.15343041               12.93438199               75.92945561                0.36253102                1.19244930                1.11458261               -3.83908201               -0.66558901               10.14450225               -0.26674464
              24.16669423               12.41522207               75.55840439                0.36773613                1.42682330                1.52312302               -5.08817789               -0.72061970                9.09149303               -0.23433059
              25.18196687               11.89603514               75.17706215                0.37685662                1.62551456                1.92157348               -6.23829197               -0.65866788                7.72023846               -0.21823574
              26.19920452               11.37953859               74.78132766                0.39044885                1.84746935                2.23792203               -7.17784085               -0.46653071                5.87291666               -0.24806833
              27.21891626               10.86728831               74.36590056                0.40914714                2.09166983                2.38402299               -7.74685984               -0.22518149                3.34444321               -0.36792848
              28.24103791               10.35767156               73.92346021                0.71203390                2.21216533                2.25837327               -7.72923201               -0.04616755                1.72590011               -0.74554556
              13.60818002                5.60660899               80.32051194                1.00000000               -0.06864806               -0.03794420                0.14908662                0.01907839               -0.39104642                0.47977202
              14.60749353                5.10989448               79.88936220                1.00000000               -0.09300157               -0.08199525                0.29144588                0.02736836               -0.47854292                0.05509433
              15.60631998                4.61298455               79.45596607                1.00000000               -0.13972552               -0.12141143                0.43061685                0.02771450               -0.50361631               -0.04380182
              16.60469902                4.11574768               79.02416986                0.67616322               -0.19368469               -0.16375225                0.56759944                0.00291661               -0.46037479               -0.26807312
              17.60244629                3.61783070               78.59182093                0.48610531               -0.24562939               -0.20343132                0.70690613               -0.01334336               -0.44478715               -0.29459649
              18.59978644                3.11934845               78.16080257                0.14794086               -0.85441507               -0.26096907                0.85431511               -0.60949889                0.62956757               -0.56184592
              19.58535799                2.60886251               77.75073720                0.00010000               -2.10360706                0.51748397                0.60435857               -4.25483963                8.32232700               -2.27341809
              20.55771430                2.01597249               77.46533649                0.00010000               -0.02692467               -0.88562029               -0.56962617               -4.12593916               15.60618959               -0.22531935
              21.58481950                1.40674936               77.18673379                0.00010000                5.04012333               -1.59683299               -1.59941124               -4.13108437               15.98119720               -0.04471166
              22.65851676                0.78174540               76.90683248                1.00000000                4.02132300                0.61569181               -2.35697446               -4.12030755                7.80269922                0.02750493
              23.66524596                0.24217505               76.47152006                1.00000000                0.67291937                0.52138869               -2.06185627               -0.06053085               -0.02067084               -0.02070314
              14.10508531                6.60622955               80.18223925                1.00000000               -0.05058708               -0.03242301                0.10568454               -0.00271426                0.01667902                0.66694535
              15.10457944                6.10907453               79.75094746                1.00000000               -0.07073914               -0.07849499                0.24951345                0.00644537                0.08869611                0.07854963
              16.10367053                5.61177043               79.32064901                1.00000000               -0.11371625               -0.11927537                0.39070146                0.00511305                0.16044518               -0.22564998
              17.10230512                5.11411016               78.89068392                0.85950534               -0.15790294               -0.16623700                0.53859866               -0.01033412                0.23482606               -0.20693893
              18.10051247                4.61579638               78.46209475                0.71758568               -0.20647884               -0.20793282                0.67703302               -0.02690219                0.22151494               -0.21631592
              19.09817554                4.11673876               78.03237737                0.38185063               -0.30074495               -0.26188021                0.82948031               -0.19281884                0.26909670               -0.40285861
              20.09449757                3.61403735               77.60559955                0.00010000                0.96679702                0.06887926                1.00169787               -4.87474747                7.95183431               -1.33466533
              21.11751148                3.00711629               77.33003755                0.00010000                3.30623143               -2.02023152               -0.48685137               -6.66769980               15.01986433               -0.27861954
              22.16062220                2.39078103               77.04158660                0.00010000                4.10446789               -1.28852392               -1.35240322               -5.50897300               14.53382597               -0.75993737
              23.19960084                1.78790231               76.75385752                0.91955433                2.17943943                0.51485383               -1.71456781               -3.01894423                7.36390607                0.00475107
              24.20421099                1.24738894               76.31810830                1.00000000                0.46101509                0.42610443               -1.42930251               -0.10950963                0.01770100               -0.08695659
              14.60243578                7.60596053               80.04706771                1.00000000               -0.03542169               -0.01781670                0.06093633               -0.00552810                0.14894552                0.77923489
              15.60208156                7.10832458               79.61270761                1.00000000               -0.05245807               -0.07038911                0.20863650                0.00101805                0.33723732                0.00579602
              16.60138662                6.61059904               79.18172708                0.00010000               -0.08075837               -0.11135070                0.35355694               -0.01722179                0.91211954               -0.65972383
              17.60046639                6.11242294               78.75880904                0.00010000               -0.10534866               -0.62072070                0.51047249               -0.28085654                1.24589257               -0.17105356
              18.59927964                5.61367204               78.33470412                0.00010000               -0.13886510               -1.05005250                0.64104957               -0.18358187                1.04034057                0.37892520
              19.59768909                5.11411085               77.90826099                0.00010000               -0.08970664               -1.67329658                0.80345338                0.22169746                1.07141994                1.23433785
              20.59748551                4.61024010               77.48580382                0.00010000                2.49637653               -3.58192799                0.98489249               -4.71473044                7.85680973                3.11836693
              21.64761662                3.97556786               77.19742466                0.00010000                4.81842508               -2.47778481               -0.83119482               -8.83651420               12.92758886               -0.02593001
              22.69385401                3.38097888               76.88273401                0.00010000                4.69566710               -0.72120561               -1.63811666               -7.47001032               13.20057033               -1.94816504
              23.74152996                2.79204247               76.59989251                0.00010000                2.51142487                1.47444338               -1.09673946               -6.10550614                7.61676035               -5.03299193
              24.74408251                2.25069714               76.16366034                0.51908696                0.25525451                3.00158923               -0.83170165               -4.01749917                0.07748111               -3.39321306
              15.10024666                8.60587322               79.91049716                1.00000000               -0.02853598                0.00219579                0.01975822               -0.00095694                0.25036848                0.65566941
              16.09996130                8.10766675               79.47261856                0.49349664               -0.05094602               -0.06834536                0.17369995                0.01169600                0.42133733               -0.33755249
              17.09922774                7.60954342               79.03784208                0.00010000               -0.31731544               -0.14615523                0.30925593               -0.45159017                1.74732436               -1.16330767
              18.09361499                7.10169574               78.62652540                0.00010000               -0.20374047               -0.91765270                0.06420724               -1.08811845                3.05253732               -0.41843308
              19.09515293                6.59479533               78.21777325                0.00010000                0.62132224               -1.75853617               -0.17070030               -0.99836401                3.36692573                0.55577141
              20.10604143                6.08327283               77.81391664                0.00010000                2.17965108               -3.04051523               -0.44288934               -1.78937167                4.50372781                1.97276487
              21.13874595                5.54239879               77.43146165                0.00010000                3.20004905               -5.03189944               -0.97403326               -4.19167293                6.00492056                3.88101617
              22.17004241                4.95756059               77.06610509                0.00010000                2.80007183               -1.37124865               -1.55111706               -7.42742009                7.27542419                0.02780310
              23.19474738                4.37635692               76.71719965                0.00010000                1.88650196                0.34378370               -2.06871469               -7.58523843                6.74912961               -2.43268664
              24.20777245                3.81739118               76.34374408                0.00010000                0.59021409                2.84503191               -2.65695312               -6.01501861                4.10958100               -7.37329650
              25.20655167                3.30742073               75.94259624                0.41178396               -0.12207863                4.66390563               -3.25476553               -3.56585658                2.40621168               -6.07915044
              15.59882958                9.60600445               79.77241596                1.00000000               -0.01843031                0.02051040               -0.02184645               -0.00057221               -0.00360028                0.55733833
              16.59864528                9.10695767               79.32734617                0.37796303               -0.02518833               -0.07065948                0.16054826               -0.00236048                0.34567409               -0.50717415
              17.59832582                8.60767594               78.88903858                0.00010000               -0.25965839               -0.21326560                0.28361489               -0.71473633                2.60953528               -1.63457785
              18.59345211                8.09406989               78.48940072                0.00010000               -0.02952696               -0.68502141               -0.28342147               -1.45765737                4.64271379               -0.88112227
              19.59773528                7.57850132               78.09248774                0.00010000                1.04230438               -1.41646652               -0.83871445               -1.86562680                4.89674029               -0.20635968
              20.61429820                7.05330054               77.70031171                0.00010000                2.08145050               -2.31854842               -1.42142786               -3.13083557                5.17369486                0.44740477
              21.63936429                6.50960211               77.31415732                0.00010000                2.54059480               -2.29492859               -2.02059739               -5.59405510                5.33966405                0.36406570
              22.66511010                5.94814289               76.93315077                0.00010000                2.14771845               -0.45127827               -2.55880540               -6.99499220                5.04266933               -0.31836371
              23.68231866                5.38785455               76.54955693                0.00010000                1.25278432                1.37738421               -2.96583380               -6.33076494                3.99520626               -1.97419444
              24.69016578                4.84894311               76.15472161                0.00010000                0.51938171                2.89358538               -3.16881247               -3.72646977                2.08144768               -3.26146022
              25.69270629                4.34397526               75.73788765                0.41273027                0.25405079                3.14573074               -3.22053739               -1.62848956                1.04976280               -4.36371550
              16.09832876               10.60628343               79.63353462                1.00000000               -0.00861627                0.03571747               -0.06430980               -0.00126493                0.00339111                0.56260209
              17.09824260               10.10625356               79.18376062                0.38525475               -0.02539829               -0.06684314                0.13590481               -0.03877370                0.10729209               -0.40605319
              18.09782080                9.60527811               78.73591494                0.00010000               -0.23030702               -0.21776399                0.31881215               -0.91244070                3.17386144               -1.68097791
              19.09363646                9.08799532               78.34770543                0.00010000                0.03944679               -0.50055198               -0.53875394               -1.93342185                6.03246691               -1.22577384
              20.09860973                8.56646600               77.95866635                0.00010000                0.93437346               -0.88524310               -1.33758244               -2.59353551                5.87917148               -0.82556883
              21.11232393                8.03690186               77.57052382                0.00010000                1.67063829               -1.09896499               -2.11228447               -3.84330642                5.68544299               -0.55095993
              22.13202250                7.49650022               77.18268134                0.00010000                1.97830970               -0.70539878               -2.84086916               -5.25711528                5.24322022               -0.48239734
              23.15189012                6.94853503               76.79246090                0.00010000                1.76546829                0.43102451               -3.45945306               -5.92724477                4.42703125               -0.71140858
              24.16733186                6.40390460               76.39548752                0.00010000                1.26161159                1.71161977               -3.86852814               -5.07389758                3.19229461               -1.17012592
              25.17712236                5.87526289               75.98625166                0.00010000                0.82928609                2.51811097               -4.01562580               -2.86000562                1.64638402               -1.85445108
              26.18391759                5.37033534               75.56074665                0.41356833                0.67952312                2.50831997               -4.02565629               -1.24619825                0.85138871               -2.78867265
              16.59886402               11.60671880               79.49527160                1.00000000                0.00111010                0.05129523               -0.11119663               -0.00011835                0.00072481                0.62343822
              17.59887512               11.10562081               79.04052964                0.41585550               -0.02643896               -0.05880101                0.11303566               -0.05065097                0.03193163               -0.38403701
              18.59833524               10.60332066               78.58632949                0.00010000               -0.26396719               -0.17990606                0.33973099               -0.96492582                3.61176938               -1.44804113
              19.59359578               10.08405885               78.20343568                0.00010000               -0.06886116               -0.24853615               -0.71316133               -2.09798833                7.00481417               -1.36286242
              20.59695802                9.56079645               77.81945743                0.00010000                0.69010368               -0.28913482               -1.68999704               -2.79306963                6.70572520               -1.14306167
              21.60739785                9.03132124               77.43401033                0.00010000                1.28153964               -0.17672838               -2.61652781               -3.72788116                6.25530627               -0.93857909
              22.62258881                8.49549413               77.04564185                0.00010000                1.58814827                0.27647130               -3.47234946               -4.56056145                5.55489779               -0.80402857
              23.63916082                7.95676338               76.65170321                0.00010000                1.57620152                1.06696158               -4.19437588               -4.75353026                4.54440977               -0.77321232
              24.65411284                7.42208695               76.24866764                0.00010000                1.36870547                1.89227165               -4.70435453               -3.95673202                3.23271094               -0.89715147
              25.66653493                6.89930533               75.83292010                0.00010000                1.17622893                2.36714523               -4.95095877               -2.22313021                1.69551979               -1.25974084
              26.67763742                6.39414166               75.40174878                0.41463310                1.11024934                2.27287515               -4.89988734               -0.94593869                0.85738847               -2.03375861
              17.10052237               12.60730933               79.35736120                1.00000000                0.01053523                0.06582463               -0.15914340                0.00127220                0.00251283                0.65714947
              18.10062772               12.10507754               78.89749776                0.44394369               -0.02190630               -0.04953138                0.09277627               -0.04769719                0.03309116               -0.38566378
              19.10008425               11.60167999               78.43822856                0.00010000               -0.32134141               -0.15676238                0.34939542               -0.86897177                4.04022636               -1.38452869
              20.09420090               11.08302459               78.05882294                0.00010000               -0.22991512                0.02970479               -0.83200021               -1.90864877                7.83298500               -1.32045177
              21.09548594               10.56068331               77.67844414                0.00010000                0.44338661                0.20217651               -1.93575074               -2.51874233                7.46415981               -1.18017718
              22.10306863               10.03336729               77.29535911                0.00010000                0.99415948                0.45361233               -2.97815197               -3.19986899                6.88316849               -1.00432361
              23.11536913                9.50202965               76.90766576                0.00010000                1.35790366                0.87317856               -3.93928699               -3.66136233                6.05781595               -0.84388169
              24.13022670                8.96987426               76.51272113                0.00010000                1.51430704                1.43993456               -4.76154326               -3.61464522                4.94886241               -0.74209571
              25.14565527                8.44175003               76.10736378                0.00010000                1.51891719                1.98671251               -5.36423792               -2.89641899                3.55100375               -0.76989962
              26.16060505                7.92260579               75.68836060                0.00010000                1.48354450                2.27310509               -5.66311770               -1.59496227                1.88448525               -1.04518781
              27.17532616                7.41579284               75.25277759                0.41569649                1.47211187                2.07223011               -5.59412468               -0.65945715                0.91559271               -1.72493969
              17.60335306               13.60803529               79.21955791                1.00000000                0.01974694                0.07791538               -0.20795061                0.00205010                0.00799292                0.65674710
              18.60355052               13.10463018               78.75441086                0.47823979               -0.01721511               -0.04035780                0.07778615               -0.04064358                0.06344026               -0.41631408
              19.60300875               12.60018541               78.29042036                0.00010000               -0.35655196               -0.14315911                0.36045368               -0.63174062                4.55200868               -1.18998682
              20.59641949               12.08465294               77.91543946                0.00010000               -0.33841403                0.26694479               -0.92061851               -1.41453447                8.68986903               -1.13470377
              21.59624047               11.56483998               77.53820395                0.00010000                0.28173245                0.55869061               -2.11292911               -1.93881299                8.19009882               -0.98776705
              22.60205413               11.04039349               77.15752590                0.00010000                0.83070636                0.84713544               -3.23992302               -2.41126654                7.51480481               -0.83356996
              23.61285460               10.51295770               76.77123897                0.00010000                1.25466964                1.21038443               -4.28112820               -2.64714630                6.60854674               -0.68895109
              24.62714753                9.98556207               76.37671587                0.00010000                1.52991654                1.62559525               -5.17948668               -2.49442434                5.42516346               -0.58779017
              25.64345293                9.46182120               75.97078433                0.00010000                1.67226728                1.99471674               -5.84671169               -1.90205263                3.92469749               -0.60074537
              26.66059287                8.94476743               75.54998885                0.00010000                1.73106249                2.16523026               -6.17976131               -0.98960991                2.09888664               -0.83776899
              27.67807418                8.43558626               75.11106719                0.41646877                1.74813072                1.93419857               -6.08670119               -0.36974659                1.00898339               -1.41892750
              18.10737359               14.60886764               79.08147310                0.96659579                0.02911459                0.08825982               -0.25162169                0.00167336                0.02655443                0.56835132
              19.10766474               14.10427038               78.61098544                0.39042549                0.00265426               -0.03204511                0.06363893               -0.03095264                0.33501879               -0.42286561
              20.10742668               13.59881680               78.14678169                0.00010000               -0.32045524               -0.13898352                0.33475604               -0.29193799                5.22412667               -0.96053127
              21.10125563               13.08836349               77.77463521                0.00010000               -0.32287697                0.44100772               -1.00246022               -0.71990999                9.46931339               -0.70891912
              22.10096914               12.57185712               77.40085667                0.00010000                0.27349736                0.74509114               -2.26283309               -1.09979104                8.86921695               -0.57652414
              23.10672558               12.05031000               77.02257227                0.00010000                0.81442450                1.05548790               -3.44972758               -1.36701158                8.08249941               -0.47678798
              24.11725763               11.52623733               76.63803124                0.00010000                1.23745702                1.39389802               -4.54852163               -1.45807955                7.11689292               -0.38284469
              25.13147472               11.00238617               76.24467922                0.00010000                1.55756174                1.73084445               -5.50217949               -1.32279930                5.88478341               -0.31374871
              26.14840886               10.48164437               75.83927393                0.00010000                1.77865351                1.99975051               -6.21731657               -0.94625176                4.30428364               -0.31739205
              27.16704779                9.96591040               75.41793514                0.00010000                1.89423609                2.10955521               -6.57492132               -0.44315833                2.31680153               -0.46744489
              28.18629358                9.45447682               74.97654120                0.41751948                1.92457935                1.92813575               -6.45616850               -0.11518858                1.10900380               -0.88725429
              18.61258104               15.60980049               78.94179240                0.96290643                0.04012682                0.09328498               -0.30547735               -0.06037585                0.27103959                0.49065156
              19.61298231               15.10398928               78.46804055                0.65561665                0.02479243               -0.02810991                0.04891854               -0.08798045                0.75554999               -0.41563404
              20.61307689               14.59740574               78.00416213                0.36856485               -0.20006671               -0.14110661                0.31442239                0.03921190                6.16769678               -0.93869544
              21.60898097               14.09347310               77.63943286                0.36304211               -0.03893747                0.51096088               -1.12301248               -0.11066246               10.29627861               -0.32085954
              22.61229814               13.57974181               77.26814400                0.36095644                0.56763575                0.78846887               -2.42663375               -0.46559227                9.36019006               -0.28394802
              23.62033369               13.06150325               76.89190615                0.36244445                0.96593542                1.11932457               -3.65432430               -0.58449626                8.49910706               -0.24630598
              24.63161685               12.54083566               76.50899614                0.36720780                1.24754102                1.45983297               -4.79232818               -0.63029239                7.49327345               -0.21970147
              25.64528451               12.02017896               76.11707934                0.37527241                1.46934081                1.77927949               -5.78636241               -0.56999383                6.26231510               -0.20764863
              26.66100366               11.50181621               75.71306203                0.38779964                1.68063760                2.01718415               -6.54293722               -0.40154108                4.70418823               -0.23684379
              27.67889726               10.98695854               75.29301738                0.40453478                1.88169579                2.10481371               -6.93854580               -0.19841480                2.66020102               -0.34488405
              28.69863758               10.47414897               74.85138110                0.70905968                1.97403180                1.96721571               -6.82182871               -0.04655693                1.37669573               -0.66122650
              14.03469117                5.74988183               81.32143918                1.00000000               -0.04461713               -0.00714966                0.04028322                0.03030790               -0.39386657                0.47750216
              15.03424500                5.24907322               80.89200111                1.00000000               -0.07754023               -0.06746858                0.23728521                0.03726514               -0.48521685                0.05626126
              16.03314036                4.74808275               80.46027525                1.00000000               -0.14059282               -0.12200159                0.42877394                0.03718226               -0.51418476               -0.03959108
              17.03143314                4.24676299               80.03013115                0.68339153               -0.20935005               -0.18129489                0.61888522                0.01227834               -0.47005452               -0.25605939
              18.02895336                3.74478538               79.59945293                0.49605597               -0.27584806               -0.23905174                0.80874451               -0.00141085               -0.44589484               -0.28920420
              19.02591618                3.24227715               79.17023865                0.16392358               -0.67394889               -0.31406484                1.01908830               -0.41502300                0.41939515               -0.56441994
              20.01547438                2.73142336               78.75757877                0.00010000               -1.58613163                0.17432582                0.83045403               -3.82290669                7.39719741               -1.84950509
              20.99419355                2.14772433               78.46091362                0.00010000                0.33520768               -1.04967593               -0.32709755               -3.64852596               14.17709541               -0.38616760
              22.02217854                1.54914464               78.17158618                0.00010000                4.92698322               -1.62396823               -1.42078088               -3.73812335               14.69009632               -0.21400428
              23.09273321                0.93173940               77.88385312                1.00000000                3.83354634                0.64338385               -2.24530630               -3.77955024                7.22792866                0.00394523
              24.09884946                0.39209737               77.45208035                1.00000000                0.61162543                0.50495243               -1.83454216                0.03760667               -0.02054156               -0.04694068
              14.53580286                6.74981033               81.18278574                1.00000000               -0.02856748               -0.00436960                0.00702838                0.00021276                0.01320610                0.66127827
              15.53551719                6.24839853               80.75322195                1.00000000               -0.05677810               -0.06590438                0.20586686                0.00827106                0.08292319                0.07990968
              16.53466730                5.74686274               80.32461848                1.00000000               -0.11562864               -0.12192716                0.40051125                0.00566934                0.15755689               -0.21774132
              17.53320461                5.24495004               79.89641393                0.87364341               -0.17425624               -0.18669209                0.60156656               -0.00910567                0.23521921               -0.19078606
              18.53118217                4.74239486               79.46952477                0.73295254               -0.23788288               -0.24735752                0.80056268               -0.02386856                0.23365237               -0.20875187
              19.52844695                4.23913650               79.04168320                0.40781319               -0.33302224               -0.32118259                1.02190223               -0.14546174                0.31080221               -0.39963856
              20.52452173                3.73316662               78.61705618                0.00010000                1.02003463               -0.14484154                1.27485653               -4.32261713                7.13722582               -1.12647494
              21.54884765                3.13722757               78.32622328                0.00010000                3.41340217               -2.07159165               -0.30113057               -5.82257254               13.57269801               -0.60973728
              22.59278977                2.53290496               78.02834354                0.00010000                4.23068490               -1.39109076               -1.28500854               -4.86551842               13.52227806               -1.13614422
              23.63346135                1.93817323               77.73519206                0.87061190                2.30388938                0.60702092               -1.98361949               -2.64121958                6.92701019               -0.00565203
              24.63886756                1.39714689               77.30300794                1.00000000                0.54062140                0.46579624               -1.55041979               -0.03543440                0.01657606               -0.10844216
              15.03751903                7.74979444               81.04722355                1.00000000               -0.01610162                0.00465179               -0.02667496               -0.00347651                0.14446156                0.77106399
              16.03735801                7.24775513               80.61463077                1.00000000               -0.04083952               -0.06093400                0.17612254                0.00089743                0.33138113                0.01018769
              17.03670224                6.74564421               80.18538727                0.00010000               -0.08195527               -0.11767853                0.37557540               -0.02293115                0.91302845               -0.65219964
              18.03571891                6.24302915               79.76431389                0.00010000               -0.12063540               -0.62779066                0.58481743               -0.28774327                1.25190803               -0.35701391
              19.03428953                5.73983823               79.34186680                0.00010000               -0.17418629               -1.04046494                0.78504222               -0.21014297                1.06645469                0.00285784
              20.03223518                5.23585350               78.91742860                0.00010000               -0.16792774               -1.60748882                1.02409855                0.17737905                1.14298408                0.63474737
              21.03093097                4.72852653               78.49729160                0.00010000                2.28842885               -3.32334832                1.30152934               -4.10171262                6.91174827                2.12540917
              22.07800376                4.10629250               78.19016264                0.00010000                4.64957661               -2.41221416               -0.65604923               -7.79131473               11.44670571               -0.70964402
              23.12392251                3.52132283               77.86722354                0.00010000                4.88315648               -0.86670258               -1.47116509               -6.56200653               12.71114890               -2.66941416
              24.17566689                2.94387981               77.58606008                0.00010000                2.81354773                1.30079163               -1.68370166               -5.79064848                7.54139020               -5.76392755
              25.18019346                2.40141329               77.15326613                0.40621908                0.45265742                3.00304166               -1.22496116               -4.28584398                0.07743963               -4.46634029
              15.53981195                8.74990337               80.91030262                1.00000000               -0.01265876                0.01949351               -0.05578265               -0.00024024                0.24183316                0.64480234
              16.53968536                8.24717985               80.47425337                0.51279782               -0.04386468               -0.06110733                0.15305535                0.00677047                0.40320500               -0.31844748
              17.53893465                7.74450917               80.04111334                0.00010000               -0.32148138               -0.15301405                0.34175788               -0.44987668                1.53503923               -1.14569729
              18.53325573                7.23239423               79.62772876                0.00010000               -0.23898456               -0.90733882                0.16749873               -1.07776774                2.64370841               -0.77409523
              19.53415496                6.72158556               79.21702053                0.00010000                0.50252482               -1.68490423                0.00324605               -0.98211634                2.94074978               -0.15344722
              20.54330623                6.20698673               78.81085035                0.00010000                1.89467582               -2.81982589               -0.19600986               -1.65521593                3.93668613                0.86914928
              21.57204848                5.66669966               78.42340520                0.00010000                2.84594152               -4.56552090               -0.69147534               -3.67398154                5.28529362                2.32574290
              22.60022506                5.08898329               78.05184442                0.00010000                2.59569229               -1.28931538               -1.33891268               -6.57133816                6.61698869               -0.96911107
              23.62396232                4.51557091               77.69685552                0.00010000                1.86664259                0.23178190               -1.96223023               -6.80038652                6.27622411               -3.47666076
              24.63755791                3.96418907               77.32030931                0.00010000                0.70606991                2.34574001               -2.22055006               -5.71125617                3.89354787               -8.64480560
              25.63808372                3.45720772               76.91622059                0.40658053                0.05258123                4.19296689               -2.36710650               -3.56872228                2.68828891               -7.72472796
              16.04296126                9.75018431               80.77187163                1.00000000               -0.00736380                0.03446855               -0.08449238                0.00074653                0.00033051                0.54155704
              17.04288762                9.24653298               80.32892569                0.40300016               -0.02354674               -0.06760716                0.15448354               -0.00831153                0.31878167               -0.48076296
              18.04249032                8.74258393               79.89213294                0.00010000               -0.29002311               -0.21854925                0.33161220               -0.69978306                2.21297510               -1.56804651
              19.03708716                8.22488237               79.48722022                0.00010000               -0.12178102               -0.66862103               -0.16483359               -1.41542939                3.88456486               -1.14117617
              20.04005470                7.70614014               79.08515956                0.00010000                0.84648035               -1.33015008               -0.64950450               -1.74800437                4.11380781               -0.76360066
              21.05401677                7.17945698               78.68759462                0.00010000                1.77000395               -2.11718790               -1.16221186               -2.82501237                4.36967304               -0.38883877
              22.07545478                6.63721611               78.29580501                0.00010000                2.18444879               -2.05241906               -1.71408055               -4.93996279                4.58834090               -0.62946047
              23.09770574                6.08050619               77.90947795                0.00010000                1.86271072               -0.39581651               -2.25599909               -6.12829284                4.48537947               -1.42437142
              24.11270900                5.52595846               77.52192817                0.00010000                1.10496026                1.23671892               -2.66149801               -5.58300375                3.73965999               -3.22081692
              25.11980495                4.99079461               77.12421099                0.00010000                0.50363507                2.47887453               -2.92875695               -3.37735432                2.14036874               -4.60898238
              26.12278170                4.48527263               76.70530451                0.40748529                0.29767518                2.50151883               -3.04091657               -1.57796468                1.13810815               -5.69389671
              16.54712953               10.75059274               80.63262906                1.00000000               -0.00100229                0.04786678               -0.11464649               -0.00032539                0.00392713                0.54085532
              17.54711951               10.24582771               80.18515859                0.41224096               -0.02699640               -0.06947935                0.14207958               -0.04018518                0.10010366               -0.38417441
              18.54658960                9.74013818               79.73946154                0.00010000               -0.28642866               -0.22681099                0.38237980               -0.87076120                2.64073553               -1.58693117
              19.54139093                9.21902181               79.34300793                0.00010000               -0.09846677               -0.48022873               -0.41322406               -1.82388102                4.97792003               -1.38812875
              20.54462027                8.69498256               78.94637557                0.00010000                0.71695370               -0.81235246               -1.14444483               -2.36172623                4.84230602               -1.21204873
              21.55573001                8.16464297               78.55094902                0.00010000                1.37898752               -0.98126683               -1.84634005               -3.40855886                4.67757993               -1.13819364
              22.57220002                7.62565127               78.15629888                0.00010000                1.65934225               -0.61111762               -2.50677313               -4.57160912                4.33997696               -1.25518653
              23.58891685                7.08106696               77.76033693                0.00010000                1.49069046                0.39582509               -3.06935751               -5.07545863                3.74155893               -1.68097922
              24.60201383                6.54030529               77.35941682                0.00010000                1.08899035                1.50344342               -3.46583578               -4.27497494                2.79616489               -2.36231032
              25.61069666                6.01376656               76.94842877                0.00010000                0.77772858                2.16336449               -3.65049399               -2.35308585                1.49692525               -3.19741973
              26.61756840                5.50723810               76.52306841                0.40830754                0.68717378                2.04736615               -3.63117453               -0.97296539                0.79907111               -3.94349518
              17.05248482               11.75114164               80.49395035                1.00000000                0.00536577                0.06174783               -0.15098804                0.00071606                0.00092307                0.59623147
              18.05253847               11.24514339               80.04175279                0.44406833               -0.03019090               -0.06542707                0.12940192               -0.04783584                0.03328741               -0.35959857
              19.05188100               10.73804771               79.59011617                0.00010000               -0.33866557               -0.19798250                0.41024721               -0.89427115                2.97649777               -1.36432177
              20.04576516               10.21527780               79.19698878                0.00010000               -0.23409899               -0.23434847               -0.58794062               -1.92789771                5.73437388               -1.44048151
              21.04719902                9.68989309               78.80359494                0.00010000                0.47058549               -0.24432039               -1.50330650               -2.49377793                5.46824662               -1.37957121
              22.05517687                9.15983165               78.40934462                0.00010000                1.01997968               -0.12557015               -2.35674310               -3.26110960                5.06254245               -1.33163612
              23.06759861                8.62499376               78.01297832                0.00010000                1.31828423                0.27851916               -3.13040309               -3.91773154                4.47066242               -1.36134809
              24.08154256                8.08842269               77.61240170                0.00010000                1.34556434                0.95327593               -3.77252922               -4.00155119                3.66022061               -1.51116816
              25.09450990                7.55602733               77.20478646                0.00010000                1.21339288                1.63003628               -4.21605179               -3.24589979                2.62505211               -1.81837159
              26.10581041                7.03406190               76.78702685                0.00010000                1.09347015                1.97999999               -4.40788185               -1.77052689                1.38445269               -2.29363327
              27.11637930                6.52621995               76.35637964                0.40939894                1.05688872                1.82624440               -4.33507483               -0.72613539                0.70641342               -2.99961228
              17.55914035               12.75182770               80.35560848                1.00000000                0.01163750                0.07414058               -0.18924316                0.00214210                0.00258489                0.62669220
              18.55925672               12.24451916               79.89856855                0.47516124               -0.02852864               -0.05842895                0.11824440               -0.04326209                0.03520564               -0.35593834
              19.55856977               11.73617853               79.44215396                0.00010000               -0.41345625               -0.18104591                0.42660425               -0.77315135                3.32405237               -1.29927971
              20.55098760               11.21433484               79.05114395                0.00010000               -0.41894575                0.03680603               -0.71269824               -1.69936782                6.40143562               -1.33640571
              21.55019086               10.69009615               78.66001989                0.00010000                0.22097737                0.23018372               -1.76390098               -2.20508529                6.06915012               -1.29988007
              22.55540714               10.16213157               78.26693726                0.00010000                0.75317403                0.47078239               -2.73782166               -2.77055532                5.53392031               -1.23573380
              23.56525434                9.63122166               77.87019420                0.00010000                1.12225566                0.83386870               -3.61488229               -3.12447418                4.80857976               -1.19730354
              24.57785226                9.10013248               77.46768452                0.00010000                1.31011387                1.30069879               -4.34305434               -3.02730838                3.88747999               -1.22635247
              25.59145662                8.57290601               77.05696761                0.00010000                1.36206218                1.72557277               -4.85207891               -2.37239226                2.77249039               -1.37379599
              26.60509350                8.05336656               76.63549961                0.00010000                1.36364864                1.91242338               -5.07382549               -1.27555045                1.47060711               -1.71009173
              27.61872959                7.54376299               76.20090908                0.41029847                1.36360886                1.70947184               -4.95695794               -0.50739956                0.73383624               -2.32094198
              18.06714472               13.75262445               80.21736716                1.00000000                0.01776758                0.08376072               -0.22825761                0.00290371                0.00997877                0.62622953
              19.06732240               13.24397482               79.75538322                0.51196326               -0.02712111               -0.05118529                0.11223125               -0.03589694                0.06395467               -0.38068309
              20.06660230               12.73442679               79.29450884                0.00010000               -0.47311037               -0.16901891                0.44515362               -0.51413267                3.76292261               -1.11513573
              21.05786019               12.21601392               78.90682062                0.00010000               -0.56508560                0.28163615               -0.80833532               -1.18587119                7.12769498               -1.11191276
              22.05530059               11.69449677               78.51788137                0.00010000                0.03900355                0.59413143               -1.95887351               -1.65987431                6.67201563               -1.02842372
              23.05864026               11.16924729               78.12629896                0.00010000                0.59038167                0.85942925               -3.02577921               -2.07299195                6.04030461               -0.94442405
              24.06710822               10.64167114               77.73012280                0.00010000                1.03358880                1.16775582               -3.98735253               -2.25535331                5.22798432               -0.87773509
              25.07931204               10.11443667               77.32726673                0.00010000                1.33598772                1.50242431               -4.79015348               -2.09099090                4.22919348               -0.85676608
              26.09382797                9.59053879               76.91535793                0.00010000                1.50651966                1.78139083               -5.35629104               -1.56283726                3.02821172               -0.93515005
              27.10944243                9.07231037               76.49183915                0.00010000                1.58052362                1.88520436               -5.59995984               -0.79597897                1.61305297               -1.19000021
              28.12543845                8.56040939               76.05418830                0.41100746                1.59960172                1.66329222               -5.45089280               -0.28403835                0.79104070               -1.70468924
              18.57649770               14.75350291               80.07889846                0.98997925                0.02387461                0.09100350               -0.26090661                0.00152457                0.02061176                0.53245796
              19.57673645               14.24349546               79.61187379                0.42291477               -0.01248412               -0.04528380                0.10772296               -0.02614167                0.30701705               -0.38270929
              20.57624802               13.73279815               79.15066405                0.00010000               -0.47681234               -0.16498281                0.42951221               -0.14301188                4.36110491               -0.89259035
              21.56720020               13.21996756               78.76516801                0.00010000               -0.62440095                0.51037760               -0.89317976               -0.53083042                7.80733036               -0.68177866
              22.56376000               12.70197878               78.37893677                0.00010000               -0.02136318                0.80246159               -2.12098750               -0.91861242                7.25084529               -0.57905134
              23.56677294               12.17932015               77.98909382                0.00010000                0.55989510                1.07704050               -3.25532999               -1.17409254                6.51054263               -0.51412525
              24.57495790               11.65457677               77.59404245                0.00010000                1.01959263                1.36135508               -4.28020798               -1.24304486                5.63537934               -0.45889358
              25.58716479               11.13018096               77.19177642                0.00010000                1.36841339                1.63226353               -5.14108456               -1.11038487                4.58630377               -0.42851320
              26.60232617               10.60853383               76.77991317                0.00010000                1.60692665                1.83433638               -5.75397486               -0.77940274                3.31626943               -0.46088693
              27.61930332               10.09107064               76.35562009                0.00010000                1.72623090                1.89578817               -6.01849720               -0.35731064                1.77548686               -0.61194869
              28.63685079                9.57702883               75.91576840                0.41177589                1.75474650                1.71789203               -5.84204812               -0.08388385                0.86315351               -0.97433438
              19.08719011               15.75444452               79.93873141                0.97436248                0.03142055                0.09416145               -0.30091529               -0.06829721                0.25838237                0.44678530
              20.08750432               15.24306914               79.46883629                0.66924434                0.00399223               -0.04263200                0.10051571               -0.08908220                0.69942769               -0.37060002
              21.08726996               14.73112714               79.00791185                0.36778440               -0.47206817               -0.16710186                0.41888777                0.25981060                5.20957505               -0.85937458
              22.07806295               14.22622147               78.62877344                0.36282150               -0.48471047                0.62539089               -1.00766072                0.05721873                8.52295435               -0.29542292
              23.07757575               13.71054600               78.24458228                0.36106781                0.22487294                0.85672190               -2.28082981               -0.39009338                7.66748456               -0.27017779
              24.08256041               13.19078810               77.85636912                0.36220447                0.69053813                1.14679525               -3.45642848               -0.50364015                6.85698009               -0.24708759
              25.09138651               12.66889824               77.46255782                0.36663095                1.02934348                1.43214642               -4.51981993               -0.54244726                5.94010310               -0.23454486
              26.10314728               12.14708194               77.06133490                0.37422271                1.29818633                1.69009754               -5.41900411               -0.48538655                4.88652197               -0.23457147
              27.11735024               11.62722552               76.65046891                0.38506375                1.53269635                1.86916877               -6.06964520               -0.34038324                3.63462133               -0.26949094
              28.13380121               11.11022613               76.22712964                0.40000851                1.72470760                1.91554908               -6.36660107               -0.17312534                2.05174078               -0.36887792
              29.15184439               10.59476723               75.78702364                0.70614956                1.80431787                1.77383967               -6.19080901               -0.04653012                1.08080936               -0.63715433
              14.45917884                5.89346592               82.32131760                1.00000000               -0.02257066                0.02048397               -0.05968972                0.04102775               -0.39913249                0.47626208
              15.45895313                5.38857801               81.89410790                1.00000000               -0.06362964               -0.05349544                0.18544792                0.04722270               -0.49620648                0.05807390
              16.45790624                4.88350628               81.46454155                1.00000000               -0.14164360               -0.12026876                0.42185756                0.04649070               -0.53034112               -0.03485044
              17.45612026                4.37806094               81.03654756                0.68898211               -0.22426718               -0.19492356                0.65844462                0.01812686               -0.48707850               -0.24616570
              18.45342090                3.87190293               80.60799582                0.50852878               -0.30358766               -0.26954486                0.89146949                0.00503572               -0.45008074               -0.27953060
              19.45004850                3.36517095               80.18118434                0.19041451               -0.53969661               -0.36149053                1.15713072               -0.26810068                0.25319589               -0.56566605
              20.44262697                2.85291757               79.76734629                0.00010000               -1.13998568               -0.11225506                1.13051872               -3.36955132                6.39658524               -1.56810620
              21.42724879                2.27762983               79.45879453                0.00010000                0.65274794               -1.19573012               -0.11069416               -3.15522228               12.61171514               -0.51014632
              22.45568193                1.68895454               79.15831817                0.00010000                4.76661883               -1.65337644               -1.25611109               -3.28246549               13.23742246               -0.26301647
              23.52258117                1.07914641               78.86192636                1.00000000                3.63493673                0.64358981               -2.19372323               -3.38912697                6.53928586               -0.10545941
              24.52838066                0.53938105               78.43482922                1.00000000                0.57994935                0.46532651               -1.67504665                0.07647211               -0.01429180               -0.11441944
              14.96447701                6.89367076               82.18237982                1.00000000               -0.00718410                0.01995117               -0.08402679                0.00381656                0.00833094                0.65655560
              15.96440517                6.38804306               81.75506480                1.00000000               -0.04236630               -0.05405497                0.16336376                0.01125845                0.07475777                0.08204199
              16.96362969                5.88230359               81.32865924                1.00000000               -0.11509854               -0.12230469                0.40419390                0.00632314                0.15199043               -0.20867808
              17.96210320                5.37611170               80.90271525                0.88449510               -0.18567195               -0.20465519                0.65234405               -0.00956753                0.23807105               -0.17659100
              18.95991625                4.86920748               80.47810600                0.74959739               -0.26215151               -0.28347437                0.90758724               -0.02412621                0.25942939               -0.19865479
              19.95686017                4.36155604               80.05281542                0.44282535               -0.36071181               -0.37661513                1.19362005               -0.11684913                0.37715311               -0.39697984
              20.95270201                3.85179502               79.63109668                0.00010000                1.04089542               -0.32591524                1.51019697               -3.77620241                6.26465628               -0.96857626
              21.97767808                3.26567253               79.32401494                0.00010000                3.46984823               -2.09379970               -0.21155554               -5.00021217               11.97962998               -0.83692159
              23.02209898                2.67242078               79.01588643                0.00010000                4.28992807               -1.49379601               -1.17214843               -4.17962962               12.23402432               -1.28272281
              24.06347664                2.08558231               78.71418513                0.92290181                2.34058827                0.62501270               -2.04640963               -2.23262234                6.30709380               -0.12537035
              25.06891074                1.54403432               78.28709990                1.00000000                0.54341006                0.43883176               -1.49700719               -0.01287261                0.00303941               -0.16682617
              15.47051056                7.89386494               82.04653421                1.00000000                0.00349024                0.02252127               -0.10757318               -0.00156284                0.13882292                0.76441125
              16.47054546                7.38749692               81.61623006                1.00000000               -0.02732469               -0.05200934                0.14381036                0.00023751                0.32419670                0.01580479
              17.46996407                6.88106019               81.18923859                0.00010000               -0.07602194               -0.12098931                0.39073780               -0.03528198                0.91277548               -0.64379485
              18.46902502                6.37396783               80.77050539                0.00010000               -0.12350167               -0.64020955                0.64653197               -0.31739958                1.27023514               -0.53847015
              19.46749403                5.86623344               80.35040497                0.00010000               -0.19505235               -1.03869230                0.91350276               -0.26995512                1.12516963               -0.37326935
              20.46512398                5.35763865               79.92874296                0.00010000               -0.22537986               -1.55331287                1.22904482                0.08480733                1.26548488                0.02170841
              21.46298643                4.84639927               79.51183440                0.00010000                2.07474068               -3.06973936                1.58436533               -3.55645391                5.90511712                1.06377617
              22.50661879                4.23575384               79.18430368                0.00010000                4.45965572               -2.34047327               -0.55819804               -6.80334289                9.81585631               -1.24283548
              23.55217955                3.65907862               78.85331071                0.00010000                4.98481967               -1.01508528               -1.29714953               -5.71995843               11.74760606               -3.14169452
              24.60631518                3.09164667               78.56621848                0.00010000                2.95198248                1.03809204               -1.85812566               -5.40596235                7.10157406               -6.10768495
              25.61121920                2.54815769               78.13916112                0.40103122                0.49040159                2.84267321               -1.26576827               -4.36969106                0.05649439               -5.02900145
              15.97718181                8.89412118               81.90938151                1.00000000                0.00328699                0.03221063               -0.12519759               -0.00095564                0.23167651                0.63623029
              16.97721468                8.38700287               81.47567967                0.53375822               -0.03643377               -0.05298558                0.13192388               -0.00116148                0.38246137               -0.29669411
              17.97645313                7.87988381               81.04467724                0.00010000               -0.33163585               -0.15466906                0.36719246               -0.46843185                1.32648317               -1.12461588
              18.97058196                7.36330751               80.62987537                0.00010000               -0.28033993               -0.90003205                0.25001783               -1.11792057                2.25300399               -1.12400913
              19.97084633                6.84843363               80.21783817                0.00010000                0.39042647               -1.61795840                0.14194694               -1.03373634                2.54099139               -0.86576905
              20.97839049                6.33048979               79.80999645                0.00010000                1.63057065               -2.61067736               -0.00274807               -1.60555827                3.36901132               -0.25553702
              22.00345775                5.79040023               79.41763214                0.00010000                2.52706889               -4.11400245               -0.48061327               -3.26826880                4.46671404                0.76307065
              23.02893187                5.21886306               79.03932684                0.00010000                2.41746150               -1.22954418               -1.19244524               -5.81027122                5.74467959               -1.79446723
              24.05180698                4.65211907               78.67795505                0.00010000                1.86732327                0.08991460               -1.79534359               -6.11598252                5.64324961               -4.27396119
              25.06627833                4.10634415               78.29933308                0.00010000                0.83439541                1.84986671               -2.03637068               -5.39748317                3.56710005               -9.45945486
              26.06849488                3.60088778               77.89525411                0.40176678                0.22165519                3.75459094               -1.98757480               -3.44252648                2.48199292               -8.96352352
              16.48472806                9.89450915               81.77072611                1.00000000                0.00315441                0.04503133               -0.14163418                0.00112708                0.00432165                0.52838798
              17.48475961                9.38643720               81.33043584                0.42918478               -0.02186353               -0.06299523                0.14685639               -0.01724162                0.29064904               -0.45186779
              18.48429079                8.87796681               80.89567082                0.00010000               -0.33214098               -0.21637779                0.37098192               -0.70684921                1.81983695               -1.49777156
              19.47811679                8.35596719               80.48610405                0.00010000               -0.23268819               -0.64216633               -0.07198824               -1.41968314                3.14225889               -1.40568426
              20.47963703                7.83387427               80.07949765                0.00010000                0.64647093               -1.23219924               -0.50603145               -1.69368289                3.34855878               -1.33138140
              21.49104621                7.30542510               79.67706747                0.00010000                1.48053769               -1.90508982               -0.97584083               -2.60966622                3.55959153               -1.23442271
              22.50924778                6.76411922               79.27987571                0.00010000                1.88241598               -1.80885265               -1.51168635               -4.41428856                3.76918907               -1.58440079
              23.52869453                6.21116295               78.88803079                0.00010000                1.65655129               -0.34356836               -2.06337943               -5.42854038                3.78373735               -2.39495404
              24.54237881                5.66087692               78.49632697                0.00010000                1.04511433                1.08405167               -2.49488929               -4.95813021                3.25455658               -4.19822239
              25.54959681                5.12864400               78.09614648                0.00010000                0.54513023                2.10772421               -2.73400980               -3.02482379                1.90759607               -5.66361821
              26.55328141                4.62324951               77.67706932                0.40259507                0.36846005                1.97512630               -2.70171742               -1.43320689                1.04553472               -6.73485052
              16.99334825               10.89502181               81.63124169                1.00000000                0.00639449                0.05774288               -0.15993245               -0.00040691                0.00435641                0.52097577
              17.99341219               10.38574297               81.18660221                0.44049931               -0.02810436               -0.07091619                0.14499444               -0.04250534                0.09151490               -0.36230798
              18.99278616                9.87555625               80.74356254                0.00010000               -0.35656796               -0.23125031                0.43117012               -0.84701810                2.10912497               -1.49464297
              19.98628083                9.35046418               80.33944095                0.00010000               -0.26356960               -0.44269977               -0.31407063               -1.75394523                3.93431585               -1.56247155
              20.98751477                8.82378965               79.93577745                0.00010000                0.48356916               -0.71567834               -0.99834047               -2.18730573                3.81954410               -1.61598232
              21.99595222                8.29238799               79.53359702                0.00010000                1.09596774               -0.83624108               -1.66177004               -3.06736732                3.67664319               -1.73686780
              23.00943412                7.75422318               79.13254588                0.00010000                1.38255732               -0.48736875               -2.29827530               -4.03495440                3.41844908               -2.00721932
              24.02360336                7.21199170               78.73107375                0.00010000                1.28645993                0.40147378               -2.85693675               -4.42802535                2.98744197               -2.55167098
              25.03516332                6.67380011               78.32617081                0.00010000                0.99029523                1.36459039               -3.26742662               -3.69415681                2.28460504               -3.34014684
              26.04340927                6.14849864               77.91324178                0.00010000                0.77282094                1.88589158               -3.46164836               -2.01879091                1.25522938               -4.20818838
              27.05061974                5.64039031               77.48812316                0.40335231                0.72104730                1.65296156               -3.40411328               -0.82189836                0.69747537               -4.88836000
              17.50327760               11.89566401               81.49225184                1.00000000                0.00974539                0.07022803               -0.18591313                0.00077094                0.00085990                0.56992611
              18.50337506               11.38501888               81.04311768                0.47458904               -0.03241936               -0.07073138                0.14090717               -0.04740255                0.03273019               -0.33680169
              19.50262922               10.87334180               80.59453443                0.00010000               -0.42852847               -0.21272635                0.46397197               -0.83509790                2.33933063               -1.28736117
              20.49480449               10.34711320               80.19167687                0.00010000               -0.43310546               -0.19997746               -0.48648292               -1.78491267                4.46805415               -1.53685854
              21.49396711                9.81956070               79.78939130                0.00010000                0.22304178               -0.16951847               -1.35805655               -2.24260247                4.24128698               -1.64267928
              22.49926532                9.28870028               79.38687546                0.00010000                0.74889408               -0.03448525               -2.17356167               -2.87841764                3.88332332               -1.75057622
              23.50894499                8.75437184               78.98303379                0.00010000                1.06458847                0.33579564               -2.91829651               -3.40742533                3.39350694               -1.92678379
              24.52055709                8.21919243               78.57625263                0.00010000                1.15218707                0.92452435               -3.54356908               -3.43017939                2.76697530               -2.21495699
              25.53198873                7.68816872               78.16434660                0.00010000                1.10368508                1.49512674               -3.98100117               -2.73519574                1.99358766               -2.63518370
              26.54263079                7.16636183               77.74476247                0.00010000                1.05356878                1.75465143               -4.16567475               -1.45967694                1.06280561               -3.15744592
              27.55306011                6.65630874               77.31504728                0.40412859                1.04293112                1.55875222               -4.05705162               -0.57709982                0.56833339               -3.76996825
              18.01465393               12.89642637               81.35357633                1.00000000                0.01324251                0.08029429               -0.21472231                0.00234228                0.00222677                0.59713497
              19.01478635               12.38432834               80.89986265                0.50754369               -0.03320207               -0.06538004                0.13703434               -0.04058806                0.03459190               -0.32876379
              20.01398989               11.87130172               80.44676065                0.00010000               -0.52113382               -0.19845979                0.48473920               -0.68315586                2.60187391               -1.22209366
              21.00436368               11.34646463               80.04456898                0.00010000               -0.64571243                0.06387170               -0.61182260               -1.50530401                4.96554300               -1.37486348
              22.00107564               10.82039928               79.64316612                0.00010000               -0.03954766                0.28969627               -1.62238170               -1.92655026                4.67687431               -1.45286876
              23.00357272               10.29169828               79.24060267                0.00010000                0.48589147                0.53240893               -2.56003065               -2.40533548                4.19493066               -1.50562398
              24.01079347                9.76093909               78.83536811                0.00010000                0.88150861                0.85914579               -3.40598126               -2.68572872                3.57533759               -1.58548388
              25.02120290                9.23048218               78.42586004                0.00010000                1.12482665                1.25712124               -4.10819465               -2.56486392                2.84414170               -1.72787799
              26.03329000                8.70370264               78.01032220                0.00010000                1.24364101                1.60019566               -4.59410815               -1.97172512                2.01151803               -1.96498153
              27.04607572                8.18359167               77.58688409                0.00010000                1.29469692                1.72425558               -4.79014762               -1.03722614                1.06673563               -2.32954202
              28.05918394                7.67156535               77.15363843                0.40498401                1.31082227                1.51622090               -4.64154350               -0.39580218                0.55462849               -2.86223326
              18.52752050               13.89726990               81.21499276                1.00000000                0.01674368                0.08630890               -0.24428365                0.00320037                0.01181217                0.59798902
              19.52768794               13.38371128               80.75665548                0.54805811               -0.03453488               -0.05826070                0.13738327               -0.03220785                0.06145800               -0.34799150
              20.52682981               12.86937260               80.29932344                0.00010000               -0.60435429               -0.18698705                0.50603532               -0.39779914                2.96428054               -1.04609558
              21.51560086               12.34839063               79.89927275                0.00010000               -0.83136780                0.31552326               -0.70753499               -0.96260677                5.55241412               -1.11045525
              22.51020245               11.82535463               79.49902648                0.00010000               -0.24910298                0.65879507               -1.82136122               -1.40287870                5.14616701               -1.10129907
              23.51061880               11.29934846               79.09701031                0.00010000                0.31220330                0.91295245               -2.85472441               -1.77709165                4.56668332               -1.09598784
              24.51644652               10.77155476               78.69149192                0.00010000                0.79387356                1.18426723               -3.78574260               -1.92622327                3.85886505               -1.11155262
              25.52649627               10.24433485               78.28091280                0.00010000                1.14991137                1.46327730               -4.55925594               -1.76274746                3.05409853               -1.16880766
              26.53944474                9.72017264               77.86365851                0.00010000                1.37636477                1.68065006               -5.09540385               -1.29436615                2.15556229               -1.30426331
              27.55402356                9.20084695               77.43798965                0.00010000                1.48759734                1.73946327               -5.30716592               -0.64564497                1.14395992               -1.56692462
              28.56919669                8.68663315               77.00204934                0.40565323                1.51731286                1.52947186               -5.12308685               -0.21757437                0.58301738               -2.00793257
              19.04183517               14.89815255               81.07625497                1.00000000                0.02043190                0.09002002               -0.26861701                0.00197909                0.01469861                0.50341827
              20.04203949               14.38316313               80.61313990                0.45662533               -0.02403085               -0.05294999                0.14045882               -0.02440429                0.27944766               -0.34779335
              21.04135455               13.86756198               80.15537193                0.00010000               -0.64549863               -0.18249792                0.49884478                0.00567027                3.48794292               -0.83068855
              22.02912952               13.35277510               79.75677162                0.00010000               -0.96471575                0.59815774               -0.78947912               -0.34090152                6.12461976               -0.66773479
              23.02206024               12.83357518               79.35843692                0.00010000               -0.36493783                0.88463041               -1.98237090               -0.74840349                5.61670777               -0.60215378
              24.02183076               12.30995733               78.95746567                0.00010000                0.26111843                1.13312154               -3.08533286               -1.00358931                4.93072370               -0.57874090
              25.02728261               11.78462444               78.55242708                0.00010000                0.77496549                1.37796273               -4.08112670               -1.06014968                4.15784433               -0.56741787
              26.03733007               11.25974773               78.14185753                0.00010000                1.18039886                1.60178628               -4.91275202               -0.93506041                3.30421985               -0.57838282
              27.05089058               10.73731564               77.72419443                0.00010000                1.46861147                1.75711336               -5.49406027               -0.64550973                2.35167356               -0.63892357
              28.06670230               10.21838093               77.29756519                0.00010000                1.61847246                1.78574638               -5.72415471               -0.29035327                1.25211706               -0.78801298
              29.08326003                9.70215479               76.85970024                0.40643343                1.65577341                1.61311269               -5.51172527               -0.05916021                0.62888917               -1.09380459
              19.55753893               15.89907030               80.93577409                0.98683993                0.02514940                0.09177497               -0.29405553               -0.07142611                0.23894213                0.41498231
              20.55779042               15.38265228               80.47005087                0.68475198               -0.01038423               -0.05108481                0.13677343               -0.09228946                0.64462605               -0.33396172
              21.55733124               14.86572265               80.01253989                0.36715004               -0.75103946               -0.18393380                0.49394672                0.48274415                4.24739189               -0.78842670
              22.54276963               14.36035378               79.61927964                0.36253168               -0.96395474                0.75786860               -0.89296113                0.23024105                6.73157254               -0.27418213
              23.53805215               13.84304724               79.22252741                0.36074174               -0.16359410                0.94720589               -2.13025923               -0.31795400                5.95976729               -0.26557995
              24.53949775               13.32201089               78.82277758                0.36209678                0.37004913                1.20535533               -3.27356858               -0.42996220                5.20805021               -0.26066918
              25.54545313               12.79911401               78.41859974                0.36573520                0.78030533                1.44895750               -4.30751698               -0.46496321                4.39196330               -0.26539886
              26.55510385               12.27637058               78.00869925                0.37255154                1.12241090                1.66228491               -5.17733882               -0.41257692                3.52893069               -0.27983410
              27.56790135               11.75531490               77.59166913                0.38240614                1.41367487                1.79992606               -5.79620312               -0.28935883                2.59174666               -0.32155332
              28.58337735               11.23656187               77.16568536                0.39582960                1.62822128                1.81809420               -6.05836132               -0.15346938                1.46557980               -0.41264707
              29.60046577               10.71889541               76.72756492                0.70341328                1.70884202                1.67406201               -5.84632103               -0.04607246                0.80262110               -0.63678711
              14.88112791                6.03728263               83.32024539                1.00000000               -0.00309993                0.04422067               -0.14819530                0.05098952               -0.40799932                0.47619656
              15.88109691                5.52832091               82.89571007                1.00000000               -0.05170172               -0.04036950                0.13705172                0.05698880               -0.51333262                0.06045500
              16.88009388                5.01915038               82.46871240                1.00000000               -0.14298076               -0.11582405                0.40952531                0.05544769               -0.55361273               -0.02995473
              17.87823730                4.50950431               82.04330005                0.69248700               -0.23894527               -0.20439151                0.68532849                0.01939823               -0.51129378               -0.23825772
              18.87531497                3.99897441               81.61728232                0.52273499               -0.33038328               -0.29617875                0.95949964                0.00542970               -0.45725932               -0.26496809
              19.87162963                3.48770167               81.19338126                0.22748103               -0.47595421               -0.40633903                1.27276828               -0.18372718                0.15624415               -0.56130760
              20.86579589                2.97256045               80.78018914                0.00010000               -0.80868371               -0.32534750                1.40772620               -2.74910970                5.38669478               -1.42724036
              21.85545596                2.40708059               80.45869974                0.00010000                0.89996378               -1.21005960                0.08987837               -2.37117898               11.01525057               -0.60133768
              22.88379517                1.82874780               80.14646396                0.00010000                4.57759618               -1.64898312               -1.24514074               -2.74790656               11.48195565               -0.04647624
              23.94700788                1.22511266               79.83997865                1.00000000                3.44813698                0.62610457               -2.20510524               -3.03582318                5.74745195               -0.13386176
              24.95275791                0.68526761               79.41857941                1.00000000                0.57500218                0.42108562               -1.58922748                0.04958471               -0.00946467               -0.11499549
              15.39059953                7.03772483               83.18110521                1.00000000                0.01333965                0.03991754               -0.16529256                0.00803129                0.00086857                0.65283482
              16.39073293                6.52791721               82.75648923                1.00000000               -0.02714376               -0.04322778                0.12256935                0.01539775                0.06205064                0.08488149
              17.39005666                6.01799214               82.33270235                1.00000000               -0.11068296               -0.12000338                0.39992976                0.00658594                0.14213468               -0.19855457
              18.38851927                5.50746039               81.90946081                0.89414715               -0.18930321               -0.22023448                0.68781262               -0.01297923                0.24510894               -0.16380229
              19.38627059                4.99601262               81.48767652                0.76800470               -0.27599642               -0.31668685                0.99396976               -0.02908698                0.30428165               -0.18478236
              20.38299934                4.48363828               81.06555560                0.48841757               -0.38276302               -0.42975143                1.34276931               -0.11099181                0.46854018               -0.39083157
              21.37861533                3.96930698               80.64726012                0.06636333                1.03255782               -0.46469292                1.71650674               -3.04907835                5.29670114               -0.88669295
              22.40365050                3.39498000               80.32199216                0.00010000                3.43423684               -2.04783535               -0.65809195               -3.98301937                9.70755940               -0.42161545
              23.44730007                2.81225797               80.00490057                0.00010000                4.23696261               -1.61637422               -0.89772991               -3.52208169               10.66604204               -1.29957089
              24.48838975                2.23137370               79.69426387                0.99311248                2.28993675                0.57327537               -1.89908038               -1.89697172                5.58116513               -0.13293254
              25.49309880                1.68947846               79.27306780                1.00000000                0.47090546                0.37057236               -1.28860201               -0.05551607                0.00000701               -0.13836117
              15.90090379                8.03808098               83.04507208                1.00000000                0.02337796                0.03556183               -0.18010497                0.00001819                0.13063839                0.75979107
              16.90113757                7.52745635               82.61750698                1.00000000               -0.01106850               -0.04385128                0.11174550               -0.00123696                0.31334675                0.02300287
              17.90068242                7.01675031               82.19320202                0.00010000               -0.05901659               -0.12037589                0.39652087               -0.05723870                0.90927164               -0.63362642
              18.89995723                6.50509962               81.77724453                0.00010000               -0.10635333               -0.65725006                0.68950118               -0.37370142                1.30148137               -0.71816252
              19.89855535                5.99264067               81.36013685                0.00010000               -0.19208970               -1.04175642                1.01332224               -0.37049250                1.22389628               -0.75551643
              20.89611544                5.47910664               80.94200949                0.00010000               -0.25413726               -1.50434008                1.40436950               -0.07404658                1.44548899               -0.62091555
              21.89347260                4.96326659               80.52897890                0.00010000                1.83645704               -2.76936089                1.82009237               -2.97728603                4.84348286               -0.07850038
              22.93284458                4.36612389               80.17899868                0.00010000                4.17436105               -2.28065841               -0.19421887               -5.78505159                7.90902474               -0.63879586
              23.97695983                3.79642032               79.84128055                0.00010000                4.95016870               -1.25912723               -0.99556308               -5.00123550               10.60384403               -3.68143421
              25.03184795                3.23657817               79.54889756                0.00010000                2.92391190                0.68491342               -1.57329161               -5.02650792                6.55122355               -6.36726359
              26.03543806                2.69267906               79.12795076                0.39666002                0.35901090                2.52752967               -0.96821512               -4.25077525                0.04167416               -5.50544186
              16.41184915                9.03843607               82.90779867                1.00000000                0.01897049                0.04054507               -0.18714371               -0.00336611                0.21881261                0.63114976
              17.41203885                8.52704018               82.47689185                0.55564256               -0.02902687               -0.04416305                0.11022336               -0.01165600                0.35761263               -0.27187708
              18.41126861                8.01558462               82.04845719                0.00010000               -0.34419872               -0.15035549                0.38423534               -0.50941741                1.11590252               -1.09991973
              19.40515488                7.49431539               81.63272912                0.00010000               -0.32074464               -0.89482534                0.30635992               -1.21294297                1.86985062               -1.47056545
              20.40485372                6.97517749               81.21985947                0.00010000                0.28688017               -1.55337202                0.23992241               -1.16284063                2.15295673               -1.58744672
              21.41089248                6.45355148               80.81079539                0.00010000                1.35993222               -2.39693411                0.13761236               -1.62713170                2.80017161               -1.42828603
              22.43205236                5.91391976               80.41379293                0.00010000                2.19516289               -3.63261150               -0.27727569               -2.88910020                3.49765463               -0.79573730
              23.45479574                5.34936683               80.02799552                0.00010000                2.23843572               -1.26318415               -0.94367454               -5.13798398                4.79541296               -2.43311865
              24.47682108                4.78707543               79.66094864                0.00010000                1.84025545               -0.13210290               -1.57173215               -5.57851193                4.94554965               -5.07738890
              25.49160085                4.24507197               79.27958190                0.00010000                0.95302201                1.35176923               -1.93073991               -5.08399023                3.09552211              -10.23296102
              26.49588152                3.74002906               78.87646910                0.39704993                0.42806680                3.25137560               -1.83255033               -3.18385924                2.23160947              -10.07188861
              16.92362823               10.03889188               82.76903895                1.00000000                0.01276617                0.05252303               -0.19184377                0.00044507                0.00789035                0.51965962
              17.92375590                9.52657309               82.33186282                0.45686932               -0.02046867               -0.05702354                0.13765645               -0.02792857                0.26012976               -0.42097286
              18.92321886                9.01374320               81.89955257                0.00010000               -0.38251961               -0.21014531                0.39934543               -0.73526163                1.42488338               -1.42757124
              19.91610550                8.48720311               81.48578046                0.00010000               -0.35782044               -0.60579172               -0.00630844               -1.47312595                2.40176338               -1.67088200
              20.91606245                7.96157323               81.07503893                0.00010000                0.43625168               -1.12041106               -0.40697953               -1.70168955                2.57939611               -1.90628433
              21.92483054                7.43116796               80.66807781                0.00010000                1.19063981               -1.67269275               -0.85078120               -2.46784507                2.71499205               -2.08781982
              22.93987525                6.89061436               80.26557128                0.00010000                1.60493491               -1.57854742               -1.37475631               -3.96339260                2.89086296               -2.54387093
              23.95692924                6.34086020               79.86821036                0.00010000                1.49045979               -0.37775654               -1.93385541               -4.82955438                2.97198823               -3.32880873
              24.96968444                5.79377826               79.47203038                0.00010000                1.01426409                0.92036445               -2.41349072               -4.42649188                2.62938435               -5.13703761
              25.97721452                5.26361355               79.06953080                0.00010000                0.60811321                1.79574126               -2.66210580               -2.69118249                1.57164539               -6.63034059
              26.98184671                4.75770657               78.65127017                0.39782182                0.46321910                1.57319407               -2.56455698               -1.29701748                0.89210182               -7.76284936
              17.43649563               11.03948653               82.62943041                1.00000000                0.01333299                0.06568236               -0.19857848               -0.00157645                0.00444433                0.50510743
              18.43662896               10.52589971               82.18805848                0.47063505               -0.02811374               -0.07130868                0.14434226               -0.04751132                0.08088041               -0.34140352
              19.43593336               10.01138171               81.74808494                0.00010000               -0.43833143               -0.23204117                0.46527725               -0.84052980                1.57641467               -1.41042507
              20.42786233                9.48219956               81.33672652                0.00010000               -0.45391372               -0.38952561               -0.24063749               -1.72242840                2.89036508               -1.74086043
              21.42685508                8.95276927               80.92640876                0.00010000                0.23160576               -0.59611935               -0.89446446               -2.06691141                2.78431440               -2.02417206
              22.43249445                8.42009762               80.51771362                0.00010000                0.81185921               -0.66767475               -1.54510790               -2.80250755                2.64167942               -2.34033002
              23.44309227                7.88234881               80.11033337                0.00010000                1.12731558               -0.34892572               -2.18946828               -3.60347925                2.42701938               -2.75446261
              24.45504076                7.34181170               79.70319820                0.00010000                1.12228136                0.42385274               -2.78042268               -3.91130407                2.12401762               -3.39294586
              25.46553789                6.80548271               79.29406828                0.00010000                0.94040662                1.26970029               -3.23197196               -3.23187649                1.64715178               -4.23604463
              26.47384889                6.28098680               78.87919581                0.00010000                0.81086207                1.68285607               -3.43739783               -1.74192216                0.92499066               -5.12081689
              27.48175514                5.77149294               78.45498614                0.39848036                0.79062433                1.37993743               -3.33068397               -0.68290410                0.55688139               -5.77313836
              17.95077034               12.04020553               82.49023209                1.00000000                0.01401480                0.07714722               -0.21457537               -0.00003051                0.00046643                0.54664812
              18.95091049               11.52514692               82.04457094                0.50638628               -0.03309586               -0.07468157                0.14674825               -0.04839315                0.02882811               -0.31644871
              19.95010842               11.00910238               81.59939561                0.00010000               -0.53205534               -0.22170302                0.49943799               -0.78833729                1.70143528               -1.21872351
              20.94026938               10.47941260               81.18725912                0.00010000               -0.66411310               -0.14789377               -0.40675574               -1.67104415                3.20208187               -1.64177552
              21.93682616                9.94965084               80.77643381                0.00010000               -0.05342674               -0.06828397               -1.24866413               -2.03792849                3.00099250               -1.91434752
              22.93920084                9.41781446               80.36587339                0.00010000                0.46327137                0.08933091               -2.05574588               -2.57028398                2.66956542               -2.17578213
              23.94609159                8.88363585               79.95461239                0.00010000                0.81842031                0.43525213               -2.81580623               -3.00328729                2.25615687               -2.48820063
              24.95556925                8.34933726               79.54153031                0.00010000                0.98901142                0.95515242               -3.47519941               -2.98616714                1.79143870               -2.88851745
              25.96587181                7.81917226               79.12516643                0.00010000                1.03982989                1.44058803               -3.95091228               -2.34707773                1.27771596               -3.38497876
              26.97636585                7.29727067               78.70371336                0.00010000                1.06522642                1.62808684               -4.15585658               -1.23019291                0.68550652               -3.92806314
              27.98717634                6.78530532               78.27523861                0.39925023                1.08104944                1.40116638               -4.02274444               -0.46861872                0.40501226               -4.47597569
              18.46661224               13.04102948               82.35131403                1.00000000                0.01520036                0.08500369               -0.23470291                0.00191954                0.00161640                0.57048515
              19.46676425               12.52440608               81.90130923                0.54122725               -0.03556585               -0.07045871                0.14827021               -0.03857152                0.03081468               -0.30494736
              20.46590093               12.00694765               81.45184874                0.00010000               -0.64356310               -0.21043923                0.52241172               -0.60010920                1.87961214               -1.15452325
              21.45389299               11.47924168               81.03890750                0.00010000               -0.91031385                0.10947861               -0.52711574               -1.33040087                3.53051638               -1.42469165
              22.44769465               10.95140359               80.62757226                0.00010000               -0.33946119                0.37745716               -1.50680770               -1.68486168                3.27087067               -1.61861887
              23.44710376               10.42188424               80.21573665                0.00010000                0.19045382                0.63250402               -2.43754865               -2.10210456                2.82304520               -1.78773201
              24.45150373                9.89105385               79.80207458                0.00010000                0.63386203                0.93726352               -3.30050693               -2.33390237                2.29087808               -1.97975796
              25.45978100                9.36091475               79.38552063                0.00010000                0.95795998                1.28628822               -4.03664537               -2.20506086                1.73875306               -2.22116123
              26.47066293                8.83429447               78.96508545                0.00010000                1.16654901                1.57045135               -4.55974589               -1.66878291                1.19170890               -2.52734238
              27.48311198                8.31354853               78.53969665                0.00010000                1.28252738                1.65100534               -4.77657203               -0.86066294                0.62742044               -2.90485880
              28.49631347                7.79951627               78.10807821                0.40011185                1.32014908                1.44418089               -4.61003718               -0.31307317                0.36231341               -3.36123923
              18.98405551               14.04190560               82.21248149                1.00000000                0.01653639                0.08802339               -0.25585568                0.00369259                0.01194138                0.57166866
              19.98422088               13.52373774               81.75813089                0.58541439               -0.03924380               -0.06309386                0.15286701               -0.02839104                0.05447741               -0.31817195
              20.98327064               13.00489359               81.30462954                0.00010000               -0.75077262               -0.19898607                0.54491030               -0.28306719                2.16770012               -0.98601391
              21.96920543               12.48160217               80.89266992                0.00010000               -1.13921351                0.36821468               -0.61681780               -0.74794913                3.97994150               -1.12014967
              22.96048637               11.95719999               80.48145414                0.00010000               -0.58484676                0.75155941               -1.69800529               -1.17160859                3.60607748               -1.18769210
              23.95750849               11.43046454               80.06920447                0.00010000               -0.00516676                1.00469112               -2.72458722               -1.52626895                3.06006476               -1.26238807
              24.96038303               10.90238112               79.65440795                0.00010000                0.53594614                1.25333700               -3.67363825               -1.65911620                2.44157074               -1.35867757
              25.96822741               10.37506302               79.23608161                0.00010000                0.97396684                1.49560518               -4.48174735               -1.50495012                1.82443576               -1.48851275
              26.97986237                9.85058129               78.81344985                0.00010000                1.28516924                1.67251323               -5.05474133               -1.08915956                1.23440455               -1.67248484
              27.99393080                9.33029078               78.38569583                0.00010000                1.45585231                1.70330691               -5.28702172               -0.53322416                0.64552464               -1.93494662
              29.00897942                8.81418893               77.95172656                0.40073859                1.50486175                1.50604457               -5.08766448               -0.16793447                0.36215511               -2.30059003
              19.50302181               15.04278994               82.07352612                1.00000000                0.01866198                0.09001619               -0.27639743                0.00342045                0.01399048                0.48020394
              20.50320843               14.52314421               81.61468297                0.49224981               -0.03233309               -0.05848913                0.16266038               -0.02059230                0.25273482               -0.31832660
              21.50237515               14.00296793               81.16064095                0.00010000               -0.82904117               -0.19354501                0.54244875                0.15900767                2.62033458               -0.77544689
              22.48662761               13.48660598               80.74937843                0.00010000               -1.34875229                0.70598044               -0.68984293               -0.15158460                4.44690520               -0.66098457
              23.47540011               12.96643478               80.33928936                0.00010000               -0.76151810                0.99267173               -1.84684798               -0.59205627                3.96931288               -0.63405922
              24.47139725               12.44197806               79.92738716                0.00010000               -0.08385916                1.22431734               -2.94243968               -0.85867953                3.31714599               -0.65366976
              25.47372292               11.91612059               79.51241991                0.00010000                0.50422902                1.44319089               -3.95731563               -0.91150703                2.63110677               -0.68640894
              26.48148183               11.39082685               79.09352138                0.00010000                0.99645277                1.63693932               -4.82539705               -0.79733791                1.96727785               -0.73716102
              27.49365198               10.86774474               78.67003197                0.00010000                1.36790141                1.76318867               -5.44561298               -0.54377414                1.33871957               -0.82288977
              28.50883986               10.34761467               78.24113699                0.00010000                1.57532475                1.77210386               -5.69777996               -0.24106837                0.69977960               -0.96688387
              29.52515847                9.82963716               77.80553389                0.40147151                1.63186169                1.60565952               -5.46883517               -0.03983780                0.38210215               -1.21233883
              20.02341540               16.04370592               81.93285030                1.00000000                0.02156451                0.09159811               -0.29360275               -0.07443816                0.22562295                0.39439020
              21.02363104               15.52256796               81.47157176                0.70044798               -0.02131883               -0.05762471                0.16334176               -0.09190063                0.59753756               -0.30666185
              22.02298902               15.00102269               81.01779079                0.36625542               -1.04620780               -0.19452391                0.54190045                0.71907802                3.30083420               -0.72441736
              23.00270689               14.49572178               80.61091422                0.36242726               -1.48579329                0.91158049               -0.77835726                0.40946403                4.95294992               -0.25673462
              23.99327316               13.97705342               80.20197710                0.36112786               -0.60289011                1.06186417               -1.97609820               -0.25123963                4.24262490               -0.26609102
              24.99064908               13.45495089               79.79089775                0.36186151                0.00154744                1.29728276               -3.11094050               -0.36524048                3.52594811               -0.28012701
              25.99330410               12.93124494               79.37640748                0.36550034                0.50037125                1.51243440               -4.16553079               -0.39933596                2.79237704               -0.30201118
              27.00065651               12.40780181               78.95778812                0.37115668                0.94474800                1.69749583               -5.07546610               -0.35252555                2.11221092               -0.32985495
              28.01219906               11.88584506               78.53454485                0.37964875                1.32802510                1.81003255               -5.73820294               -0.24873906                1.49521673               -0.37668325
              29.02721701               11.36573286               78.10596241                0.39189088                1.59693122                1.81181831               -6.02791790               -0.13943153                0.84557929               -0.45750673
              30.04413769               10.84630212               77.67009722                0.70086847                1.69206771                1.66649660               -5.80049930               -0.04515164                0.50711011               -0.63336810
              15.30008949                6.18127021               84.31835369                1.00000000                0.01299670                0.06305511               -0.22116380                0.05954298               -0.42146325                0.47713190
              16.30021946                5.66822879               83.89684894                1.00000000               -0.04227437               -0.02850099                0.09377911                0.06581183               -0.53813283                0.06307201
              17.29924401                5.15492729               83.47273206                1.00000000               -0.14474982               -0.10844044                0.39160278                0.06295202               -0.58438830               -0.02608811
              18.29732447                4.64097425               83.05025413                0.69687928               -0.25247557               -0.20830763                0.69669096                0.01506920               -0.53662041               -0.23201752
              19.29419450                4.12581517               82.62718582                0.53988297               -0.35289496               -0.31578713                1.00386218                0.00235338               -0.45614388               -0.24622278
              20.29026657                3.60959612               82.20663970                0.27313997               -0.45760532               -0.44849351                1.36388084               -0.14113792                0.12171434               -0.53901025
              21.28504239                3.09023080               81.79550081                0.00010000               -0.44937909               -0.49593978                1.61070659               -1.81318664                4.45175736               -1.32221610
              22.28127898                2.53901822               81.46059210                0.00010000                0.94998670               -0.20769388                0.10071434               -2.66296729                9.28218718               -1.93737758
              23.30404212                1.97115178               81.13341536                0.00010000                4.20678820               -1.95390178               -1.49050540               -2.64537415                9.80477192                0.20423344
              24.36541475                1.36789875               80.81782425                1.00000000                3.34738576                0.61060002               -2.18831388               -3.00057310                4.97917705               -0.07070516
              25.37098984                0.82810437               80.40304467                1.00000000                0.55750908                0.37913702               -1.48397362                0.05188071               -0.00593391               -0.07177319
              15.81372635                7.18190076               84.17907397                1.00000000                0.03226966                0.05485471               -0.23313515                0.01250388               -0.01067892                0.64982168
              16.81404904                6.66794378               83.75751618                1.00000000               -0.01127734               -0.03372194                0.08458245                0.02025573                0.04172197                0.08807510
              17.81350080                6.15384288               83.33665783                1.00000000               -0.10089121               -0.11472304                0.38587774                0.00576655                0.12438190               -0.18810849
              18.81203122                5.63889117               82.91647150                0.90479697               -0.17968519               -0.23189854                0.70105532               -0.01951165                0.25455507               -0.15266918
              19.80990709                5.12265729               82.49798540                0.78949707               -0.26919232               -0.34375049                1.04394978               -0.03837441                0.37413812               -0.16771843
              20.80664737                4.60511118               82.07967080                0.54336513               -0.38538103               -0.48077852                1.45778570               -0.12303772                0.61184108               -0.37094011
              21.80219947                4.08527140               81.66542681                0.18340257                0.37707237               -0.59671729                1.93249182               -1.51726934                3.83215617               -0.83461652
              22.81418882                3.53694128               81.31085310                0.00010000                3.04743217               -1.10218269               -0.62186814               -3.12199922                7.77341381               -0.68993103
              23.86314812                2.95161277               80.99793183                0.00010000                4.63719518               -2.08749569               -0.43293781               -3.63105568                9.69505209               -1.18610780
              24.90693272                2.37400475               80.67620352                1.00000000                2.40774512                0.55423078               -1.82031710               -1.72311637                4.67036052               -0.06967339
              25.91130302                1.83189574               80.26132786                1.00000000                0.43702976                0.32715886               -1.13374315               -0.06307818               -0.00192554               -0.09948718
              16.32825354                8.18236730               84.04293211                1.00000000                0.04289194                0.04382764               -0.24123785                0.00097189                0.11803417                0.75759609
              17.32868245                7.66755435               83.61846497                1.00000000                0.00792052               -0.03671457                0.08045353               -0.00375545                0.29511081                0.03210173
              18.32841195                7.15263283               83.19716901                0.00010000               -0.02813176               -0.11540100                0.39016714               -0.08924778                0.89559154               -0.61993003
              19.32811982                6.63633628               82.78429542                0.00010000               -0.06024751               -0.67654483                0.70231321               -0.45735990                1.33287275               -0.89506947
              20.32720700                6.11894016               82.37067141                0.00010000               -0.14640566               -1.04373363                1.05962736               -0.52118123                1.35507076               -1.13961716
              21.32519171                5.59998055               81.95683035                0.00010000               -0.21700439               -1.46277173                1.51461393               -0.34153068                1.69163834               -1.28179973
              22.32286691                5.07829645               81.54823625                0.00010000                1.36529638               -2.36891463                2.00922894               -1.44973746                4.09865446               -1.25060550
              23.35249763                4.51697456               81.18041930                0.00010000                3.57453167               -2.79761362                0.83773603               -4.26994934                5.89297915               -0.36823730
              24.39435754                3.92940187               80.83339945                0.00010000                4.90859044               -1.58956510               -0.25238117               -5.10038645                9.35601265               -4.56023783
              25.45066944                3.37898336               80.53475265                0.00010000                2.97943707                0.35234749               -1.47075533               -4.45093590                5.85164417               -6.68290606
              26.45394628                2.83464755               80.11979682                0.39240608                0.32768399                2.21174309               -0.80225073               -4.03109818                0.03736697               -6.10024969
              16.84337169                9.18277731               83.90563863                1.00000000                0.03367208                0.04516502               -0.23902360               -0.00755348                0.20197569                0.63100660
              17.84370841                8.66720949               83.47788414                0.57904883               -0.02188870               -0.03516133                0.08808625               -0.02381659                0.32714928               -0.24339962
              18.84293392                8.15153486               83.05236195                0.00010000               -0.35658610               -0.14225994                0.39096680               -0.56951657                0.89692478               -1.07105457
              19.83657669                7.62536028               82.63600257                0.00010000               -0.35473588               -0.88920640                0.33259964               -1.36031790                1.47975068               -1.80666985
              20.83583920                7.10178262               82.22263662                0.00010000                0.19418865               -1.48704291                0.28761187               -1.38919618                1.76511601               -2.30541468
              21.84046046                6.57585575               81.81274869                0.00010000                1.01857555               -2.16150378                0.21357710               -1.71337651                2.27675880               -2.62898712
              22.85621071                6.03789311               81.41208663                0.00010000                1.86119762               -3.07975458               -0.10861158               -2.54005798                2.69643041               -2.48663050
              23.87768441                5.48098901               81.02045335                0.00010000                2.14604398               -2.37952336               -0.58131090               -4.44470440                3.95204223               -3.64558661
              24.89913159                4.91982146               80.64652041                0.00010000                1.74919545               -0.21926728               -1.44093474               -5.03243975                4.07104937               -6.19351687
              25.91266832                4.38105170               80.26071828                0.00010000                1.01105453                0.87199597               -1.87832302               -4.62851813                2.55268178              -11.03952560
              26.91935268                3.87613061               79.85860310                0.39265711                0.66843567                2.74139605               -1.80838614               -2.80718760                1.95604187              -11.24040931
              17.35923812               10.18327060               83.76688924                1.00000000                0.02104571                0.05767490               -0.23280524               -0.00148250                0.01059357                0.51760940
              18.35944857                9.66685112               83.33318897                0.48746186               -0.01836452               -0.05013525                0.12641787               -0.04080596                0.22632922               -0.38848942
              19.35887083                9.14978763               82.90365773                0.00010000               -0.43914365               -0.20150735                0.41378038               -0.77932413                1.02433832               -1.35929945
              20.35066570                8.61855215               82.48597788                0.00010000               -0.49716145               -0.55959823                0.03462938               -1.57003487                1.65292633               -1.92536915
              21.34892760                8.08919930               82.07135806                0.00010000                0.20739949               -0.99356490               -0.34785411               -1.77134575                1.79321048               -2.46929850
              22.35481369                7.55675047               81.66005185                0.00010000                0.90024465               -1.40349710               -0.78746660               -2.40486044                1.84974882               -2.95497434
              23.36693249                7.01670136               81.25238059                0.00010000                1.34307493               -1.39001411               -1.30780443               -3.55435777                1.96998396               -3.60833554
              24.38167519                6.46938410               80.84935368                0.00010000                1.33567820               -0.50880924               -1.90625852               -4.35102238                2.03238029               -4.47027355
              25.39364605                5.92501652               80.44805715                0.00010000                1.00573744                0.80608508               -2.47029820               -3.99918271                1.85298834               -6.17483056
              26.40178994                5.39642328               80.04290436                0.00010000                0.69993294                1.54240213               -2.75256715               -2.36090769                1.15724430               -7.60227704
              27.40764471                4.88947547               79.62577818                0.39320158                0.58547756                1.24142436               -2.62003169               -1.15358013                0.72882606               -8.77371480
              17.87618100               11.18393081               83.62727012                1.00000000                0.01942678                0.07213737               -0.22869248               -0.00384678                0.00406921                0.49565828
              18.87637527               10.66620678               83.18948905                0.50290675               -0.02672965               -0.07059883                0.13946910               -0.05432837                0.06749181               -0.32234577
              19.87564641               10.14750471               82.75286808                0.00010000               -0.53054744               -0.22920507                0.48129591               -0.84697790                1.04328120               -1.33395022
              20.86576432                9.61416831               82.33462820                0.00010000               -0.67162242               -0.32277222               -0.18575410               -1.72255830                1.84338300               -1.91136083
              21.86221396                9.08191132               81.91788816                0.00010000               -0.04515647               -0.45445239               -0.82122059               -1.99687074                1.72296350               -2.42013739
              22.86486119                8.54778581               81.50269486                0.00010000                0.51379855               -0.47944349               -1.48221061               -2.60770690                1.54656810               -2.94278463
              23.87248993                8.01009283               81.08875651                0.00010000                0.87438063               -0.19173687               -2.16952642               -3.27471376                1.33087920               -3.52113018
              24.88234880                7.47081282               80.67546529                0.00010000                0.98094093                0.48577744               -2.83219810               -3.49965138                1.12164091               -4.25775530
              25.89210875                6.93594317               80.26153137                0.00010000                0.93212093                1.22177305               -3.35548133               -2.85995646                0.87726870               -5.13828407
              26.90099122                6.41189974               79.84449382                0.00010000                0.90339743                1.54382211               -3.60489896               -1.52526322                0.51551822               -6.03816032
              27.91017670                5.90095909               79.42150948                0.39400495                0.91854762                1.21108411               -3.48644819               -0.57080834                0.38278769               -6.68112821
              18.39460924               12.18471335               83.48796033                1.00000000                0.01788641                0.08279325               -0.23555879               -0.00167811               -0.00022554                0.52849957
              19.39478810               11.66543915               83.04605264                0.54010930               -0.03197490               -0.07686696                0.14626323               -0.05085812                0.02216007               -0.29914648
              20.39396974               11.14520353               82.60452319                0.00010000               -0.64900886               -0.22636958                0.51588285               -0.75024946                1.06909599               -1.16093255
              21.38180793               10.61209670               82.18354175                0.00010000               -0.92985273               -0.08041564               -0.34003600               -1.58035524                1.94107583               -1.74280334
              22.37537269               10.08011025               81.76441801                0.00010000               -0.36649370                0.05476197               -1.15958313               -1.87425786                1.73361996               -2.17671216
              23.37447805                9.54716160               81.34576055                0.00010000                0.15192575                0.24133795               -1.98483820               -2.32867551                1.38637540               -2.59205235
              24.37841120                9.01286662               80.92671767                0.00010000                0.56768849                0.57277759               -2.80334339               -2.68624204                1.00937811               -3.04222925
              25.38583182                8.47909965               80.50674864                0.00010000                0.84744028                1.03474220               -3.54841783               -2.63981760                0.68397092               -3.55149835
              26.39536001                7.94945199               80.08532836                0.00010000                1.02184622                1.44646056               -4.11428609               -2.04802569                0.43789334               -4.11909939
              27.40626875                7.42729972               79.66164534                0.00010000                1.13749170                1.58061394               -4.38031701               -1.05573463                0.23003193               -4.69103372
              28.41810984                6.91369715               79.23459239                0.39462883                1.18410949                1.34467624               -4.24608405               -0.38573733                0.20750413               -5.19235938
              18.91469585               13.18558668               83.34888227                1.00000000                0.01720846                0.08889128               -0.24807069                0.00084121                0.00077744                0.54792976
              19.91486793               12.66466944               82.90282806                0.57723417               -0.03559933               -0.07325199                0.15123378               -0.03840114                0.02442059               -0.28450565
              20.91398386               12.14297732               82.45720888                0.00010000               -0.78087210               -0.21717013                0.53824902               -0.52172054                1.16821936               -1.09604413
              21.89925049               11.61256000               82.03402666                0.00010000               -1.21599785                0.17100026               -0.44892909               -1.17017993                2.10888744               -1.47422890
              22.88966390               11.08300656               81.61302996                0.00010000               -0.68595914                0.48867193               -1.40131004               -1.47653316                1.84190307               -1.77926694
              23.88553131               10.55261257               81.19185170                0.00010000               -0.14184281                0.76442912               -2.35202969               -1.85349754                1.38376261               -2.06317177
              24.88682705               10.02154838               80.76935797                0.00010000                0.37178908                1.05846258               -3.28025612               -2.05576544                0.90034116               -2.36609600
              25.89296709                9.49150767               80.34512713                0.00010000                0.80605543                1.37321000               -4.11275730               -1.92823723                0.50686155               -2.70402523
              26.90294816                8.96487238               79.91912729                0.00010000                1.13321355                1.61622177               -4.73781932               -1.44185194                0.25438295               -3.07760890
              27.91563136                8.44351202               79.49135265                0.00010000                1.33594679                1.67039737               -5.02905985               -0.73155795                0.11504894               -3.46953828
              28.92966709                7.92785262               79.06143769                0.39537410                1.40357319                1.47342587               -4.87303785               -0.25251579                0.13713040               -3.85988740
              19.43646053               14.18649118               83.20987564                1.00000000                0.01689042                0.09005680               -0.26272690                0.00356517                0.01099656                0.54673263
              20.43662943               13.66397411               82.75971282                0.62471312               -0.04078764               -0.06568597                0.15858374               -0.02598127                0.04507385               -0.29031326
              21.43564478               13.14086012               82.31022164                0.00010000               -0.91271732               -0.20427603                0.56057200               -0.16877379                1.38798815               -0.93253030
              22.41837509               12.61551671               81.88693640                0.00010000               -1.49276607                0.43755582               -0.52629776               -0.54038563                2.43011816               -1.13109244
              23.40578945               12.08988369               81.46506637                0.00010000               -0.97543994                0.86822380               -1.57382163               -0.96463311                2.04886378               -1.27220632
              24.39886629               11.56245019               81.04251857                0.00010000               -0.36943308                1.12890458               -2.61947888               -1.31679990                1.48921928               -1.42574399
              25.39840079               11.03403587               80.61801915                0.00010000                0.25383949                1.36741736               -3.63776742               -1.44714347                0.92011344               -1.60173676
              26.40394308               10.50656385               80.19127785                0.00010000                0.80589107                1.58951630               -4.54934040               -1.30814852                0.47016665               -1.80268588
              27.41451861                9.98177642               79.76256368                0.00010000                1.23571341                1.74452353               -5.23291733               -0.93774832                0.19759635               -2.03331144
              28.42865735                9.46070767               79.33224921                0.00010000                1.49298565                1.76323239               -5.54718138               -0.45230730                0.07541484               -2.29443853
              29.44437833                8.94316567               78.90029605                0.39604577                1.57209817                1.58423690               -5.36254490               -0.13214074                0.10853031               -2.58330519
              19.95980129               15.18738781               83.07072702                1.00000000                0.01780703                0.09092833               -0.27999296                0.00418806                0.01806129                0.45650167
              20.95997936               14.66335572               82.61639310                0.52966774               -0.03677541               -0.06163258                0.17278835               -0.01623784                0.22556999               -0.28905548
              21.95906578               14.13889180               82.16622091                0.00010000               -1.02800748               -0.19627522                0.56038152                0.31580418                1.77457555               -0.72593017
              22.93941921               13.62131111               81.74297476                0.00010000               -1.78140083                0.83154046               -0.58426666                0.03732346                2.80196196               -0.65447291
              23.92343777               13.10037104               81.32149996                0.00010000               -1.21880440                1.12331228               -1.69975784               -0.44943999                2.31131681               -0.66564873
              24.91504312               12.57519066               80.89861687                0.00010000               -0.48336237                1.34684901               -2.81244659               -0.73771393                1.64155581               -0.72743715
              25.91377052               12.04889672               80.47328076                0.00010000                0.20102246                1.55313871               -3.89915117               -0.79415818                0.99887708               -0.80332759
              26.91906357               11.52329799               80.04534959                0.00010000                0.81394223                1.73380753               -4.87674483               -0.69331254                0.50185426               -0.89262945
              27.93004936               10.99976285               79.61528217                0.00010000                1.30661951                1.84895227               -5.61526428               -0.47042746                0.20503182               -1.00220447
              28.94519596               10.47877667               79.18360959                0.00010000                1.60294574                1.85266126               -5.95571006               -0.20731318                0.07177211               -1.13935843
              29.96210828                9.95953736               78.75032354                0.39669021                1.69123148                1.69678638               -5.74042572               -0.02592890                0.09895418               -1.31705846
              20.48460847               16.18830974               82.92990203                1.00000000                0.01922194                0.09219312               -0.29312629               -0.07611119                0.21869835                0.37231846
              21.48480069               15.66274146               82.47331770                0.71742477               -0.03014983               -0.06142687                0.17847961               -0.08662374                0.54904481               -0.27839563
              22.48400547               15.13693462               82.02337790                0.36549549               -1.35791834               -0.19571844                0.56109842                0.96427196                2.38251098               -0.66553738
              23.45764232               14.63214752               81.60371250                0.36212097               -2.05421793                1.08364050               -0.65192369                0.59307660                3.22213843               -0.24211052
              24.44292111               14.11234993               81.18300544                0.36076731               -1.10279970                1.19788948               -1.80153999               -0.18968308                2.52095426               -0.26948037
              25.43558632               13.58938717               80.76055877                0.36189130               -0.42554077                1.41965082               -2.95183062               -0.30824410                1.78110710               -0.30159489
              26.43441030               13.06509865               80.33528912                0.36472255                0.18121895                1.62019248               -4.08182265               -0.34338073                1.08006793               -0.33905287
              27.43921070               12.54124000               79.90718993                0.36987795                0.76105472                1.79420046               -5.10898032               -0.30244600                0.55482460               -0.37810604
              28.44963139               12.01875547               79.47690507                0.37775366                1.27629348                1.89926188               -5.90040168               -0.21575219                0.26249170               -0.42735627
              29.46473657               11.49776090               79.04512700                0.38827063                1.63534905                1.89842305               -6.28970409               -0.12864224                0.13558085               -0.49484534
              30.48233837               10.97710140               78.61155493                0.69867278                1.76017975                1.75640433               -6.07845636               -0.04294043                0.16179845               -0.61109266
              15.71570816                6.32538471               85.31582211                1.00000000                0.02477296                0.07581385               -0.27319798                0.06565041               -0.43999052                0.47851961
              16.71595589                5.80824785               84.89758565                1.00000000               -0.03536235               -0.01851744                0.05798107                0.07237924               -0.57112991                0.06543862
              17.71500092                5.29077707               84.47654446                1.00000000               -0.14523798               -0.09840534                0.36794896                0.06787452               -0.62257888               -0.02482487
              18.71305113                4.77242922               84.05723387                0.69877868               -0.25971947               -0.20634974                0.69007672                0.00685277               -0.56446700               -0.22845051
              19.70980653                4.25245079               83.63735956                0.55911287               -0.36511036               -0.32781341                1.01559105               -0.00374604               -0.43611794               -0.21622750
              20.70574893                3.73085926               83.22065888                0.32805583               -0.44639458               -0.48304367                1.41797300               -0.10475171                0.14669545               -0.47173104
              21.70087864                3.20626412               82.81240327                0.00010000               -0.12818870               -0.63849172                1.71402974               -0.83265885                3.42122869               -1.08129432
              22.70318515                2.66781104               82.46071402                0.00010000                1.08899092               -0.64568640                0.16481940               -2.78036979                7.31978509               -2.75358934
              23.72265846                2.10379952               82.11665385                0.00010000                3.68884810               -1.52477982               -1.22474313               -2.72432831                7.80691066                0.51995938
              24.77696212                1.50694001               81.79621237                1.00000000                2.97699692                0.61118287               -2.12205597               -2.68280728                4.37076621               -0.06794979
              25.78219839                0.96726576               81.38889994                1.00000000                0.52362779                0.34708145               -1.34621199                0.09389618               -0.00662707               -0.06737237
              16.23350153                7.32614285               85.17644251                1.00000000                0.04819789                0.06417634               -0.28247731                0.01651211               -0.02771423                0.64691117
              17.23398351                6.80806268               84.75818088                1.00000000                0.00437247               -0.02587109                0.05130482                0.02485795                0.01067357                0.09111245
              18.23358898                6.28979302               84.34041991                1.00000000               -0.08503515               -0.10647380                0.36092999                0.00329667                0.09264105               -0.17845952
              19.23228280                5.77036573               83.92348192                0.91639163               -0.15174636               -0.23810341                0.68608272               -0.02796058                0.25507777               -0.14540439
              20.23055405                5.24917266               83.50855551                0.81557801               -0.22440296               -0.36268421                1.03923088               -0.05108028                0.46280375               -0.14438867
              21.22779474                4.72602882               83.09471132                0.60862282               -0.32389467               -0.52332517                1.49844694               -0.13295064                0.85223904               -0.31971642
              22.22407616                4.19987920               82.68590996                0.31733353               -0.05904952               -0.73347255                2.10026073               -0.68482658                2.88141190               -0.71089431
              23.22661375                3.66135418               82.30955480                0.00327086                2.58872658               -0.93260762                0.79298868               -2.44858310                7.30860268               -1.45006580
              24.27585069                3.08855173               81.99624182                0.09089802                4.58935867               -2.35862700               -0.29060446               -3.06070317               10.15349944               -1.57806428
              25.31840093                2.51305184               81.65785752                1.00000000                2.34804621                0.57326371               -1.86899518               -1.61469037                3.45728829               -0.07270520
              26.32281161                1.97073657               81.25039294                1.00000000                0.44106847                0.30665324               -1.06531564               -0.03659387                0.00392917               -0.09123067
              16.75219875                8.32666824               85.04024732                1.00000000                0.06041345                0.04781123               -0.28651305                0.00102553                0.09920283                0.75801812
              17.75280289                7.80773043               84.61911605                1.00000000                0.02825260               -0.03072435                0.05125432               -0.00728111                0.26541579                0.04331120
              18.75276380                7.28864760               84.20100537                0.00010000                0.01547006               -0.10591052                0.36972571               -0.12817897                0.85995286               -0.60074424
              19.75311229                6.76766716               83.79129079                0.00010000                0.01790118               -0.69330968                0.67542841               -0.56290365                1.33665253               -1.06310703
              20.75312183                6.24519711               83.38132940                0.00010000               -0.03644603               -1.03950551                1.02756305               -0.72092643                1.47712193               -1.50787852
              21.75238337                5.72039276               82.97230177                0.00010000               -0.06325386               -1.41392923                1.49549012               -0.72097642                1.98667304               -1.92374078
              22.75185675                5.19159467               82.56916348                0.00010000                0.65788018               -1.99181950                2.05731427               -0.85168535                4.04921328               -2.36526240
              23.76554097                4.64915889               82.19575340                0.00010000                2.89449911               -2.69167330                1.52043257               -3.10893166                5.45511681               -2.59956588
              24.80974673                4.05662698               81.83623293                0.00010000                4.84712478               -2.00021726                1.35340387               -4.43135793                9.72629797               -4.75199803
              25.86248346                3.51840529               81.51948246                0.00010000                2.81751635                0.15389534               -1.61943022               -3.55286513                4.56044776               -6.98746734
              26.86609706                2.97339882               81.11190575                0.38826830                0.36135931                1.92514711               -0.78655925               -3.67959169                0.04180225               -6.75416204
              17.27139765                9.32709907               84.90301819                1.00000000                0.04608735                0.04721684               -0.27715732               -0.01299396                0.18014728                0.63717151
              18.27185853                8.80744819               84.47865358                0.60339966               -0.01544906               -0.02660223                0.06606146               -0.03565809                0.28995036               -0.21083188
              19.27108867                8.28767481               84.05627652                0.00010000               -0.36916529               -0.12982599                0.38512616               -0.63978690                0.66488168               -1.03809356
              20.26447522                7.75649953               83.63938111                0.00010000               -0.38393758               -0.87985272                0.33040738               -1.54704266                1.06347408               -2.11319772
              21.26340992                7.22838255               83.22561171                0.00010000                0.12512148               -1.41306959                0.28129625               -1.70092158                1.34100434               -2.98200761
              22.26697765                6.69775024               82.81506693                0.00010000                0.74331970               -1.91352250                0.19124141               -1.99600534                1.76258688               -3.77829845
              23.27827631                6.16004281               82.41162070                0.00010000                1.62125779               -2.49084503               -0.11373943               -2.60565894                2.18739113               -4.39230946
              24.29940281                5.60752071               82.01636930                0.00010000                1.98504101               -2.63580507               -0.50780773               -3.75680633                2.94131984               -5.93034047
              25.31797713                5.04854738               81.63212995                0.00010000                1.55844912               -0.06781497               -1.64570231               -4.39720820                2.63608586               -7.56668476
              26.33057179                4.51612975               81.24201544                0.00010000                1.06277879                0.46935914               -1.90464785               -3.95764785                2.12992374              -11.61424710
              27.33923271                4.00923951               80.84030137                0.38848709                0.86609214                2.29635359               -1.89851780               -2.46009690                1.60841064              -12.57560743
              17.79124064               10.32761258               84.76438284                1.00000000                0.02733516                0.06147651               -0.26170645               -0.00434356                0.01201078                0.52424855
              18.79151399                9.80719839               84.33439118                0.51979469               -0.01619581               -0.04295304                0.11271362               -0.05195927                0.18847458               -0.35472056
              19.79091672                9.28605108               83.90782818                0.00010000               -0.50251470               -0.19187794                0.41300717               -0.82785622                0.62045379               -1.29581339
              20.78146370                8.75007010               83.48647304                0.00010000               -0.65320167               -0.50455330                0.06035947               -1.69403371                0.89184895               -2.14882169
              21.77785269                8.21693571               83.06808185                0.00010000               -0.03303531               -0.85379865               -0.31710630               -1.90550100                0.96636105               -2.98090850
              22.78080299                7.68212231               82.65232848                0.00010000                0.60602031               -1.11085035               -0.78570102               -2.47890654                0.94099637               -3.80169634
              23.78997310                7.14177777               82.23941520                0.00010000                1.05486430               -1.12268425               -1.34950517               -3.35082079                0.93871799               -4.74875946
              24.80190028                6.59644279               81.83008519                0.00010000                1.16102192               -0.41295404               -2.03733506               -4.06055859                0.89966900               -5.78681250
              25.81319353                6.05527069               81.42262442                0.00010000                1.03690507                0.84492237               -2.65856064               -3.62863587                0.94556833               -7.26878815
              26.82263838                5.52779247               81.01447946                0.00010000                0.87410288                1.26764338               -3.00905673               -2.11677202                0.66913785               -8.68318654
              27.83067559                5.01932589               80.59886953                0.38934727                0.80372139                0.99083249               -2.86297621               -1.03931494                0.60598151               -9.86625710
              18.31213916               11.32832860               84.62485656                1.00000000                0.02416802                0.07753963               -0.24828106               -0.00691905                0.00312580                0.49452016
              19.31238084               10.80658913               84.19084786                0.53842011               -0.02396641               -0.06867022                0.12981550               -0.06072586                0.05055789               -0.30528051
              20.31165983               10.28383725               83.75771086                0.00010000               -0.63354654               -0.22540739                0.47769132               -0.85480772                0.51874854               -1.26500392
              21.29970991                9.74640847               83.33301144                0.00010000               -0.92060682               -0.24560157               -0.13490149               -1.73991502                0.80230552               -2.05631983
              22.29324770                9.21130657               82.90998434                0.00010000               -0.35762231               -0.29804565               -0.75648638               -1.97240810                0.62592913               -2.77708315
              23.29255746                8.67553323               82.48806941                0.00010000                0.18458598               -0.26528669               -1.45343614               -2.49458660                0.35894986               -3.51305950
              24.29693942                8.13758913               82.06694284                0.00010000                0.60706279                0.02060154               -2.22798103               -3.04768196                0.08982576               -4.28441991
              25.30469872                7.59926163               81.64655424                0.00010000                0.85576615                0.61013308               -3.00699370               -3.17027991               -0.04317347               -5.14512847
              26.31405474                7.06544583               81.22695866                0.00010000                0.97412113                1.19618375               -3.65509671               -2.56197819               -0.04470499               -6.07753208
              27.32418114                6.54148262               80.80709783                0.00010000                1.06624138                1.43993497               -3.99534364               -1.36627958                0.01446044               -7.03631187
              28.33537957                6.02905616               80.38525718                0.38957075                1.11984240                1.11020142               -3.89990159               -0.50480923                0.15868226               -7.70804242
              18.83458121               12.32916337               84.48552092                1.00000000                0.02096221                0.08720761               -0.24745360               -0.00398520               -0.00119828                0.51699919
              19.83479083               11.80582498               84.04749620                0.57700126               -0.02899879               -0.07666710                0.13909114               -0.05376134                0.01337558               -0.28461365
              20.83400123               11.28154293               83.60971327                0.00010000               -0.77973781               -0.22544651                0.51009087               -0.71300183                0.45653107               -1.11088411
              21.81919607               10.74515807               83.18045840                0.00010000               -1.23607344               -0.00230044               -0.26865988               -1.50141937                0.70404938               -1.82649520
              22.80927976               10.21097480               82.75324215                0.00010000               -0.72836859                0.19316590               -1.06436321               -1.74407600                0.43527140               -2.40908017
              23.80462870                9.67681657               82.32617663                0.00010000               -0.19943537                0.41647768               -1.93288441               -2.14457309                0.00713078               -2.98022381
              24.80529105                9.14218980               81.89854552                0.00010000                0.30046387                0.74206594               -2.85717550               -2.44377095               -0.38796687               -3.58066052
              25.81063798                8.60864545               81.47056196                0.00010000                0.72209665                1.15216995               -3.75156847               -2.37726187               -0.60316618               -4.21786338
              26.81973299                8.07919436               81.04288071                0.00010000                1.05322371                1.50305712               -4.47676031               -1.82919781               -0.56667858               -4.88823734
              27.83170245                7.55659117               80.61610702                0.00010000                1.28496629                1.60356374               -4.86940715               -0.93715135               -0.32811345               -5.51842257
              28.84543231                7.04152992               80.19031693                0.39032866                1.37298610                1.37793503               -4.77976634               -0.33080313               -0.03364374               -5.99482289
              19.35873623               13.33007276               84.34635262                1.00000000                0.01898247                0.09160706               -0.25382174               -0.00070283               -0.00031274                0.53025215
              20.35892605               12.80505579               83.90433391                0.61459528               -0.03347610               -0.07292765                0.14588639               -0.03794550                0.01607567               -0.26689005
              21.35806671               12.27932832               83.46261372                0.00010000               -0.93382015               -0.21559844                0.53150321               -0.44438673                0.48728800               -1.04629715
              22.34024965               11.74636246               83.02992892                0.00010000               -1.56795166                0.24370774               -0.35905828               -1.01957231                0.72855080               -1.51219348
              23.32670767               11.21516989               82.59954606                0.00010000               -1.08993244                0.61555327               -1.27798505               -1.29489808                0.39161917               -1.91968406
              24.31845100               10.68386279               82.16869606                0.00010000               -0.52362779                0.91839590               -2.27390642               -1.65140217               -0.14888125               -2.31846324
              25.31623512               10.15243045               81.73646946                0.00010000                0.08489604                1.21168972               -3.32136378               -1.84113959               -0.64483902               -2.73963609
              26.32014892                9.62230503               81.30326549                0.00010000                0.66449740                1.50706977               -4.32486304               -1.72376201               -0.91145069               -3.18778629
              27.32952507                9.09550697               80.87032906                0.00010000                1.14768162                1.72829066               -5.13518545               -1.28205981               -0.85760365               -3.64498855
              28.34310255                8.57355389               80.43911546                0.00010000                1.46804671                1.77769491               -5.57629174               -0.64439161               -0.50674210               -4.06974357
              29.35888600                8.05661486               80.01061745                0.39066231                1.57834450                1.60535325               -5.47984167               -0.21270072               -0.13840275               -4.40783147
              19.88460109               14.33099551               84.20722695                1.00000000                0.01752694                0.09104142               -0.26363876                0.00282398                0.00978575                0.52455770
              20.88477636               13.80436643               83.76130256                0.66431790               -0.03971307               -0.06487868                0.15465557               -0.02323295                0.03355833               -0.26462895
              21.88380683               13.27723096               83.31584098                0.00010000               -1.09066510               -0.20176222                0.55300393               -0.05579524                0.64880311               -0.88599334
              22.86296306               12.75003223               82.88214397                0.00010000               -1.89626765                0.51889793               -0.41731324               -0.34034721                0.93917738               -1.13497626
              23.84588147               12.22328587               82.44997771                0.00010000               -1.43114778                1.00064237               -1.42054578               -0.77855388                0.48084793               -1.34396060
              24.83434010               11.69518449               82.01681489                0.00010000               -0.79277285                1.27631647               -2.51028257               -1.14328584               -0.17100169               -1.57599311
              25.83002602               11.16642359               81.58165260                0.00010000               -0.06269422                1.51768112               -3.65575799               -1.28325067               -0.75798936               -1.83531201
              26.83308622               10.63878685               81.14509480                0.00010000                0.64084587                1.73785745               -4.75301412               -1.16474201               -1.07719836               -2.11382713
              27.84284293               10.11376017               80.70879150                0.00010000                1.23102569                1.89261467               -5.63935783               -0.83371170               -1.02161094               -2.39941990
              28.85770673                9.59214507               80.27475220                0.00010000                1.61067103                1.91979133               -6.11873396               -0.39959030               -0.60958632               -2.66574582
              29.87505635                9.07363699               79.84447566                0.39158410                1.73496253                1.77111197               -6.00093666               -0.10962468               -0.19902203               -2.87719557
              20.41205087               15.33189359               84.06792626                1.00000000                0.01750749                0.09033753               -0.27698755                0.00430985                0.02228572                0.43316907
              21.41222594               14.80375821               83.61813873                0.56632654               -0.03829319               -0.06077920                0.17063271               -0.01203949                0.19717204               -0.26016607
              22.41128501               14.27529307               83.17184858                0.00010000               -1.24190719               -0.19164953                0.55454790                0.47099114                0.97936667               -0.68248001
              23.38738780               13.75674042               82.73769310                0.00010000               -2.26503376                0.96859356               -0.45324974                0.22243585                1.23319348               -0.64365279
              24.36598433               13.23518274               82.30529420                0.00010000               -1.74701220                1.26834885               -1.51133615               -0.31934043                0.65414665               -0.69105597
              25.35244756               12.70938912               81.87113823                0.00010000               -0.95082910                1.49253524               -2.66496361               -0.63756108               -0.12000848               -0.79432674
              26.34696775               12.18278407               81.43443689                0.00010000               -0.14650261                1.70117846               -3.88370387               -0.70393240               -0.79421327               -0.91397671
              27.34951750               11.65706218               80.99598649                0.00010000                0.62624320                1.88860780               -5.05801723               -0.61869822               -1.16669736               -1.04367441
              28.35949261               11.13335926               80.55772668                0.00010000                1.28582165                2.01459896               -6.01344784               -0.42217851               -1.12373297               -1.17949848
              29.37523394               10.61194972               80.12202279                0.00010000                1.71085285                2.03280314               -6.53065050               -0.18750654               -0.68019777               -1.31082483
              30.39370967               10.09203710               79.69072538                0.39196846                1.84757323                1.89902436               -6.38175564               -0.01818963               -0.24452014               -1.41034840
              20.94095803               16.33280226               83.92698778                1.00000000                0.01780519                0.09086740               -0.28697996               -0.07442575                0.21164238                0.34907514
              21.94113608               15.80315084               83.47514135                0.73522143               -0.03567898               -0.06073700                0.17922991               -0.07920109                0.49676782               -0.24924433
              22.94024445               15.27339797               83.02901276                0.36504097               -1.68069844               -0.18951056                0.55471836                1.20860674                1.52762984               -0.61522625
              23.90752211               14.76940410               82.59787574                0.36200703               -2.66992400                1.26636795               -0.49085155                0.77617463                1.59224801               -0.23058951
              24.88684597               14.24865284               82.16594630                0.36086953               -1.67672822                1.34701054               -1.57159153               -0.13228138                0.81076906               -0.27597317
              25.87398754               13.72503520               81.73186114                0.36164912               -0.92858323                1.56460808               -2.75962790               -0.25628505               -0.05066727               -0.32484527
              26.86827430               13.20044716               81.29477103                0.36425467               -0.19252441                1.76630937               -4.02671111               -0.29315423               -0.80481262               -0.37600709
              27.87013706               12.67655900               80.85560852                0.36858188                0.56187630                1.94968219               -5.26215275               -0.25779529               -1.22572814               -0.42405047
              28.87951183               12.15405215               80.41653682                0.37545406                1.25708521                2.06928881               -6.28620608               -0.18597208               -1.19065837               -0.47307010
              29.89527876               11.63280113               79.98016833                0.38464227                1.75029814                2.08514129               -6.86927575               -0.11725161               -0.72165178               -0.52329888
              30.91451779               11.11161747               79.54852809                0.69620598                1.92390300                1.95803707               -6.72866366               -0.03755352               -0.26483090               -0.56271675
              16.12776261                6.46959982               86.31288974                1.00000000                0.03119034                0.08139556               -0.29841785                0.06799864               -0.46272952                0.47944966
              17.12807452                5.94834710               85.89800856                1.00000000               -0.03092009               -0.01114735                0.03256103                0.07506296               -0.61132284                0.06700477
              18.12714421                5.42667989               85.48009104                1.00000000               -0.14272479               -0.08671059                0.33961584                0.06893787               -0.66633461               -0.02742562
              19.12522002                4.90390913               85.06405567                0.69917940               -0.25485444               -0.19829736                0.66391803               -0.00134416               -0.59276590               -0.23120947
              20.12204712                4.37909872               84.64749764                0.57874228               -0.35316276               -0.32990316                0.98695500               -0.00396017               -0.39719807               -0.18959365
              21.11815677                3.85205663               84.23499916                0.38796653               -0.43176514               -0.49826607                1.40743487               -0.05726505                0.21439614               -0.37247829
              22.11341182                3.32159154               83.82978140                0.12172519                0.26336712               -0.72982313                1.77894050               -0.13234712                2.61601420               -0.63349149
              23.12342411                2.78626487               83.46388849                0.00010000                0.56350829               -1.33642834                0.54601236               -2.30033470                5.18534814               -2.32598685
              24.12468199                2.22237503               83.10892050                0.00010000                2.85799352               -2.19026321               -0.16647449                2.17256856                8.26377532               -0.54843123
              25.18058398                1.64324945               82.77538313                1.00000000                3.04000864                0.60311100               -2.00399711               -1.79586542                3.30567451               -0.10685505
              26.18548216                1.10377094               82.37612043                1.00000000                0.48981800                0.32943836               -1.25128932                0.13501124               -0.00979262               -0.04147605
              16.64969532                7.47041377               86.17342443                1.00000000                0.05897946                0.06760800               -0.30754239                0.01906216               -0.05064986                0.64329472
              17.65028511                6.94823563               85.75854228                1.00000000                0.01786309               -0.01996132                0.02549185                0.02786120               -0.03289816                0.09349204
              18.65005258                6.42581278               85.34387643                1.00000000               -0.06439712               -0.09592819                0.32617473               -0.00087137                0.04151871               -0.17051968
              19.64899717                5.90192616               84.93019315                0.93034929               -0.10594018               -0.23670923                0.64133544               -0.03521436                0.22981736               -0.14610411
              20.64793377                5.37579968               84.51877001                0.84556880               -0.13297310               -0.36861619                0.96978723               -0.05804279                0.52706268               -0.12477400
              21.64633771                4.84707397               84.10963974                0.68225831               -0.14747737               -0.54532538                1.41614745               -0.12860294                1.12124658               -0.24907664
              22.64498423                4.31429330               83.70743203                0.46587015                0.18456539               -0.81555356                2.00698934               -0.35928248                2.83161409               -0.44906793
              23.65002901                3.77290059               83.32671287                0.24818188                3.64655788               -1.40480625                1.79545478               -2.13572450                6.69057385               -1.34696308
              24.71791538                3.20047240               82.99211974                0.39329756                3.59491788               -1.19506269               -0.63855518                0.84262116                7.32241964               -0.30332368
              25.72192737                2.64928056               82.63882362                1.00000000                0.41976985                0.59133261               -1.90794298               -0.38927387                2.31656477               -0.13529809
              26.72631078                2.10706532               82.24002155                1.00000000                0.43834097                0.29424658               -1.01967051                0.00115571                0.02862666               -0.03758027
              17.17250015                8.47095198               86.03720185                1.00000000                0.07325837                0.04857276               -0.31072001                0.00001765                0.07335028                0.76080347
              18.17323273                7.94794788               85.61949006                1.00000000                0.04680560               -0.02589548                0.02643191               -0.01133350                0.22148721                0.05661658
              19.17343626                7.42476133               85.20456352                0.00010000                0.06480532               -0.09313044                0.33552064               -0.16607464                0.79055639               -0.57427824
              20.17452884                6.89917494               84.79780398                0.00010000                0.11511004               -0.70060421                0.60819627               -0.67605593                1.27612925               -1.21009609
              21.17573846                6.37172639               84.39122267                0.00010000                0.12811257               -1.02048289                0.91073572               -0.94925672                1.50090587               -1.83209605
              22.17709109                5.84115012               83.98674016                0.00010000                0.23305445               -1.34054454                1.30806113               -1.15402124                2.16677925               -2.49462077
              23.18039955                5.30528046               83.58938254                0.00010000                0.87197179               -1.72490498                1.76478492               -1.46547173                3.84387133               -3.32801550
              24.19453052                4.75816875               83.21082795                0.00010000                4.23774462               -2.24250920                1.33657900               -2.04170691                6.39422898               -4.60129223
              25.26515444                4.19847378               82.86046752                0.00010000                3.58375277               -0.91880613                0.87297149               -4.74004310                6.79428095               -5.35333659
              26.26620558                3.65507610               82.50236404                0.00010000                0.23906524                0.22445989               -1.75986430               -3.18249522                2.04943597               -7.29305458
              27.26993574                3.10965587               82.10406563                0.38427260                0.37301662                1.52946750               -0.77623019               -3.11011089                0.03611879               -7.39861662
              17.69570387                9.47138523               85.90009549                1.00000000                0.05452189                0.04826172               -0.29740542               -0.01867540                0.15316417                0.65015442
              18.69624909                8.94771772               85.47920537                0.62944048               -0.00999282               -0.01927216                0.04526111               -0.04475275                0.24617342               -0.17416535
              19.69550401                8.42395018               85.06006447                0.00010000               -0.38690528               -0.11621521                0.36495753               -0.70209324                0.42222452               -0.99983027
              20.68851098                7.88791407               84.64261072                0.00010000               -0.42652745               -0.86147786                0.31413456               -1.74199847                0.60852018               -2.36094596
              21.68697347                7.35539003               84.22826254                0.00010000                0.05961116               -1.32589495                0.24187478               -2.04950348                0.81893287               -3.55629735
              22.68970321                6.82026307               83.81657352                0.00010000                0.58413481               -1.67180236                0.07904687               -2.51928197                1.07910856               -4.77606937
              23.69865616                6.27979520               83.40981184                0.00010000                1.31491767               -1.94382177               -0.30677585               -3.23310388                1.42938863               -6.13871803
              24.71600156                5.72805041               83.01029720                0.00010000                1.37755028               -1.73529186               -0.87141351               -3.78850527                1.41302789               -7.77017412
              25.72620717                5.18209628               82.61360636                0.00010000                1.55469061               -0.68308622               -1.69502522               -5.56359668                1.51097156               -9.91253097
              26.74709537                4.65376976               82.22262532                0.00010000                1.43709273                0.13005305               -2.07994670               -3.58597993                1.49081564              -12.59719654
              27.75494902                4.13765467               81.82063275                0.38469292                0.78536489                1.87693267               -2.12662131               -2.55908601                1.03915850              -14.09982085
              18.21946166               10.47191721               85.76165511                1.00000000                0.03110703                0.06489560               -0.27575997               -0.00762546                0.01191530                0.54043163
              19.21977273                9.94756243               85.33544325                0.55408540               -0.01318080               -0.03607847                0.09642597               -0.05985763                0.14849306               -0.31981330
              20.21919804                9.42243702               84.91191787                0.00010000               -0.57618548               -0.18153117                0.39596999               -0.86316314                0.22705804               -1.24043464
              21.20824902                8.88194539               84.48718507                0.00010000               -0.83993267               -0.44287571                0.09299427               -1.81012850                0.12859067               -2.31435841
              22.20239939                8.34520849               84.06501594                0.00010000               -0.29743737               -0.70903321               -0.28197135               -2.07651038                0.07360345               -3.39329167
              23.20230027                7.80771407               83.64433783                0.00010000                0.27753763               -0.82933035               -0.80734777               -2.67129909               -0.10279202               -4.52509244
              24.20795014                7.26640403               83.22539048                0.00010000                0.70795380               -0.72605513               -1.48322705               -3.35528539               -0.29790061               -5.74119200
              25.21645934                6.72346291               82.80860698                0.00010000                1.01065077               -0.03084617               -2.28201718               -3.80620085               -0.33425732               -7.02918501
              26.22816315                6.18481205               82.39488594                0.00010000                1.12341194                0.60199774               -3.00545440               -3.06609289               -0.11892532               -8.34416862
              27.23892758                5.65767716               81.98272322                0.00010000                1.14105183                0.78880921               -3.44691931               -2.08654972                0.09525030              -10.03315123
              28.25098419                5.14719453               81.56851865                0.38497908                1.20566073                0.88480858               -3.36352175               -0.94413280                0.37069448              -11.31672526
              18.74426092               11.47268314               85.62230450                1.00000000                0.02712062                0.08200333               -0.25576637               -0.01004683                0.00160619                0.50256494
              19.74453213               10.94699615               85.19208536                0.57504929               -0.02015617               -0.06508054                0.11542459               -0.06365238                0.03123537               -0.28954726
              20.74385780               10.42031955               84.76242191                0.00010000               -0.74975907               -0.21770226                0.45660964               -0.84997325                0.02435163               -1.20846945
              21.72953694                9.87905656               84.33193017                0.00010000               -1.20916107               -0.16480342               -0.06316639               -1.74995866               -0.20410887               -2.15505262
              22.71967457                9.34120936               83.90275844                0.00010000               -0.72276277               -0.14207793               -0.66104720               -1.97097943               -0.50913664               -3.05993064
              23.71508169                8.80367647               83.47362613                0.00010000               -0.19364801               -0.03917970               -1.41881198               -2.44591178               -0.94892152               -4.00122617
              24.71580161                8.26527410               83.04419689                0.00010000                0.31939148                0.26613852               -2.32830018               -2.89632962               -1.32002017               -4.99576442
              25.72146952                7.72743348               82.61532542                0.00010000                0.74347215                0.72841095               -3.28763460               -2.90819537               -1.41483507               -6.03473887
              26.73067106                7.19413623               82.18842943                0.00010000                1.07561945                1.17523906               -4.13530225               -2.37846590               -1.14483193               -7.14550776
              27.74298191                6.66954594               81.76458695                0.00010000                1.31802915                1.36182412               -4.65327629               -1.27213565               -0.60308422               -8.23203605
              28.75703164                6.15535085               81.34351145                0.38549674                1.40497329                1.06229482               -4.63599317               -0.51786225               -0.10303381               -8.99329864
              19.27063470               12.47355728               85.48301126                1.00000000                0.02285656                0.09012730               -0.24938737               -0.00634137               -0.00248956                0.51292985
              20.27086327               11.94626082               85.04883446                0.61562781               -0.02482667               -0.07354339                0.12580278               -0.05390449                0.00207209               -0.27163559
              21.27013817               11.41808298               84.61472501                0.00010000               -0.92516157               -0.21979454                0.48498309               -0.66673444               -0.10915623               -1.06846336
              22.25236003               10.87864932               84.17816855                0.00010000               -1.58891392                0.07870011               -0.16580322               -1.41819075               -0.46746833               -1.87836831
              23.23835989               10.34236693               83.74313075                0.00010000               -1.15213705                0.33339779               -0.92279046               -1.63321330               -0.88301627               -2.59110694
              24.22931729                9.80693048               83.30710286                0.00010000               -0.60466780                0.59642846               -1.85753484               -2.00457699               -1.48359069               -3.32276198
              25.22626653                9.27172680               82.86957416                0.00010000                0.00580070                0.91872378               -2.94442800               -2.26700623               -1.97504953               -4.09847017
              26.22943331                8.73803113               82.43171727                0.00010000                0.61074225                1.28928085               -4.07174776               -2.20005061               -2.11808299               -4.91399240
              27.23848138                8.20831684               81.99579315                0.00010000                1.14184753                1.59627902               -5.05564977               -1.69212155               -1.78951705               -5.73993477
              28.25227026                7.68491364               81.56425719                0.00010000                1.52678804                1.69630115               -5.67273841               -0.88250990               -1.02391678               -6.48767725
              29.26901714                7.16844042               81.13899706                0.38622147                1.67468801                1.50932058               -5.70122615               -0.30415230               -0.34047294               -6.98380644
              19.79872701               13.47448569               85.34380584                1.00000000                0.02013313                0.09257030               -0.25133606               -0.00252466               -0.00164115                0.51816907
              20.79892834               12.94552528               84.90574578                0.65471918               -0.02961978               -0.06920588                0.13323849               -0.03693618                0.00675069               -0.25083441
              21.79813461               12.41592366               84.46783894                0.00010000               -1.10195816               -0.20887870                0.50343359               -0.36267262               -0.13230782               -1.00136552
              22.77688917               11.88063056               84.02684550                0.00010000               -1.97027291                0.32018450               -0.22941641               -0.86922349               -0.56145982               -1.52963971
              23.75872915               11.34787732               83.58747026                0.00010000               -1.56294447                0.74447009               -1.09582815               -1.13249606               -1.06283821               -2.02852448
              24.74563028               10.81560504               83.14637357                0.00010000               -0.96841568                1.07788377               -2.16131819               -1.48873330               -1.79128373               -2.54680454
              25.73936084               10.28364858               82.70293070                0.00010000               -0.23759065                1.38177014               -3.39248177               -1.68456860               -2.38886215               -3.10559637
              26.74087847                9.75321910               82.25862987                0.00010000                0.52926369                1.67675865               -4.66258600               -1.58799339               -2.57898210               -3.69354959
              27.74994611                9.22606181               81.81642358                0.00010000                1.21648264                1.90367838               -5.77088795               -1.18997583               -2.20752395               -4.27113328
              28.76520812                8.70347196               81.37982682                0.00010000                1.69744649                1.97858871               -6.47175735               -0.60066760               -1.28061731               -4.76152472
              29.78389504                8.18553726               80.95184086                0.38676942                1.86869177                1.85367070               -6.51573938               -0.19677952               -0.48414744               -5.06937891
              20.32850501               14.47540868               85.20460287                1.00000000                0.01815504                0.09023410               -0.25765167                0.00155490                0.00817077                0.50649033
              21.32868657               13.94487670               84.76280593                0.70615879               -0.03627899               -0.06058337                0.14217965               -0.02155647                0.02225883               -0.24062164
              22.32777943               13.41390540               84.32128172                0.00010000               -1.28323286               -0.19266151                0.52348775                0.05702248               -0.01475795               -0.84353662
              23.30302191               12.88505301               83.87859013                0.00010000               -2.35219726                0.60378619               -0.26094751               -0.14503910               -0.43727131               -1.12649394
              24.28073549               12.35725634               83.43665546                0.00010000               -1.96252707                1.13520083               -1.19614173               -0.61092204               -1.07616102               -1.39685845
              25.26377137               11.82848815               82.99231292                0.00010000               -1.28871961                1.43264202               -2.35447069               -1.00120763               -1.93642907               -1.71057806
              26.25496110               11.29936220               82.54490399                0.00010000               -0.42555815                1.69250906               -3.69620414               -1.16223469               -2.64127004               -2.06356277
              27.25526020               10.77156630               82.09621757                0.00010000                0.47339485                1.93458434               -5.08285320               -1.07052182               -2.88680753               -2.43597798
              28.26442899               10.24639040               81.64977653                0.00010000                1.27606287                2.11828757               -6.29412772               -0.77442994               -2.49429772               -2.79520264
              29.28078146                9.72448542               81.20987453                0.00010000                1.82609835                2.18360367               -7.05677091               -0.37456914               -1.45683975               -3.08247096
              30.30095096                9.20551384               80.78027731                0.38707387                2.01695005                2.08703523               -7.09228299               -0.10127524               -0.58368162               -3.21959172
              20.85982206               15.47629037               85.06518727                1.00000000                0.01784242                0.08797691               -0.26783027                0.00378189                0.02583643                0.41276672
              21.86000049               14.94431361               84.61980576                0.60340987               -0.03616549               -0.05626860                0.15806162               -0.00977193                0.17058559               -0.23286052
              22.85909875               14.41207043               84.17731187                0.00010000               -1.46815142               -0.18018328                0.52560698                0.62184560                0.27518558               -0.64419768
              23.83063746               13.89270628               83.73390977                0.00010000               -2.80115931                1.10587137               -0.26572889                0.40213660               -0.19522468               -0.62552229
              24.80307557               13.37058133               83.29127323                0.00010000               -2.35685973                1.41349701               -1.23650155               -0.20163994               -0.97431828               -0.70827351
              25.78350026               12.84425788               82.84531760                0.00010000               -1.50187867                1.64781443               -2.45401519               -0.55528473               -1.98177523               -0.85375966
              26.77303799               12.31749876               82.39560669                0.00010000               -0.55302153                1.87740115               -3.87616697               -0.63707627               -2.79915372               -1.02070972
              27.77243983               11.79191079               81.94418924                0.00010000                0.42502009                2.09743110               -5.35614774               -0.57005230               -3.11331626               -1.19679390
              28.78153840               11.26842756               81.49501322                0.00010000                1.30767372                2.26416921               -6.65743787               -0.39686679               -2.72521890               -1.36608230
              29.79859331               10.74714404               81.05299658                0.00010000                1.91371537                2.32592105               -7.47570431               -0.18093985               -1.60798447               -1.49619262
              30.81981270               10.22727796               80.62268842                0.38764554                2.12193951                2.23639039               -7.48214307               -0.01804367               -0.67380494               -1.50604921
              21.39253416               16.47716822               84.92416244                1.00000000                0.01769030                0.08778543               -0.27583101               -0.07047938                0.20556515                0.32844165
              22.39271106               15.94375133               84.47690230                0.75186726               -0.03552411               -0.05622824                0.16724785               -0.07226668                0.44726957               -0.22203888
              23.39182368               15.41030174               84.03447226                0.36434336               -2.00786627               -0.17686937                0.52488527                1.44344764                0.78420216               -0.57244845
              24.35255374               14.90717044               83.59389547                0.36176086               -3.33362899                1.44641530               -0.25874521                0.95285473                0.14241539               -0.22534651
              25.32515110               14.38552628               83.15157361                0.36097664               -2.34027451                1.49449417               -1.23362223               -0.07874675               -0.85228653               -0.28906232
              26.30574825               13.86144444               82.70536621                0.36162159               -1.52922171                1.71865641               -2.47948584               -0.20600425               -1.98178992               -0.35343558
              27.29456666               13.33691023               82.25475490                0.36359785               -0.64089475                1.94114664               -3.95596434               -0.24360891               -2.91662723               -0.41656081
              28.29293035               12.81351492               81.80194688                0.36737526                0.33458717                2.16041387               -5.51236250               -0.21277006               -3.31147960               -0.47175511
              29.30125841               12.29167379               81.35118095                0.37338357                1.26909573                2.32462229               -6.90345806               -0.15355314               -2.95129497               -0.51805336
              30.31831227               11.77100384               80.90774149                0.38131550                1.95319168                2.38598024               -7.81062956               -0.09971133               -1.78643045               -0.54652837
              31.34032224               11.25024164               80.47698166                0.69395026                2.20099735                2.29636817               -7.83194423               -0.02526599               -0.80516849               -0.48657398
              16.53621593                6.61390433               87.30985376                1.00000000                0.03122066                0.07923037               -0.29235608                0.06530722               -0.48669352                0.47862923
              17.53652813                6.08852050               86.89823687                1.00000000               -0.02944058               -0.00694851                0.02039252                0.07221274               -0.65417444                0.06746217
              18.53562712                5.56265777               86.48333678                1.00000000               -0.13694581               -0.07476337                0.30981982                0.06461389               -0.71156390               -0.03448898
              19.53378922                5.03553006               86.07051223                0.69833318               -0.23540217               -0.18347331                0.61851484               -0.00754572               -0.62642820               -0.24222188
              20.53091907                4.50611416               85.65709866                0.59890115               -0.30180676               -0.31620214                0.90871056                0.00288787               -0.36615813               -0.17646522
              21.52775308                3.97412853               85.24880758                0.45098004               -0.33047404               -0.48222374                1.29041011               -0.01059800                0.34562087               -0.29274549
              22.52430959                3.43829304               84.84798208                0.25500922               -0.00000297               -0.69963309                1.70423201                0.00827163                2.12633939               -0.36429327
              23.52775302                2.89564254               84.47163427                0.07447733                2.60648640               -0.81670801                0.93482521               -0.79458243                4.06628916               -1.22349731
              24.57643932                2.32643241               84.11332436                0.25165843                2.40613253                0.45058173               -0.05540195               -2.51112847                6.12343261               -1.19261046
              25.57587567                1.77792194               83.75613243                1.00000000                0.20443141                0.54430322               -1.81628641               -0.29444673                1.73373199               -0.21625643
              26.58052795                1.23863399               83.36387416                1.00000000                0.46522741                0.34057673               -1.24898768                0.11723906               -0.05076579                0.02821819
              17.06225282                7.61469663               87.17029166                1.00000000                0.06207171                0.06544608               -0.30364613                0.01910980               -0.07785061                0.63799267
              18.06287354                7.08845102               86.75869072                1.00000000                0.02578281               -0.01604144                0.01025524                0.02781670               -0.08683408                0.09500594
              19.06276848                6.56191014               86.34694340                1.00000000               -0.04439851               -0.08418903                0.28627345               -0.00609017               -0.03005432               -0.16496343
              20.06198557                6.03369533               85.93630863                0.94965194               -0.05598806               -0.22411966                0.57072562               -0.03857482                0.16218908               -0.15643465
              21.06164872                5.50295214               85.52795126                0.88089510               -0.02139527               -0.35257530                0.84210792               -0.05521674                0.50370941               -0.11376344
              22.06155766                4.96930630               85.12303426                0.76263407                0.09932951               -0.52809850                1.20335979               -0.09247126                1.19201867               -0.19270508
              23.06363531                4.43129671               84.72604975                0.62163742                0.70899273               -0.78192467                1.58379085               -0.07470240                2.64555842               -0.27106641
              24.07573752                3.88747546               84.34546390                0.49961986                2.32765153               -1.10469060                1.39782361               -0.28854738                4.61321621               -0.72078001
              25.11018834                3.33093823               83.98347071                0.69523280                2.05464494                0.08206130               -0.66660393               -1.32267757                2.78502403               -0.01983157
              26.11683042                2.78336497               83.61969866                1.00000000                0.53999739                0.54102766               -1.76742748               -0.24500338                1.45893835               -0.24885814
              27.12098828                2.24203976               83.22999952                1.00000000                0.41578686                0.30906493               -1.04242208                0.01189409                0.14292780                0.05729576
              17.58908934                8.61521325               87.03403292                1.00000000                0.07816151                0.04761375               -0.30947541               -0.00193933                0.04192865                0.76492179
              18.58987096                8.08819968               86.61964469                1.00000000                0.05858310               -0.02196613                0.00889293               -0.01498893                0.16449819                0.07154183
              19.59026100                7.56097399               86.20771578                0.00010000                0.10523824               -0.07931437                0.29174302               -0.18963381                0.68295586               -0.54021902
              20.59197572                7.03104767               85.80345472                0.00010000                0.19713832               -0.68978985                0.51110444               -0.77246775                1.12503748               -1.31496728
              21.59420377                6.49906266               85.39954412                0.00010000                0.27916817               -0.97444037                0.73534145               -1.16520213                1.34816907               -2.07464805
              22.59755909                5.96356656               84.99846299                0.00010000                0.52213055               -1.23375585                1.00237366               -1.54776203                1.97154555               -2.93818220
              23.60464638                5.42265455               84.60445918                0.00010000                1.23907385               -1.50181026                1.20351551               -2.02563651                3.10738192               -3.99667279
              24.62234056                4.87354873               84.22248498                0.00010000                2.47249383               -1.65686284                0.82303591               -2.32247949                4.21595245               -5.22427862
              25.65409626                4.32807363               83.85369236                0.00010000                1.87667557               -0.75299399               -0.56469316               -2.95630678                1.88756710               -6.26737345
              26.65987407                3.78874249               83.48428517                0.00010000                0.46599959                0.02308328               -1.61293255               -2.33635227                1.07680118               -7.75288161
              27.66341625                3.24481529               83.09638115                0.38040847                0.35421763                1.03751581               -0.83985256               -2.24208254                0.14252794               -8.14702337
              18.11624118                9.61564890               86.89707009                1.00000000                0.05718368                0.04994720               -0.29645696               -0.02305408                0.12232211                0.66885275
              19.11681301                9.08801170               86.47955880                0.65752472               -0.00566837               -0.01387756                0.02733558               -0.04874599                0.19792593               -0.13422108
              20.11612781                8.56032385               86.06357567                0.00010000               -0.41827311               -0.10445244                0.33001168               -0.73285544                0.18616049               -0.95634415
              21.10844755                8.01989953               85.64566380                0.00010000               -0.51510152               -0.82920922                0.31342004               -1.89493990                0.13501717               -2.51182618
              22.10582578                7.48346333               85.23044920                0.00010000               -0.07185118               -1.22443343                0.22162723               -2.36500641                0.18227581               -3.96325989
              23.10701053                6.94463118               84.81664787                0.00010000                0.36573172               -1.44993594               -0.03084380               -3.06946539                0.15965339               -5.54085064
              24.11314041                6.40126051               84.40548518                0.00010000                0.84291577               -1.50428358               -0.51471340               -3.75967138                0.17446680               -7.34302466
              25.12386884                5.85433820               83.99894103                0.00010000                1.13640125               -1.13589297               -1.22822931               -4.10015251                0.12942509               -9.12813335
              26.13586844                5.31587835               83.59822944                0.00010000                1.47464362               -0.72546978               -1.82618908               -4.39545210                0.58424360              -11.45250498
              27.15336171                4.78382663               83.20041650                0.00010000                1.40662979               -0.17873350               -2.49642805               -3.10258383                0.24749364              -14.16178022
              28.16400103                4.26279007               82.79776895                0.38095093                1.06393184                1.26486967               -2.60757191               -1.94953739                0.36728323              -15.95945263
              18.64390267               10.61621219               86.75886764                1.00000000                0.03184142                0.06874257               -0.27301268               -0.01058707                0.01032759                0.56487370
              19.64422109               10.08792212               86.33631970                0.59181500               -0.00933067               -0.03023654                0.07800594               -0.06260580                0.10825873               -0.28334389
              20.64371606                9.55888494               85.91574758                0.00010000               -0.66418222               -0.17315635                0.36165143               -0.86421966               -0.12643836               -1.18779132
              21.63093744                9.01446348               85.48833293                0.00010000               -1.07720331               -0.37878015                0.16718798               -1.87336522               -0.59070143               -2.39599522
              22.62217200                8.47457399               85.06244242                0.00010000               -0.62824207               -0.57350924               -0.18496271               -2.21762092               -0.86690671               -3.66949535
              23.61837260                7.93456784               84.63618152                0.00010000               -0.12130318               -0.59437497               -0.77700969               -2.84375278               -1.31057311               -5.05989031
              24.61974593                7.39256888               84.20975065                0.00010000                0.36735353               -0.38851689               -1.60800971               -3.40188310               -1.70093765               -6.54813667
              25.62571967                6.85083087               83.78444484                0.00010000                0.84764259                0.05591817               -2.56768439               -3.53520041               -1.72664935               -8.15391980
              26.63669878                6.31356424               83.36251533                0.00010000                1.25954974                0.28750584               -3.49348517               -2.98174576               -1.34020409               -9.92458556
              27.65091067                5.78516782               82.94554107                0.00010000                1.48999190                0.57406461               -4.15133767               -1.98879148               -0.60364483              -11.78863500
              28.66649862                5.27011268               82.53159910                0.38132564                1.55879530                0.79608519               -4.23593447               -0.93207106               -0.03087775              -13.23304807
              19.17260957               11.61702376               86.61974123                1.00000000                0.02785767                0.08542189               -0.25039205               -0.01256241               -0.00039414                0.51879448
              20.17288814               11.08740697               86.19315635                0.61511620               -0.01537552               -0.05951384                0.09715370               -0.06327982                0.01269014               -0.27298505
              21.17230206               10.55686073               85.76684305                0.00010000               -0.87984698               -0.20641596                0.41823474               -0.81575412               -0.40274210               -1.15719020
              22.15529120               10.01232393               85.33174811                0.00010000               -1.54665285               -0.08940531                0.06597479               -1.71820294               -1.11482990               -2.19108424
              23.14136900                9.47199315               84.89676340                0.00010000               -1.15753120               -0.00665752               -0.48004382               -1.95335564               -1.65451272               -3.24433555
              24.13214058                8.93274368               84.45969317                0.00010000               -0.62646356                0.15230257               -1.31619623               -2.41810504               -2.37165063               -4.39383698
              25.12883973                8.39349017               84.02037684                0.00010000                0.00144470                0.44588549               -2.41542637               -2.79286974               -2.92433986               -5.65533819
              26.13216947                7.85545656               83.58080154                0.00010000                0.65284208                0.81151422               -3.65073665               -2.77620285               -3.02030928               -6.99460507
              27.14189657                7.32162846               83.14425261                0.00010000                1.24339836                1.14186422               -4.81511381               -2.27223476               -2.48256130               -8.39289537
              28.15703744                6.79530793               82.71403230                0.00010000                1.67866577                1.32149685               -5.63731735               -1.29035750               -1.39032595               -9.74055093
              29.17546988                6.27871178               82.29253732                0.38167499                1.84324440                1.17058510               -5.81225860               -0.52739038               -0.43746207              -10.65360043
              19.70288500               12.61792063               86.48053317                1.00000000                0.02335174                0.09103866               -0.24127450               -0.00818055               -0.00395871                0.51603737
              20.70311852               12.08673185               86.05001226                0.65519541               -0.02004941               -0.06696680                0.10793045               -0.05120920               -0.00822815               -0.25801427
              21.70248402               11.55475663               85.61941293                0.00010000               -1.08387793               -0.20582151                0.44477719               -0.60188449               -0.58592009               -1.03362250
              22.68144096               11.01267538               85.17714233                0.00010000               -1.98994427                0.15120786                0.00525457               -1.31089283               -1.50445641               -1.88579544
              23.66268513               10.47444084               84.73478634                0.00010000               -1.64637416                0.45407714               -0.68108836               -1.52538233               -2.18565751               -2.71120696
              24.64851348                9.93761390               84.28902593                0.00010000               -1.07547400                0.74864797               -1.70319755               -1.89649690               -3.08764620               -3.61620485
              25.64117565                9.40148659               83.83965696                0.00010000               -0.32280786                1.07492577               -3.02377202               -2.15954482               -3.78388340               -4.61375624
              26.64205732                8.86706115               83.38912700                0.00010000                0.51135376                1.42385892               -4.49454101               -2.10890675               -3.92053239               -5.68042927
              27.65140273                8.33640152               82.94176772                0.00010000                1.29814396                1.72362338               -5.87532210               -1.65911612               -3.29665387               -6.75148182
              28.66802020                7.81159776               82.50265225                0.00010000                1.88701918                1.86990632               -6.86036811               -0.89208259               -1.90572525               -7.68663150
              29.68914311                7.29352439               82.07629241                0.38235463                2.11229075                1.76176279               -7.12083929               -0.32208304               -0.73639538               -8.26457643
              20.23482352               13.61884453               86.34132589                1.00000000                0.02044461                0.09116297               -0.24078345               -0.00402145               -0.00326389                0.51207376
              21.23502796               13.08606763               85.90699868                0.69507781               -0.02513398               -0.06189129                0.11544705               -0.03380366               -0.00290290               -0.23470499
              22.23432084               12.55274430               85.47268240                0.00010000               -1.28194134               -0.19346597                0.46000999               -0.27380461               -0.64442239               -0.96293228
              23.20938914               12.01534809               85.02534059                0.00010000               -2.41990012                0.38813500               -0.02251890               -0.71333395               -1.68273908               -1.51868556
              24.18592283               11.48107469               84.57762949                0.00010000               -2.11121229                0.85524446               -0.80084722               -0.98405543               -2.48342906               -2.09998178
              25.16716489               10.94771664               84.12546969                0.00010000               -1.48606294                1.22075026               -1.96023662               -1.36182501               -3.54582017               -2.75039603
              26.15620158               10.41498868               83.66861982                0.00010000               -0.60442433                1.54948817               -3.45416454               -1.58312926               -4.37071770               -3.47915016
              27.15507640                9.88393374               83.21001377                0.00010000                0.39880329                1.87233811               -5.11498258               -1.52337737               -4.55972017               -4.25427123
              28.16417764                9.35610093               82.75491130                0.00010000                1.34982618                2.14324781               -6.67372668               -1.16652014               -3.86725614               -5.00506894
              29.18207293                8.83270605               82.30968031                0.00010000                2.04986626                2.28640623               -7.79108310               -0.60524768               -2.25748358               -5.61256632
              30.20517497                8.31394703               81.88030267                0.38293610                2.31020399                2.24366002               -8.10302324               -0.20419926               -0.92550029               -5.92846506
              20.76835837               14.61974389               86.20207392                1.00000000                0.01843095                0.08724122               -0.24498057                0.00036843                0.00594472                0.49355392
              21.76854268               14.08549402               85.76414616                0.74682416               -0.03154518               -0.05314970                0.12360932               -0.01857438                0.01060609               -0.21759011
              22.76772747               13.55088731               85.32631074                0.00010000               -1.48493962               -0.17628585                0.47629701                0.16539634               -0.55240463               -0.80496916
              23.73884389               13.02043808               84.87692502                0.00010000               -2.85459997                0.67882755               -0.01798327                0.03956109               -1.61211540               -1.10206949
              24.71063547               12.49154573               84.42605488                0.00010000               -2.57404518                1.25122127               -0.84499762               -0.46209407               -2.57939647               -1.42951898
              25.68736299               11.96202890               83.96972548                0.00010000               -1.86697541                1.57719926               -2.09630092               -0.88778333               -3.80804454               -1.83341283
              26.67329596               11.43247635               83.50772852                0.00010000               -0.84427279                1.87651410               -3.71849088               -1.08047668               -4.77008273               -2.29844164
              27.67047753               10.90450791               83.04343774                0.00010000                0.30020260                2.17316264               -5.52718527               -1.02208136               -5.02672816               -2.79128061
              28.67930001               10.37926648               82.58290895                0.00010000                1.37958073                2.42661339               -7.22664920               -0.75893884               -4.29565177               -3.25488278
              29.69806914                9.85732588               82.13361678                0.00010000                2.16385743                2.57264297               -8.44026992               -0.37713894               -2.51897647               -3.58987550
              30.72257716                9.33839759               81.70263000                0.38321076                2.45080175                2.56323681               -8.76637804               -0.10908350               -1.07114628               -3.66530019
              21.30333062               15.62058935               86.06256966                1.00000000                0.01824407                0.08384336               -0.25313959                0.00308949                0.02832730                0.39658809
              22.30351306               15.08500464               85.62129997                0.63843591               -0.03229541               -0.04885222                0.13777170               -0.00709072                0.14524130               -0.20740814
              23.30268471               14.54921858               85.18236072                0.00010000               -1.69955596               -0.16295505                0.47798430                0.75639283               -0.28160337               -0.61027009
              24.26952194               14.02892464               84.73237852                0.00010000               -3.37972892                1.22438436                0.02003392                0.56528584               -1.38529665               -0.59855006
              25.23509013               13.50609912               84.28056417                0.00010000               -3.05216702                1.53625582               -0.81525344               -0.09849965               -2.52330310               -0.71871321
              26.20847860               12.97926062               83.82205792                0.00010000               -2.14885501                1.79201790               -2.11886878               -0.48863393               -3.94110655               -0.90952417
              27.19211303               12.45251897               83.35691355                0.00010000               -1.03169747                2.06715849               -3.83072043               -0.58992477               -5.05684560               -1.13068154
              28.18784465               11.92739700               82.88886353                0.00010000                0.20339337                2.35503620               -5.75460468               -0.54409398               -5.40936767               -1.36374465
              29.19618090               11.40463320               82.42457792                0.00010000                1.37771968                2.60445745               -7.57264677               -0.39233892               -4.67912064               -1.57902798
              30.21539904               10.88415891               81.97250871                0.00010000                2.23344956                2.75274356               -8.86751571               -0.18705682               -2.76722272               -1.71780189
              31.24084989               10.36521177               81.54108252                0.38370297                2.54508464                2.74509649               -9.17205475               -0.02686875               -1.21624939               -1.62855172
              21.83958960               16.62142076               85.92147116                1.00000000                0.01820463                0.08314022               -0.26056669               -0.06447979                0.20083885                0.31152584
              22.83977164               16.08451698               85.47848631                0.76774031               -0.03271354               -0.04876584                0.14565028               -0.06376901                0.40204926               -0.19746360
              23.83893533               15.54762820               85.03951046                0.36371825               -2.32512866               -0.15903736                0.47582269                1.64550105                0.21820030               -0.53564815
              24.79326907               15.04492576               84.59270084                0.36177069               -4.03029179                1.60011284                0.09295977                1.10684494               -1.00842728               -0.23275505
              25.75832949               14.52227084               84.14127385                0.36108721               -3.10493062                1.61717259               -0.71820608               -0.02888934               -2.40569588               -0.31601927
              26.73117046               13.99786926               83.68227142                0.36137984               -2.24841977                1.86086352               -2.03992999               -0.15338013               -4.00568813               -0.39482194
              27.71336109               13.47381952               83.21565174                0.36316644               -1.18445187                2.13005545               -3.81267469               -0.18822463               -5.29844769               -0.46819908
              28.70748142               12.95160864               82.74536127                0.36654488                0.06651123                2.42116416               -5.83212641               -0.15951754               -5.78023714               -0.52889519
              29.71469132               12.43135563               82.27846766                0.37122011                1.31340083                2.67224303               -7.76704775               -0.11035208               -5.10797431               -0.57018824
              30.73374944               11.91238075               81.82395574                0.37813572                2.26213761                2.82218402               -9.18059529               -0.06776625               -3.12257424               -0.57200347
              31.75993407               11.39329952               81.39188920                0.69207737                2.61846351                2.80877449               -9.50999039                0.00029456               -1.49339007               -0.38546491
              16.94126252                6.75829660               88.30704261                1.00000000                0.02454909                0.06978593               -0.25464044                0.05697258               -0.50628573                0.47458826
              17.94150801                6.22878865               87.89841641                1.00000000               -0.03124705               -0.00607231                0.02285961                0.06288038               -0.69072058                0.06692496
              18.94063758                5.69877686               87.48628743                1.00000000               -0.12892191               -0.06423435                0.28251492                0.05376176               -0.74886844               -0.04416194
              19.93892957                5.16747189               87.07642596                0.69716112               -0.21044832               -0.16169173                0.55832692               -0.01527944               -0.66530164               -0.26040655
              20.93642861                4.63386422               86.66567185                0.62000486               -0.23719028               -0.27852582                0.79207089               -0.00080581               -0.38599782               -0.17759048
              21.93418577                4.09774834               86.26080736                0.51476989               -0.16583472               -0.41838923                1.07460698                0.00468856                0.37161648               -0.25073516
              22.93311192                3.55817034               85.86386604                0.38714950                0.26109249               -0.57754625                1.33849927                0.05475117                1.70721819               -0.32585718
              23.93940761                3.01413567               85.48258499                0.29293043                1.47702810               -0.65013887                0.81103181               -0.45053596                2.84680787               -0.75377868
              24.96265248                2.45823011               85.10781246                0.51535193                1.26506038                0.14776575               -0.41615834               -1.44432897                1.42272210                0.19537303
              25.96470882                1.91179185               84.73905740                1.00000000                0.31654577                0.43588029               -1.57142634               -0.32042672                0.93695901               -0.23984205
              26.96898339                1.37208457               84.35114067                1.00000000                0.42745709                0.36196839               -1.30417038               -0.01230648               -0.05841855                0.02768448
              17.47134019                7.75899446               88.16735150                1.00000000                0.05564944                0.05876931               -0.26983159                0.01598108               -0.10504532                0.62998053
              18.47189668                7.22872793               87.75874738                1.00000000                0.02466942               -0.01390124                0.00777429                0.02359429               -0.14299016                0.09574968
              19.47183358                6.69813451               87.34960190                1.00000000               -0.03317944               -0.07260901                0.24816873               -0.01125974               -0.11365469               -0.16098901
              20.47123309                6.16585497               86.94160767                0.97365752               -0.02756257               -0.19757310                0.48588410               -0.03919363                0.05362485               -0.17462034
              21.47128233                5.63107896               86.53561217                0.92183060                0.04232482               -0.30643678                0.68703904               -0.05127829                0.36850722               -0.10989803
              22.47207959                5.09356445               86.13370694                0.84764527                0.20917183               -0.44877347                0.92348827               -0.06314579                0.96850188               -0.15581612
              23.47546576                4.55239488               85.73910784                0.77819978                0.63963895               -0.61293839                1.05458028               -0.02584397                1.84556757               -0.21267848
              24.48487237                4.00763428               85.35466935                0.74371594                1.19576674               -0.69648144                0.67696166               -0.12391656                2.38935364               -0.48861613
              25.49938110                3.45970777               84.97878766                0.97711419                0.98524792                0.00687341               -0.37962963               -0.65152589                1.33808076               -0.03762057
              26.50457733                2.91615066               84.60347507                1.00000000                0.45932593                0.37543881               -1.32772252               -0.18297630                0.75341303               -0.25322963
              27.50856762                2.37570425               84.21917311                1.00000000                0.39902878                0.34307080               -1.16093285               -0.06409252                0.27604941                0.04495403
              18.00211519                8.75947198               88.03101234                1.00000000                0.07246440                0.04665543               -0.28155258               -0.00450065                0.00906709                0.76834639
              19.00283984                8.22851063               87.61966792                1.00000000                0.05850735               -0.01848226                0.00116964               -0.01709842                0.10175382                0.08685782
              20.00328534                7.69732468               87.21039838                0.00010000                0.11807051               -0.06715111                0.24562932               -0.18507794                0.54737415               -0.50113506
              21.00520125                7.16352042               86.80802607                0.00010000                0.22041123               -0.65278154                0.40573186               -0.82422443                0.89718632               -1.35027081
              22.00769357                6.62773548               86.40592950                0.00010000                0.32028424               -0.89262187                0.55475990               -1.31974813                1.03963555               -2.19882611
              23.01160693                6.08877287               86.00678763                0.00010000                0.54158179               -1.09184572                0.69625098               -1.80216030                1.44672273               -3.22153597
              24.01852520                5.54591157               85.61345285                0.00010000                0.90047296               -1.23758204                0.70937020               -2.20901275                1.93709915               -4.42542484
              25.02961639                5.00020604               85.22728867                0.00010000                1.12901923               -1.20532063                0.36974166               -2.32852811                2.02214944               -5.60751261
              26.04110559                4.45836758               84.84917366                0.00010000                0.77182115               -0.77422822               -0.37073772               -2.19349726                0.91098955               -7.04467113
              27.04505282                3.91930063               84.47010539                0.00010000                0.37443845               -0.34362007               -1.08365385               -1.57465912                0.48210856               -8.51538849
              28.04859436                3.37894598               84.08726858                0.37707586                0.35415399                0.37717098               -1.00713699               -1.08435546                0.26485428               -9.27275453
              18.53317289                9.75992757               87.89416635                1.00000000                0.05291342                0.05357780               -0.27352773               -0.02448327                0.09057646                0.69020800
              19.53370202                9.22835828               87.47975208                0.68724211               -0.00253334               -0.01063117                0.01406568               -0.04589764                0.14923825               -0.09322094
              20.53312222                8.69679149               87.06666470                0.00010000               -0.46821125               -0.09554294                0.28219774               -0.70941219               -0.00645795               -0.90926109
              21.52433780                8.15279934               86.64887912                0.00010000               -0.67436520               -0.77896252                0.36505734               -1.95130323               -0.28533702               -2.52391008
              22.51963492                7.61322652               86.23269509                0.00010000               -0.32387502               -1.11155479                0.28329956               -2.57763560               -0.49062906               -4.15546304
              23.51786030                7.07172753               85.81595664                0.00010000                0.01087095               -1.26509524               -0.03836038               -3.42048252               -0.85719375               -6.05310032
              24.51985234                6.52764324               85.39951757                0.00010000                0.39927520               -1.26809665               -0.61590120               -4.05284020               -1.14269219               -8.23540287
              25.52584580                5.98352787               84.98573261                0.00010000                0.82821145               -1.08410212               -1.40849368               -4.19373729               -1.16478753              -10.59749690
              26.53641657                5.44422320               84.57708258                0.00010000                1.33299714               -0.90352017               -2.31911906               -3.75461773               -0.82532745              -13.47458440
              27.55250574                4.90927825               84.17269676                0.00010000                1.55866181               -0.55059820               -3.10931579               -2.41287146               -0.64295458              -16.12295092
              28.56758980                4.38324767               83.76848131                0.37756347                1.50840578                0.44096071               -3.37799421               -1.12024729               -0.09927094              -18.33358345
              19.06476409               10.76054354               87.75619486                1.00000000                0.02938687                0.07329682               -0.25345228               -0.01205783                0.00750329                0.59406090
              20.06505796               10.22829800               87.33700336                0.63114734               -0.00540244               -0.02571977                0.05883910               -0.05738180                0.07054610               -0.24510508
              21.06465604                9.69541382               86.91915090                0.00010000               -0.76589053               -0.16405442                0.31378101               -0.81339294               -0.38941269               -1.13642015
              22.04974015                9.14794117               86.49052883                0.00010000               -1.37216917               -0.31869364                0.32281824               -1.84636138               -1.17295776               -2.37098357
              23.03721266                8.60550439               86.06131668                0.00010000               -1.04797896               -0.46238958                0.03695098               -2.27329299               -1.77893189               -3.79215705
              24.02878057                8.06347097               85.62879764                0.00010000               -0.57722990               -0.43861073               -0.62447392               -2.93899039               -2.59742394               -5.44692148
              25.02566806                7.52054964               85.19323029                0.00010000                0.01905543               -0.26911026               -1.64187020               -3.42964317               -3.23179021               -7.33105254
              26.02916168                6.97852400               84.75725329                0.00010000                0.72973929               -0.03343240               -2.87971214               -3.44553519               -3.31519096               -9.44500109
              27.04026285                6.44029718               84.32501624                0.00010000                1.43046212                0.14013682               -4.14271472               -2.94314127               -2.74382430              -11.74700583
              28.05777092                5.90828867               83.89969647                0.00010000                1.89938664                0.41727444               -5.18287030               -1.90735193               -1.53914046              -13.97439091
              29.07825058                5.38776520               83.48379996                0.37775706                2.04796584                0.71689281               -5.56388606               -0.86821836               -0.47014637              -15.57216874
              19.59742280               11.76139350               87.61729666                1.00000000                0.02613065                0.08749108               -0.23273330               -0.01329864               -0.00273046                0.54037023
              20.59768411               11.22784389               87.19402844                0.65679849               -0.01058050               -0.05198997                0.07686605               -0.05610585               -0.00429314               -0.25286153
              21.59721119               10.69351040               86.77078660                0.00010000               -1.01820553               -0.19213176                0.36650117               -0.73923889               -0.70606255               -1.10593553
              22.57732000               10.14642547               86.33324967                0.00010000               -1.92859632               -0.03001227                0.29500965               -1.61871614               -1.82747995               -2.14941927
              23.55863927                9.60397873               85.89315756                0.00010000               -1.66423799                0.08861556               -0.15224236               -1.89598320               -2.74308697               -3.32354984
              24.54403524                9.06295532               85.44730221                0.00010000               -1.12164132                0.26794439               -1.07938323               -2.39022638               -3.87906167               -4.71389747
              25.53620644                8.52226103               84.99588836                0.00010000               -0.34238389                0.53295265               -2.44156318               -2.76381845               -4.74156984               -6.32374893
              26.53718756                7.98285922               84.54231069                0.00010000                0.57913176                0.83431619               -4.07756917               -2.77424338               -4.91533290               -8.10241970
              27.54778907                7.44702594               84.09212716                0.00010000                1.48515624                1.11656667               -5.72417593               -2.32376363               -4.13715433               -9.95856152
              28.56689069                6.91762374               83.65184060                0.00010000                2.17416492                1.36221712               -7.02186055               -1.37901386               -2.39550752              -11.64614844
              29.59127237                6.39758553               83.22726628                0.37829788                2.43816875                1.38091731               -7.54624720               -0.56590526               -0.90218244              -12.77349576
              20.13159735               12.76229336               87.47818577                1.00000000                0.02215978                0.08964556               -0.22388489               -0.00884783               -0.00556733                0.52462874
              21.13181894               12.22725820               87.05099307                0.69736508               -0.01538289               -0.05733031                0.08772419               -0.04462554               -0.01653857               -0.24083833
              22.13128969               11.69157118               86.62362055                0.00010000               -1.24607235               -0.18715991                0.39164603               -0.51121094               -0.91388599               -0.99694205
              23.10689750               11.14734093               86.17827364                0.00010000               -2.42632724                0.20243500                0.28944018               -1.16635933               -2.29915169               -1.83945301
              24.08276314               10.60727670               85.72950898                0.00010000               -2.21018761                0.53152044               -0.27593295               -1.41094353               -3.40951110               -2.76395362
              25.06269374               10.06882985               85.27303891                0.00010000               -1.61376766                0.84711247               -1.40682999               -1.81898456               -4.78761749               -3.86969724
              26.05048779                9.53120869               84.80909871                0.00010000               -0.68909207                1.18664938               -3.04844908               -2.12117794               -5.83862125               -5.15706837
              27.04891190                8.99521032               84.34182645                0.00010000                0.42676318                1.54818602               -5.00655432               -2.11875782               -6.06881767               -6.57000501
              28.05902305                8.46262851               83.87828671                0.00010000                1.53595786                1.88966296               -6.96697275               -1.72659729               -5.16108832               -7.98891732
              29.07963106                7.93553301               83.42704983                0.00010000                2.39929285                2.13161807               -8.51738087               -0.97342831               -3.03417581               -9.21396956
              30.10700891                7.41538354               82.99658028                0.37856403                2.73778503                2.15224178               -9.18277819               -0.37154912               -1.24706553               -9.95048128
              20.66731616               13.76318641               87.33899017                1.00000000                0.01976188                0.08713187               -0.22299007               -0.00480896               -0.00497337                0.51142733
              21.66751378               13.22669728               86.90805472                0.73466448               -0.02059546               -0.05172955                0.09517622               -0.02881442               -0.01023685               -0.21654735
              22.66690425               12.68976720               86.47703914                0.00010000               -1.46132417               -0.17217414                0.40646384               -0.17801610               -0.98586126               -0.92698526
              23.63828729               12.15047417               86.02639512                0.00010000               -2.89863894                0.43163821                0.30820194               -0.55100477               -2.52260521               -1.47353957
              24.60893147               11.61460914               85.57145332                0.00010000               -2.72818696                0.92272911               -0.32783930               -0.84963202               -3.80378615               -2.13164701
              25.58372355               11.07989757               85.10716884                0.00010000               -2.07645296                1.32009054               -1.60586112               -1.26860151               -5.39388785               -2.93645436
              26.56740241               10.54599402               84.63384741                0.00010000               -1.01654838                1.69454742               -3.45939885               -1.53576155               -6.61546670               -3.88105920
              27.56339259               10.01382294               84.15633022                0.00010000                0.27660167                2.08403005               -5.66872803               -1.52707586               -6.91243026               -4.90811614
              28.57293444                9.48481920               83.68294904                0.00010000                1.56372498                2.44988081               -7.87939061               -1.21264894               -5.91058784               -5.90737887
              29.59466709                8.96025610               83.22400515                0.00010000                2.56029385                2.71632520               -9.63096068               -0.65695103               -3.49236116               -6.70474844
              30.62414032                8.44063036               82.78978039                0.37911086                2.94732349                2.80222194              -10.40432263               -0.23794020               -1.49092014               -7.09489679
              21.20447943               14.76403600               87.19970326                1.00000000                0.01824368                0.08192383               -0.22653432               -0.00064678                0.00337059                0.48605885
              22.20466186               14.22622361               86.76527812                0.78598132               -0.02634724               -0.04359922                0.10213674               -0.01539109                0.00058871               -0.19490351
              23.20395248               13.68812770               86.33080766                0.00010000               -1.68132004               -0.15509480                0.41986198                0.26169825               -0.89626462               -0.77114645
              24.17103546               13.15597369               85.87823047                0.00010000               -3.38026909                0.72426477                0.35970765                0.20221820               -2.46352298               -1.05972621
              25.13634710               12.62573128               85.41975551                0.00010000               -3.25493133                1.31894757               -0.29914352               -0.33716995               -3.95572404               -1.44382338
              26.10593684               12.09523166               84.95038690                0.00010000               -2.52499579                1.68119409               -1.66807330               -0.80132216               -5.76254298               -1.95266916
              27.08584718               11.56509964               84.47053417                0.00010000               -1.31958157                2.04839406               -3.67287558               -1.03238384               -7.16649383               -2.55653626
              28.07954521               11.03689092               83.98567386                0.00010000                0.12448637                2.44447094               -6.07140144               -1.01389976               -7.55423736               -3.20752038
              29.08833691               10.51162613               83.50524354                0.00010000                1.55678367                2.82345490               -8.47402255               -0.78275252               -6.49824608               -3.82006688
              30.11068088                9.98985951               83.04106914                0.00010000                2.65823408                3.10964678              -10.37225712               -0.40604864               -3.85081631               -4.24670101
              31.14150159                9.47142798               82.60494975                0.37943039                3.08207151                3.24086824              -11.19943912               -0.13316440               -1.68835560               -4.29143848
              21.74292799               15.76482489               87.06012448                1.00000000                0.01862624                0.07798722               -0.23389135                0.00210090                0.02983233                0.38513136
              22.74311425               15.22582530               86.62256119                0.67052499               -0.02699288               -0.03971206                0.11325464               -0.00543514                0.12371109               -0.18399763
              23.74238813               14.68666531               86.18687155                0.00010000               -1.91930899               -0.14192060                0.41970411                0.85774181               -0.61544070               -0.58182512
              24.70472807               14.16495946               85.73431044                0.00010000               -3.97290172                1.29485011                0.45545611                0.69545612               -2.20220388               -0.56252414
              25.66293010               13.64098809               85.27496816                0.00010000               -3.81996612                1.60276198               -0.17454533               -0.01592570               -3.90832933               -0.72676772
              26.62832875               13.11352145               84.80294023                0.00010000               -2.89173128                1.89446719               -1.58586812               -0.43532174               -5.96795643               -0.96874509
              27.60509547               12.58696190               84.31899228                0.00010000               -1.58703227                2.24851078               -3.69159096               -0.55742056               -7.58663924               -1.25436270
              28.59658811               12.06271236               83.82909715                0.00010000               -0.03923338                2.65253120               -6.23336906               -0.53545566               -8.11241907               -1.55988901
              29.60431081               11.54128830               83.34356028                0.00010000                1.50780759                3.04322135               -8.79243255               -0.40478937               -7.05994001               -1.84045990
              30.62674426               11.02244904               82.87564627                0.00010000                2.70146438                3.34050947              -10.80829288               -0.20411084               -4.21403788               -2.00575760
              31.65834009               10.50544773               82.43924733                0.37982713                3.15958358                3.47454947              -11.63121289               -0.04583548               -1.89975886               -1.81485427
              22.28252063               16.76559574               86.91895110                1.00000000                0.01921147                0.07708536               -0.24202388               -0.05737344                0.19745379                0.29875723
              23.28271274               16.22542937               86.47981531                0.78268564               -0.02737365               -0.03959253                0.11821516               -0.05547396                0.36390616               -0.17602931
              24.28197316               15.68528929               86.04398872                0.36298336               -2.60454714               -0.13760205                0.41539707                1.78056821               -0.08005610               -0.50709609
              25.23062180               15.18187070               85.59575466                0.36159726               -4.72532787                1.69112344                0.62364048                1.21423425               -1.69541325               -0.26238371
              26.18746660               14.65778652               85.13720949                0.36107797               -3.96826028                1.67984286                0.05856708                0.01616540               -3.74909772               -0.36852783
              27.15125659               14.13312101               84.66456761                0.36111668               -3.09793674                1.95995584               -1.35533638               -0.09304907               -6.08624212               -0.46054030
              28.12550786               13.61006986               84.17850141                0.36264716               -1.83734498                2.31079559               -3.52902373               -0.11773418               -7.97076611               -0.54206320
              29.11450969               13.08994155               83.68530435                0.36550672               -0.25017087                2.72291876               -6.18978985               -0.08680641               -8.69525051               -0.60657028
              30.12050445               12.57249055               83.19583999                0.36944669                1.39647697                3.12022549               -8.89932028               -0.04422854               -7.74340163               -0.64080165
              31.14243923               12.05666970               82.72412958                0.37515854                2.70415338                3.42206607              -11.07127549               -0.00908158               -4.79399003               -0.61141570
              32.17458751               11.54091897               82.28678185                0.69015370                3.21482788                3.54712447              -11.93387814                0.04966879               -2.36404044               -0.26749933
              17.34334262                6.90277831               89.30476095                1.00000000                0.01262788                0.05481977               -0.19101169                0.04362654               -0.51502334                0.46603104
              18.34346890                6.36919705               88.89869406                1.00000000               -0.03512156               -0.00825462                0.03813924                0.04780809               -0.70997101                0.06608676
              19.34264019                5.83514560               88.48898707                1.00000000               -0.11850649               -0.05661931                0.25957841                0.03756459               -0.76593581               -0.05232899
              20.34109877                5.29995853               88.08167876                0.69530328               -0.19112374               -0.13557120                0.48914774               -0.02829316               -0.69823757               -0.27910137
              21.33881772                4.76268170               87.67294008                0.64015933               -0.20537779               -0.21851761                0.66571148               -0.02200502               -0.45022282               -0.17625989
              22.33699122                4.22331468               87.27029972                0.57492553               -0.10706960               -0.31049741                0.83528831               -0.02538915                0.22554365               -0.21739284
              23.33667633                3.68129230               86.87475207                0.50877343                0.18757756               -0.38359582                0.89352214               -0.05502872                1.02797689               -0.29533966
              24.34074277                3.13639826               86.48785491                0.48769229                0.58725139               -0.33987985                0.41988805               -0.33494171                1.40888999               -0.45254310
              25.34842135                2.58838946               86.10500119                0.73912969                0.52719350                0.04351549               -0.23793231               -0.63313723                0.66902499                0.06480535
              26.35128664                2.04428976               85.72470390                1.00000000                0.33858413                0.29626249               -1.22319442               -0.24067272                0.44227755               -0.02757224
              27.35519304                1.50312281               85.33779075                1.00000000                0.39063980                0.36881173               -1.31452440               -0.12467900                0.05360467               -0.12255429
              17.87736015                7.90332651               89.16489503                1.00000000                0.04031876                0.04935089               -0.21083016                0.00964519               -0.12629799                0.61831647
              18.87776334                7.36911451               88.75884620                1.00000000                0.01374758               -0.01324564                0.01745089                0.01519961               -0.18893624                0.09623977
              19.87763510                6.83457941               88.35190678                1.00000000               -0.03577727               -0.06285574                0.21758807               -0.01507766               -0.19011740               -0.15681945
              20.87704779                6.29860281               87.94602631                1.00000000               -0.03577561               -0.15938641                0.40288480               -0.03966634               -0.06506053               -0.19282545
              21.87691959                5.76049653               87.54169204                0.96603989                0.01921178               -0.23392422                0.54132378               -0.04879495                0.18174986               -0.10248876
              22.87743203                5.22020971               87.14150403                0.93258889                0.13323298               -0.32142721                0.66969998               -0.05306047                0.61626680               -0.12247191
              23.87958425                4.67745634               86.74714135                0.92755518                0.32063717               -0.37779849                0.64561227               -0.04996224                1.05248496               -0.15407454
              24.88384477                4.13299946               86.35900313                0.96512605                0.42799902               -0.30315241                0.32467739               -0.11558784                1.17534493               -0.20847219
              25.88814423                3.58882461               85.97587812                1.00000000                0.38342305                0.02479199               -0.26813768               -0.23345495                0.78731927               -0.01281902
              26.89151323                3.04725239               85.59314421                1.00000000                0.34844832                0.24616313               -0.89613344               -0.09394977                0.46039803               -0.09238901
              27.89511320                2.50681093               85.20678087                1.00000000                0.35999634                0.34645920               -1.19830281               -0.08444986                0.21379186               -0.11083741
              18.41195954                8.90376533               89.02840187                1.00000000                0.05604566                0.04720199               -0.23062746               -0.00726449               -0.01913551                0.76842953
              19.41251999                8.36893214               88.61966808                1.00000000                0.04453971               -0.01513373                0.00365141               -0.01703780                0.04532507                0.10058956
              20.41285033                7.83388849               88.21262837                0.00010000                0.09341686               -0.05966492                0.20479470               -0.14624185                0.41128746               -0.46245794
              21.41438833                7.29677080               87.81156936                0.00010000                0.16922966               -0.58421187                0.31500620               -0.81113193                0.65275599               -1.28746377
              22.41623492                6.75800322               87.41063931                0.00010000                0.22909316               -0.77648183                0.41345716               -1.39342876                0.70273667               -2.18076960
              23.41897019                6.21688614               87.01238801                0.00010000                0.33262009               -0.93252703                0.47998844               -1.93273742                0.90741083               -3.36167855
              24.42288733                5.67373633               86.61864658                0.00010000                0.40462722               -1.03406658                0.42711833               -2.28122847                1.06992186               -4.80411270
              25.42706274                5.13033521               86.22987981                0.00010000                0.33060005               -1.02879113                0.20657098               -2.28438593                1.02877299               -6.39176604
              26.42949933                4.58888530               85.84627760                0.00010000                0.21792922               -0.91402648               -0.26143854               -1.84343400                0.71441239               -8.18840817
              27.43142132                4.04921303               85.46261209                0.00010000                0.24438131               -0.77379263               -0.66410718               -1.06213190                0.43640546               -9.80756827
              28.43438695                3.51005200               85.07623841                0.37390367                0.29656303               -0.36119538               -1.05554795               -0.14943653                0.23698387              -10.87583602
              18.94688124                9.90427055               88.89159953                1.00000000                0.04181796                0.05988816               -0.23162769               -0.02206249                0.06176497                0.70967333
              19.94729942                9.36881183               88.47984011                0.71934596               -0.00048183               -0.00942368                0.00668237               -0.03642322                0.10503148               -0.05455874
              20.94687161                8.83338611               88.06921963                0.00010000               -0.52944986               -0.09269242                0.22591455               -0.61706206               -0.10328424               -0.86013085
              21.93671042                8.28691858               87.65296495                0.00010000               -0.89679661               -0.70487647                0.50147030               -1.87475234               -0.54182962               -2.35354080
              22.92893567                7.74496689               87.23611520                0.00010000               -0.68331279               -0.98674223                0.47313421               -2.66348928               -1.07796909               -4.09892210
              23.92304417                7.20155917               86.81588066                0.00010000               -0.42125348               -1.13011436                0.09697219               -3.63257789               -1.81094915               -6.34972979
              24.92051060                6.65677501               86.39316716                0.00010000               -0.00180429               -1.20796463               -0.61067115               -4.26841919               -2.36334849               -9.12967612
              25.92300808                6.11242364               85.97077116                0.00010000                0.59435651               -1.24912215               -1.60064907               -4.28318781               -2.48431983              -12.33550543
              26.93239773                5.57054408               85.55184706                0.00010000                1.30479047               -1.26528770               -2.77234880               -3.53836552               -2.11975750              -15.84349974
              27.94910389                5.03177654               85.13823019                0.00010000                1.90243936               -1.13384318               -3.84363752               -2.05171253               -1.38419357              -18.96370644
              28.97044652                4.49958702               84.73020906                0.37414680                2.13426290               -0.50838296               -4.41235965               -0.49386355               -0.35085474              -21.38986408
              19.48243573               10.90496309               88.75379860                1.00000000                0.02402406                0.07848489               -0.21966010               -0.01143447                0.00406905                0.62276451
              20.48267597               10.36874367               88.33749648                0.67352214               -0.00166904               -0.02259021                0.04109975               -0.04577674                0.03896240               -0.20524586
              21.48240234                9.83203464               87.92202320                0.00010000               -0.86817295               -0.15568737                0.25812659               -0.69912142               -0.49475470               -1.08061772
              22.46531251                9.28267327               87.49478929                0.00010000               -1.70388984               -0.26639257                0.59822436               -1.70530228               -1.49046062               -2.21372221
              23.44832455                8.73826837               87.06318144                0.00010000               -1.54009947               -0.38185188                0.43539036               -2.24351878               -2.56116452               -3.74297738
              24.43451052                8.19428385               86.62369204                0.00010000               -1.08350390               -0.36673545               -0.30279520               -2.99534817               -3.88039064               -5.72864391
              25.42665447                7.64957704               86.17691325                0.00010000               -0.34403051               -0.28141212               -1.57081401               -3.52209149               -4.89576253               -8.16753706
              26.42762991                7.10535277               85.72685060                0.00010000                0.63623248               -0.17943133               -3.21930792               -3.56907779               -5.16311625              -10.98384379
              27.43937912                6.56357954               85.27966104                0.00010000                1.68571115               -0.06786610               -5.01140956               -3.07953871               -4.44338248              -13.96977840
              28.46134413                6.02653616               84.84188366                0.00010000                2.47547937                0.16275314               -6.56287631               -1.94054636               -2.62937926              -16.70079269
              29.48888871                5.49988434               84.42032138                0.37469659                2.75445761                0.54372627               -7.38176028               -0.85876443               -0.96908441              -18.57019870
              20.01909141               11.90584025               88.61508657                1.00000000                0.02209302                0.08783009               -0.20494374               -0.01185594               -0.00504594                0.56329723
              21.01931234               11.36836003               88.19469367                0.70079927               -0.00659173               -0.04274364                0.05714742               -0.04454399               -0.01642031               -0.22702918
              22.01895958               10.83027237               87.77417308                0.00010000               -1.14708464               -0.17346990                0.30801755               -0.61229609               -0.81148436               -1.05150560
              22.99637065               10.28159072               87.33764830                0.00010000               -2.32524294                0.00337983                0.66855605               -1.43427612               -2.20530647               -2.00940854
              23.97245472                9.73732985               86.89371855                0.00010000               -2.22710516                0.12988167                0.38405915               -1.79805846               -3.68026298               -3.28365197
              24.95182854                9.19422446               86.43810550                0.00010000               -1.67274305                0.30347356               -0.64952914               -2.37611034               -5.42838493               -4.96707147
              25.93899986                8.65114677               85.97154558                0.00010000               -0.71022620                0.54045698               -2.36553163               -2.82141164               -6.77531997               -7.04242699
              26.93762402                8.10883501               85.49925016                0.00010000                0.53118555                0.81443743               -4.55731120               -2.90484682               -7.15257750               -9.40951998
              27.94962357                7.56918676               85.02976909                0.00010000                1.81820748                1.11108750               -6.88523684               -2.51124756               -6.16864650              -11.87162462
              28.97398817                7.03503160               84.57359509                0.00010000                2.84756573                1.43088255               -8.88101314               -1.55131128               -3.67735766              -14.07152259
              30.00657488                6.51046155               84.14161237                0.37522281                3.25867117                1.60581536               -9.95267028               -0.64439521               -1.49529643              -15.51906896
              20.55715905               12.90671970               88.47605547                1.00000000                0.01939191                0.08576693               -0.19897052               -0.00791377               -0.00714028                0.53627374
              21.55735297               12.36788879               88.05176674                0.73918280               -0.01166623               -0.04541954                0.06789768               -0.03462699               -0.02216214               -0.21809835
              22.55692573               11.82856524               87.62724585                0.00010000               -1.38917351               -0.16274425                0.33226714               -0.39221428               -1.01388214               -0.95597243
              23.52956950               11.28274086               87.18293114                0.00010000               -2.85980396                0.21648739                0.73645627               -0.97735130               -2.70394770               -1.72405801
              24.49972965               10.74086601               86.72926768                0.00010000               -2.81990504                0.54326867                0.36176026               -1.28844344               -4.45947002               -2.73669425
              25.47317140               10.20035332               86.26088933                0.00010000               -2.20569817                0.87075525               -0.90022890               -1.77076668               -6.53770592               -4.08460853
              26.45561568                9.66038617               85.77868798                0.00010000               -1.08392106                1.23926384               -2.96753842               -2.14903983               -8.14299605               -5.74647828
              27.45149298                9.12164152               85.28899592                0.00010000                0.36709496                1.65444981               -5.59022187               -2.22413690               -8.60591292               -7.62400078
              28.46295758                8.58580129               84.80242826                0.00010000                1.87750697                2.09048799               -8.36387202               -1.89101600               -7.44894580               -9.53241628
              29.48904312                8.05515381               84.33230463                0.00010000                3.10916601                2.47800896              -10.74080499               -1.11972314               -4.46057872              -11.18709495
              30.52514090                7.53200065               83.89263684                0.37531837                3.60977860                2.66090372              -12.06088274               -0.45375653               -1.90410441              -12.21600437
              21.09659494               13.90755559               88.33686609                1.00000000                0.01793124                0.08055323               -0.19925277               -0.00454463               -0.00664719                0.51480376
              22.09677425               13.36745164               87.90890220                0.77406475               -0.01658612               -0.03996536                0.07505285               -0.02205108               -0.01526589               -0.19483927
              23.09626322               12.82701748               87.48081167                0.00010000               -1.61256973               -0.14666369                0.34621946               -0.08035291               -1.07315205               -0.88811165
              24.06452286               12.28592047               87.03150463                0.00010000               -3.35949132                0.42936818                0.81642940               -0.38830851               -2.92361708               -1.38634633
              25.02907339               11.74819523               86.57107271                0.00010000               -3.38149078                0.91442020                0.39678264               -0.73229985               -4.92058528               -2.11874914
              25.99689304               11.21163956               86.09335247                0.00010000               -2.71712644                1.34254056               -1.02500043               -1.20505607               -7.28236704               -3.10878536
              26.97473086               10.67593204               85.59943184                0.00010000               -1.45834391                1.79072905               -3.35326948               -1.53260593               -9.11637497               -4.32923050
              27.96772616               10.14192401               85.09663920                0.00010000                0.17800440                2.29745282               -6.30547885               -1.58725417               -9.67106662               -5.69251461
              28.97829095                9.61099652               84.59732349                0.00010000                1.88340947                2.82263050               -9.42599039               -1.31749964               -8.39606488               -7.04229739
              30.00539435                9.08459178               84.11706110                0.00010000                3.27575678                3.27984668              -12.10659901               -0.75067030               -5.03632624               -8.14230514
              31.04380609                8.56367962               83.67221621                0.37578179                3.84117325                3.55506176              -13.62736768               -0.29581976               -2.20530066               -8.71853875
              21.63727606               14.90833076               88.19754323                1.00000000                0.01739951                0.07442746               -0.20343621               -0.00118291                0.00095766                0.48323353
              22.63745005               14.36708949               87.76618889                0.82143889               -0.02131139               -0.03320697                0.08062565               -0.01164199               -0.00655278               -0.17184063
              23.63684983               13.82563197               87.33470798                0.00010000               -1.84122349               -0.13082303                0.35861097                0.33010832               -0.95756530               -0.73827448
              24.60062558               13.29132823               86.88411917                0.00010000               -3.87426359                0.71147430                0.92786421                0.31904152               -2.82350209               -0.99843899
              25.55936456               12.75915441               86.42007201                0.00010000               -3.96460619                1.29572770                0.51813671               -0.24518622               -5.09104680               -1.44303180
              26.52133346               12.22720413               85.93636401                0.00010000               -3.23427203                1.70327214               -0.99316807               -0.73756710               -7.73616007               -2.07787354
              27.49467912               11.69620076               85.43427100                0.00010000               -1.83250222                2.17662188               -3.50154650               -1.00605510               -9.81461490               -2.85565462
              28.48468342               11.16759057               84.92200971                0.00010000               -0.03696494                2.73223612               -6.69618727               -1.03223768              -10.49575399               -3.71534830
              29.49393982               10.64225390               84.41342850                0.00010000                1.83315955                3.31155154              -10.07791798               -0.83488981               -9.15588416               -4.54074820
              30.52134661               10.12075075               83.92617164                0.00010000                3.35544981                3.81957690              -12.97875671               -0.45575683               -5.50015823               -5.12852902
              31.56104882                9.60310188               83.47864122                0.37631687                3.97022093                4.17014808              -14.62025294               -0.17256137               -2.45989578               -5.20589600
              22.17905383               15.90904414               88.05789183                1.00000000                0.01863725                0.07059435               -0.21114862                0.00104616                0.03059118                0.37801424
              23.17924020               15.36678750               87.62356506                0.69836492               -0.02135947               -0.03006630                0.08785019               -0.00405092                0.10616218               -0.16259017
              24.17862664               14.82440102               87.19075480                0.00010000               -2.09294781               -0.11900084                0.35640639                0.89537400               -0.62971200               -0.55645191
              25.13738125               14.30014996               86.74148764                0.00010000               -4.51664393                1.27307138                1.09907533                0.76116036               -2.46087811               -0.51835435
              26.08829376               13.77410978               86.27707326                0.00010000               -4.61429459                1.56316127                0.76719643                0.03625360               -4.99999438               -0.73985797
              27.04509536               13.24570501               85.79034056                0.00010000               -3.70352220                1.90997718               -0.77279508               -0.39125314               -7.98770295               -1.04110513
              28.01422332               12.71946448               85.28308173                0.00010000               -2.20335457                2.38796225               -3.39545755               -0.53031778              -10.36575710               -1.40446148
              29.00102826               12.19656873               84.76419615                0.00010000               -0.28951690                2.97361318               -6.76862921               -0.53412597              -11.24539606               -1.80340358
              30.00843298               11.67722755               84.24872927                0.00010000                1.72014873                3.58631374              -10.35617906               -0.42635902               -9.92035201               -2.17744075
              31.03543124               11.16098332               83.75634285                0.00010000                3.36098050                4.12175325              -13.42576469               -0.22818997               -5.99620064               -2.39971740
              32.07565259               10.64708259               83.30845826                0.37640910                4.02213525                4.48892979              -15.09609351               -0.07507808               -2.74867170               -2.11841509
              22.72181026               16.90974265               87.91663068                1.00000000                0.02018908                0.06985112               -0.22076863               -0.04980582                0.19515546                0.28983743
              23.72201215               16.36648816               87.48085061                0.79485165               -0.02077056               -0.02993370                0.08866298               -0.04733997                0.33318004               -0.15769721
              24.72139485               15.82325195               87.04781840                0.36249531               -2.79360597               -0.11490675                0.34880032                1.79189555                0.00153830               -0.48247377
              25.66614003               15.31678966               86.60517365                0.36132838               -5.34301326                1.66396972                1.40100184                1.23416263               -1.69466475               -0.32986035
              26.61453458               14.79041764               86.14244519                0.36088067               -4.89931675                1.63078568                1.18983573                0.05478309               -4.73286768               -0.46342282
              27.56815370               14.26540368               85.65516469                0.36135493               -4.06627733                1.96986705               -0.33118823               -0.01704763               -8.14100892               -0.56673851
              28.53320904               13.74396000               85.14507127                0.36251334               -2.59579357                2.44955210               -3.02969265               -0.01847009              -10.91101319               -0.65320626
              29.51623783               13.22706284               84.62156547                0.36434320               -0.61054915                3.04941066               -6.55006986                0.02196496              -12.08412672               -0.71967045
              30.52099805               12.71398018               84.10048125                0.36768688                1.53449737                3.67526266              -10.32878987                0.06265607              -10.91727871               -0.74564788
              31.54692777               12.20318581               83.60253023                0.37240846                3.31753310                4.22024963              -13.60035167                0.09466841               -6.85517115               -0.68210570
              32.58734872               11.69288048               83.15321164                0.68837609                4.04209434                4.57978918              -15.33185293                0.13907899               -3.44742622               -0.14865329
              17.74309582                7.04734906               90.30322238                1.00000000               -0.00133618                0.03707999               -0.11271540                0.02731025               -0.50863588                0.45245528
              18.74308246                6.50980611               89.89917919                1.00000000               -0.03808332               -0.01274011                0.06099496                0.02946497               -0.70478977                0.06538128
              19.74233416                5.97189087               89.49147900                1.00000000               -0.10353244               -0.05340370                0.23966855                0.02112927               -0.75543906               -0.05430738
              20.74101181                5.43319477               89.08620892                0.69322165               -0.17654775               -0.10868988                0.41401183               -0.03930723               -0.70680110               -0.29090180
              21.73880320                4.89283511               88.67898608                0.65796488               -0.20635804               -0.15051517                0.54868787               -0.04650544               -0.50463586               -0.17147872
              22.73688465                4.35099186               88.27751313                0.62785056               -0.13434686               -0.19651421                0.63374647               -0.06041030                0.05906474               -0.17232016
              23.73611626                3.80748498               87.88173649                0.61193483                0.02258190               -0.20661063                0.57723610               -0.12016516                0.54461603               -0.22247406
              24.73733629                3.26278836               87.49098276                0.64693041                0.15338576               -0.13484248                0.25331709               -0.25501007                0.71165486               -0.22808176
              25.73918398                2.71777236               87.10305381                0.91080493                0.17142638                0.04026181               -0.17982503               -0.24118669                0.44347018               -0.03767301
              26.74076482                2.17435979               86.71459352                1.00000000                0.23489091                0.20348975               -0.83711677               -0.09418330                0.25637061                0.02176378
              27.74388180                1.63165324               86.32485019                1.00000000                0.31169806                0.33866036               -1.17851308               -0.10182000                0.10319710               -0.17649372
              18.28091188                8.04771986               90.16313490                1.00000000                0.01943278                0.03935040               -0.13678925                0.00109702               -0.13709568                0.60254491
              19.28110621                7.50967871               89.75909640                1.00000000               -0.00303797               -0.01388003                0.03557050                0.00371792               -0.21365281                0.09653056
              20.28085112                6.97135683               89.35395366                1.00000000               -0.04797922               -0.05641013                0.19426312               -0.01475903               -0.23823290               -0.14950881
              21.28014662                6.43210787               88.94966536                1.00000000               -0.07057581               -0.11811285                0.33619447               -0.03966353               -0.15309688               -0.20559119
              22.27943960                5.89132995               88.54643865                1.00000000               -0.05955044               -0.15690847                0.43338441               -0.04773564                0.03764475               -0.09482913
              23.27895561                5.34902671               88.14710094                1.00000000               -0.02116210               -0.19145933                0.48541936               -0.05239280                0.35139449               -0.08823742
              24.27901636                4.80541887               87.75202009                1.00000000                0.03434425               -0.18407322                0.41286401               -0.06356009                0.61123510               -0.09565459
              25.27964250                4.26143994               87.36116289                1.00000000                0.09850189               -0.10928322                0.17984191               -0.10096762                0.73590182               -0.07484546
              26.28098640                3.71817498               86.97342491                1.00000000                0.16200224                0.04290584               -0.20709354               -0.07838401                0.67530141               -0.02753300
              27.28288254                3.17639469               86.58555240                1.00000000                0.22918731                0.18517506               -0.66857176               -0.00399126                0.42184799               -0.03262508
              28.28557015                2.63503984               86.19520705                1.00000000                0.26876020                0.31739126               -1.05348318               -0.02550346                0.21549979               -0.19703921
              18.81920007                9.04813607               90.02639979                1.00000000                0.03197758                0.05022243               -0.16519295               -0.00999883               -0.03788199                0.76265227
              19.81951985                8.50952851               89.61974094                1.00000000                0.02048709               -0.01199995                0.01398912               -0.01485263                0.00723097                0.11084132
              20.81960981                7.97076267               89.21449428                0.00010000                0.03627864               -0.05813975                0.17139311               -0.08077081                0.30640090               -0.43142503
              21.82024542                7.43083251               88.81432620                0.00010000                0.06599152               -0.47996414                0.25708872               -0.73033575                0.46836751               -1.09623383
              22.82092964                6.88969694               88.41419864                0.00010000                0.07512296               -0.63119981                0.32855396               -1.39748099                0.46816155               -1.99192834
              23.82174788                6.34716267               88.01638740                0.00010000                0.07510990               -0.77989033                0.35474202               -2.01298439                0.57766866               -3.37239693
              24.82243184                5.80380351               87.62199521                0.00010000                0.04064760               -0.93179110                0.29625398               -2.39407329                0.69071427               -5.19346682
              25.82256083                5.26060270               87.23142009                0.00010000                0.01148538               -1.07964831                0.13125518               -2.36680185                0.77608123               -7.34583101
              26.82266155                4.71863047               86.84394489                0.00010000                0.06296463               -1.21025998               -0.20320028               -1.84817115                0.80211064               -9.63604673
              27.82382012                4.17806329               86.45682325                0.00010000                0.17099307               -1.28310643               -0.53670979               -0.85260399                0.57504577              -11.65519100
              28.82608141                3.63800107               86.06615762                0.37132131                0.22612868               -1.18362135               -0.92634044                0.54601832                0.33658615              -13.05147874
              19.35792703               10.04872431               89.88953379                1.00000000                0.02555303                0.06878639               -0.17738303               -0.01607863                0.03930682                0.72256746
              20.35818256                9.50943871               89.47988573                0.75437493                0.00023371               -0.00944885                0.00514267               -0.02187579                0.06911272               -0.02139011
              21.35793170                8.97019404               89.07118299                0.00010000               -0.57884590               -0.09573256                0.16791242               -0.45358989               -0.04482221               -0.81247201
              22.34660564                8.42250859               88.65890853                0.00010000               -1.13859374               -0.59245676                0.74337553               -1.64803997               -0.51590608               -1.94114764
              23.33515982                7.87870596               88.24215777                0.00010000               -1.10081438               -0.83277267                0.81480827               -2.64613512               -1.48215815               -3.72787277
              24.32458935                7.33342891               87.81789609                0.00010000               -0.87324773               -1.02447116                0.38330581               -3.81149217               -2.64565534               -6.41309700
              25.31769487                6.78678305               87.38730415                0.00010000               -0.35549255               -1.24915151               -0.51771155               -4.57097647               -3.54056526               -9.99351349
              26.31747950                6.23984697               86.95371963                0.00010000                0.44337564               -1.51172882               -1.81304013               -4.61112684               -3.86684427              -14.25433860
              27.32656238                5.69396978               86.52163560                0.00010000                1.44901868               -1.78254480               -3.33768895               -3.77069127               -3.45102405              -18.75696262
              28.34645987                5.15073256               86.09582401                0.00010000                2.50262874               -1.95776898               -4.77529183               -2.09497426               -2.19377989              -22.75644219
              29.37661496                4.61136742               85.68023412                0.37142247                3.01550851               -1.65215760               -5.73616086               -0.14091119               -0.63733337              -25.65023163
              19.89744970               11.04951180               89.75180165                1.00000000                0.01629007                0.08391312               -0.17648045               -0.00819415                0.00077292                0.64553428
              20.89761260               10.50933953               89.33782536                0.71853624                0.00092173               -0.02028318                0.02703825               -0.02885716                0.01553301               -0.16453587
              21.89746814                9.96884802               88.92431343                0.00010000               -0.94199512               -0.14681971                0.20110041               -0.51304917               -0.36465563               -1.01501336
              22.87877270                9.41898338               88.50249331                0.00010000               -2.01907584               -0.22065681                1.02922686               -1.43718898               -1.39517827               -1.87929519
              23.85708662                8.87304148               88.07002449                0.00010000               -2.06658773               -0.32432517                1.05541147               -2.14465725               -3.11204093               -3.46683860
              24.83744095                8.32667325               87.62274173                0.00010000               -1.62461844               -0.35061528                0.22702600               -3.05849168               -5.11608659               -5.85584024
              25.82459425                7.77882048               87.16181401                0.00010000               -0.71446896               -0.35726424               -1.37972109               -3.72223085               -6.69925740               -9.00752271
              26.82315157                7.23036812               86.69286713                0.00010000                0.58839425               -0.36617309               -3.57979335               -3.87039549               -7.28658145              -12.73156418
              27.83636214                6.68297958               86.22478804                0.00010000                2.06857158               -0.35717757               -6.06016215               -3.39756892               -6.46177480              -16.65330005
              28.86452300                6.13890791               85.76843894                0.00010000                3.28156651               -0.24801167               -8.33570534               -2.14906419               -3.93830019              -20.22053225
              29.90199347                5.60495791               85.33616476                0.37162326                3.74704681                0.17606303               -9.76253750               -0.95915322               -1.55928803              -22.61167339
              20.43810767               12.05040257               89.61319779                1.00000000                0.01615182                0.08637559               -0.17034889               -0.00783804               -0.00706467                0.58328015
              21.43826919               11.50903304               89.19517138                0.74524908               -0.00404020               -0.03259131                0.04053773               -0.02861039               -0.02346040               -0.19487524
              22.43802687               10.96725764               88.77694695                0.00010000               -1.23004011               -0.15174403                0.24790861               -0.42790412               -0.62840860               -0.98810473
              23.41366839               10.41809545               88.34662079                0.00010000               -2.67250309                0.00100332                1.23351178               -1.15070882               -2.07432952               -1.73441971
              24.38457681                9.87221945               87.90083874                0.00010000               -2.80139364                0.10735882                1.19145120               -1.65749582               -4.34730381               -3.07733203
              25.35764052                9.32641660               87.43431163                0.00010000               -2.25107142                0.26087343                0.03342152               -2.37516564               -6.94939153               -5.11234473
              26.33955538                8.77963776               86.94857773                0.00010000               -1.08640126                0.47861882               -2.13918644               -2.94830325               -9.00285333               -7.78411434
              27.33591249                8.23252351               86.45116446                0.00010000                0.52579171                0.74865728               -5.06529863               -3.14548716               -9.75548317              -10.91903325
              28.35007121                7.68682623               85.95442242                0.00010000                2.27938806                1.07231048               -8.31907197               -2.81889488               -8.62233306              -14.21331792
              29.38150025                7.14577232               85.47422034                0.00010000                3.76303346                1.47085975              -11.28857996               -1.81248218               -5.26323880              -17.18980531
              30.42533188                6.61488868               85.02821287                0.37183388                4.38316301                1.77508493              -13.18297502               -0.77491810               -2.23204273              -19.21914129
              20.98003200               13.05123931               89.47420636                1.00000000                0.01533266                0.07960788               -0.16887658               -0.00499446               -0.00836646                0.54831595
              21.98018532               12.50868770               89.05235103                0.77877983               -0.00921740               -0.03273482                0.05079799               -0.02162430               -0.02437272               -0.18979082
              22.97984765               11.96581314               88.63026589                0.00010000               -1.46943051               -0.13574016                0.27240247               -0.24361757               -0.78663096               -0.90948291
              23.95079671               11.41900344               88.19300277                0.00010000               -3.21160486                0.17318789                1.39986160               -0.73694746               -2.52597397               -1.51396130
              24.91561555               10.87518866               87.73674419                0.00010000               -3.41386944                0.46051881                1.30427115               -1.15088050               -5.19697599               -2.59876200
              25.88251932               10.33189072               87.25503433                0.00010000               -2.80471351                0.79152887               -0.11057304               -1.73596201               -8.24575354               -4.23733052
              26.85952128                9.78839286               86.74974795                0.00010000               -1.47329811                1.20943105               -2.72235848               -2.21583268              -10.64904949               -6.37572118
              27.85305336                9.24534126               86.23002201                0.00010000                0.36070706                1.72176766               -6.21724676               -2.38999765              -11.52686078               -8.86583889
              28.86673542                8.70442579               85.71100927                0.00010000                2.35787702                2.30733945              -10.09026155               -2.12480598              -10.18947197              -11.45234186
              29.90021090                8.16832510               85.21223373                0.00010000                4.07634866                2.88853352              -13.63764564               -1.32092966               -6.21985648              -13.76323528
              30.94826240                7.64045961               84.75536262                0.37210192                4.80514934                3.26832661              -15.96766650               -0.56693975               -2.72313263              -15.32380329
              21.52311099               14.05199473               89.33500511                1.00000000                0.01518859                0.07178119               -0.17140347               -0.00287521               -0.00800731                0.52049471
              22.52326288               13.50837835               88.90955578                0.80927523               -0.01361064               -0.02818789                0.05746329               -0.01355765               -0.01817917               -0.16993373
              23.52283878               12.96454284               88.48396353                0.00010000               -1.68544813               -0.11970257                0.28675065                0.01020547               -0.79975519               -0.84720999
              24.48955392               12.42155921               88.04272371                0.00010000               -3.70834276                0.35092312                1.55833120               -0.23541641               -2.67654938               -1.24462603
              25.44867193               11.88142983               87.57938897                0.00010000               -3.99184191                0.78407167                1.44966186               -0.63231281               -5.67880527               -2.04945027
              26.40971708               11.34224718               87.08666883                0.00010000               -3.34418743                1.23976940               -0.14065292               -1.15540668               -9.09931395               -3.26259486
              27.38178818               10.80382638               86.56678202                0.00010000               -1.88187346                1.79719020               -3.07389249               -1.54502048              -11.80353558               -4.83238611
              28.37207961               10.26695886               86.03022064                0.00010000                0.14015392                2.48428742               -6.99786123               -1.67170515              -12.81099469               -6.63991825
              29.38459126                9.73297301               85.49442923                0.00010000                2.34841136                3.24897955              -11.34802817               -1.45469969              -11.33939988               -8.48265160
              30.41904784                9.20354299               84.98187317                0.00010000                4.25664083                3.98410368              -15.34758934               -0.87318571               -6.91844374              -10.05624718
              31.46972407                8.68025521               84.51723304                0.37262096                5.06762356                4.53042015              -18.03003303               -0.37367240               -3.08535190              -11.00830134
              22.06720726               15.05267493               89.19563453                1.00000000                0.01588032                0.06514984               -0.17703939               -0.00098029               -0.00083746                0.48364230
              23.06736606               14.50812395               88.76689063                0.85238056               -0.01681791               -0.02332869                0.06126998               -0.00720989               -0.01094311               -0.14872853
              24.06687090               13.96341908               88.33797988                0.00010000               -1.90823324               -0.10584970                0.29679718                0.34652455               -0.62355617               -0.70491184
              25.02920139               13.42602190               87.89678775                0.00010000               -4.22947871                0.59893446                1.74413657                0.35445714               -2.46817747               -0.91846267
              25.98228132               12.89087009               87.43011824                0.00010000               -4.60933788                1.11939573                1.68467388               -0.19652176               -5.81448585               -1.43115762
              26.93701464               12.35668610               86.93052354                0.00010000               -3.91860662                1.58257431                0.00668251               -0.68421421               -9.59937854               -2.21838699
              27.90390919               11.82433666               86.40050324                0.00010000               -2.32710037                2.21230111               -3.14217625               -0.97612617              -12.62698169               -3.21307278
              28.89047263               11.29502701               85.85175012                0.00010000               -0.14259478                3.00648327               -7.37582648               -1.04891241              -13.81117558               -4.34676369
              29.90105730               10.76940538               85.30368518                0.00010000                2.24961814                3.88568584              -12.07886021               -0.89270119              -12.27364678               -5.47399035
              30.93546499               10.24800718               84.78149400                0.00010000                4.31536100                4.72765531              -16.40407611               -0.51469716               -7.49126990               -6.33069295
              31.98736452                9.73106802               84.31254470                0.37291849                5.18995231                5.41268967              -19.31398665               -0.22332785               -3.39974672               -6.55406852
              22.61219336               16.05329773               89.05590150                1.00000000                0.01811706                0.06199330               -0.18599795                0.00023534                0.03102700                0.37435309
              23.61237453               15.50791177               88.62431820                0.71748245               -0.01610229               -0.02098124                0.06416764               -0.00246596                0.09345558               -0.14370435
              24.61187131               14.96242585               88.19399968                0.00010000               -2.15912398               -0.09532386                0.29368335                0.82180560               -0.20205108               -0.53458543
              25.56919205               14.43353790               87.75629195                0.00010000               -4.88970107                1.09397849                2.00972536                0.71461089               -1.91862196               -0.46992119
              26.51407729               13.90381775               87.29031209                0.00010000               -5.33129125                1.34520538                2.09060599                0.04488220               -5.60737411               -0.76914654
              27.46256623               13.37389867               86.78748432                0.00010000               -4.50762742                1.77259359                0.40162993               -0.34748168               -9.85544884               -1.13902503
              28.42392474               12.84807241               86.25108313                0.00010000               -2.82667905                2.43449963               -2.87719866               -0.49162548              -13.29512673               -1.59561622
              29.40603264               12.32708853               85.69372457                0.00010000               -0.50838382                3.28912430               -7.33279874               -0.52205644              -14.76014036               -2.11493619
              30.41375707               11.81068673               85.13643670                0.00010000                2.05293066                4.23341278              -12.30471481               -0.44278062              -13.26070261               -2.62233878
              31.44709126               11.29809610               84.60713097                0.00010000                4.26893864                5.13228220              -16.86868234               -0.25186498               -8.13582283               -2.95010054
              32.49913584               10.78850900               84.13732546                0.37339893                5.20445825                5.86855625              -19.86352346               -0.11312701               -3.77596476               -2.61276540
              23.15798387               17.05391480               88.91453573                1.00000000                0.02047521                0.06170719               -0.19741852               -0.04199681                0.19330409                0.28433671
              24.15818862               16.50770432               88.48158857                0.80263302               -0.01514905               -0.02074522                0.06042634               -0.03870058                0.30963224               -0.14315868
              25.15768089               15.96151261               88.05096472                0.36213242               -2.80434533               -0.09132398                0.28418193                1.59081496                0.60915687               -0.46572397
              26.10210171               15.44790147               87.62377470                0.36113730               -5.74313438                1.43635775                2.49276688                1.10404600               -0.71398282               -0.45664733
              27.04281820               14.91777420               87.16100620                0.36099510               -5.81456856                1.39564554                2.76728444                0.08591572               -5.14282211               -0.62446358
              27.98581034               14.39213797               86.65794385                0.36120270               -5.09656886                1.82393091                1.12468837                0.08703438              -10.01623897               -0.73500914
              28.94088682               13.87302666               86.11790755                0.36185375               -3.41965826                2.49542483               -2.23938607                0.12978401              -14.01954775               -0.82136131
              29.91741718               13.36080950               85.55430295                0.36384698               -0.98463563                3.37209733               -6.87566977                0.19080224              -15.90184236               -0.88777395
              30.92119411               12.85407363               84.98926419                0.36620852                1.75941220                4.33869039              -12.08677738                0.23587032              -14.63477925               -0.90604970
              31.95260542               12.35065282               84.45212255                0.37019230                4.15410299                5.25567218              -16.90747407                0.26969158               -9.33302457               -0.80892912
              33.00427617               11.84843914               83.98014480                0.68673019                5.16707482                5.99301370              -19.99362307                0.29266474               -4.76060602               -0.05577255
              18.14125628                7.19200238               91.30250664                1.00000000               -0.01397944                0.01976159               -0.03330066                0.01068315               -0.48775588                0.43425220
              19.14111648                6.65067026               90.89991396                1.00000000               -0.03772964               -0.01868933                0.08516991                0.01089158               -0.67545014                0.06482009
              20.14050169                6.10911014               90.49378045                1.00000000               -0.08304040               -0.05361791                0.21965406                0.00784692               -0.72139650               -0.05173059
              21.13945568                5.56722760               90.08995900                0.69210682               -0.15404481               -0.08538901                0.33704821               -0.03363851               -0.68702664               -0.28164468
              22.13742079                5.02434699               89.68391384                0.67525012               -0.20167869               -0.09596094                0.44138540               -0.04513499               -0.51124560               -0.14815632
              23.13542210                4.48069266               89.28297465                0.67183455               -0.16608845               -0.11219727                0.47130395               -0.05793155               -0.03830196               -0.13435233
              24.13409902                3.93627561               88.88629679                0.69107203               -0.08817809               -0.09910889                0.37731788               -0.09601841                0.30277103               -0.14198498
              25.13365854                3.39147635               88.49292125                0.76209939               -0.02095115               -0.04111273                0.15163635               -0.11914578                0.44962133               -0.12134243
              26.13368000                2.84689380               88.10140469                1.00000000                0.04795672                0.04890746               -0.16344715               -0.07537856                0.33464082               -0.06592279
              27.13461767                2.30280727               87.70796157                1.00000000                0.15318190                0.15628865               -0.55820925               -0.04569201                0.17744630               -0.00310589
              28.13674364                1.75887921               87.31422049                1.00000000                0.21259605                0.26835013               -0.91928510               -0.05578059                0.08087045               -0.15404056
              18.68269523                8.19219999               91.16215924                1.00000000               -0.00237105                0.03085516               -0.06026933               -0.00849708               -0.13597049                0.58269542
              19.68267152                7.65048337               90.75955761                1.00000000               -0.01968733               -0.01553082                0.05661057               -0.00861944               -0.21449315                0.09607861
              20.68230148                7.10857396               90.35579204                1.00000000               -0.05853259               -0.05397414                0.17443870               -0.01091211               -0.24544959               -0.14045678
              21.68150087                6.56637371               89.95275020                1.00000000               -0.10322870               -0.08123231                0.28071450               -0.02954727               -0.18026025               -0.20144249
              22.68023691                6.02338738               89.55035973                1.00000000               -0.13111962               -0.09507294                0.35784967               -0.03434291               -0.02371347               -0.08246026
              23.67887848                5.47957069               89.15121242                1.00000000               -0.12449576               -0.10248073                0.37101523               -0.03989806                0.24693785               -0.06514626
              24.67774699                4.93528452               88.75539863                1.00000000               -0.08602438               -0.08463375                0.29736212               -0.04677841                0.48643727               -0.05586805
              25.67715799                4.39106522               88.36259997                1.00000000               -0.02431214               -0.03072441                0.11876319               -0.04627497                0.64834056               -0.04097884
              26.67726075                3.84738287               87.97173625                1.00000000                0.05050312                0.05299351               -0.15861397               -0.01183408                0.60036423               -0.04992015
              27.67816805                3.30437015               87.57977278                1.00000000                0.14265689                0.15151632               -0.50600534                0.01358328                0.37182935               -0.02935416
              28.68011389                2.76156271               87.18571120                1.00000000                0.19458389                0.25580750               -0.83605320                0.00456997                0.20299767               -0.20150656
              19.22451959                9.19261948               91.02509801                1.00000000                0.00505344                0.05600217               -0.09605766               -0.01256973               -0.04529395                0.74955962
              20.22457013                8.65035964               90.61994786                1.00000000               -0.00632489               -0.00918757                0.02803388               -0.01139341               -0.00859298                0.11603098
              21.22439310                8.10803066               90.21605623                0.00010000               -0.02594076               -0.06282218                0.14313834               -0.00529051                0.25671231               -0.41209367
              22.22405131                7.56560296               89.81671113                0.00010000               -0.04280719               -0.32226028                0.22152782               -0.58342361                0.38778889               -0.73829009
              23.22353695                7.02244553               89.41721039                0.00010000               -0.06621584               -0.44018944                0.27960299               -1.34459335                0.36858227               -1.58608956
              24.22272700                6.47864305               89.01948285                0.00010000               -0.09340155               -0.63138981                0.28922877               -2.08781907                0.47819752               -3.20203909
              25.22166892                5.93458293               88.62457166                0.00010000               -0.10461549               -0.90992889                0.23585854               -2.58262114                0.64399136               -5.52993094
              26.22063469                5.39086186               88.23250491                0.00010000               -0.07652707               -1.25876997                0.09225832               -2.62237551                0.79915992               -8.37600398
              27.22013838                4.84795367               87.84221360                0.00010000                0.00374082               -1.64105998               -0.15819945               -2.05060734                0.84730430              -11.41384146
              28.22070950                4.30583759               87.45187790                0.00010000                0.11557718               -1.96690799               -0.45498758               -0.77482895                0.61144188              -14.10003439
              29.22244992                3.76399536               87.05771160                0.36850003                0.17404201               -2.24937272               -0.75967840                1.25406431                0.37244063              -15.94276842
              19.76696351               10.19332004               90.88805187                1.00000000                0.00689621                0.07951514               -0.11920151               -0.00783337                0.02449759                0.72566608
              20.76703248                9.65029961               90.47994297                0.79240521               -0.00055772               -0.00961768                0.00809418               -0.00489013                0.04321583                0.00431094
              21.76695236                9.10731752               90.07257788                0.00010000               -0.58074757               -0.10301216                0.11491951               -0.21614639                0.22736958               -0.76909682
              22.75541752                8.55992851               89.66783246                0.00010000               -1.33237049               -0.41139256                1.10773520               -1.25436792               -0.09738598               -1.20144578
              23.74030495                8.01458359               89.25241136                0.00010000               -1.52164189               -0.60974486                1.32727600               -2.53436273               -1.63668453               -2.92277674
              24.72498469                7.46694289               88.82354678                0.00010000               -1.32145950               -0.89457706                0.83383864               -3.99126877               -3.36288405               -6.10707551
              25.71387576                6.91708594               88.38281293                0.00010000               -0.68224723               -1.32149679               -0.31259794               -5.00890382               -4.74621103              -10.68900976
              26.71133974                6.36588982               87.93451035                0.00010000                0.36985542               -1.87926036               -1.99804943               -5.21173565               -5.39858341              -16.29605609
              27.72127287                5.81456167               87.48509328                0.00010000                1.76450195               -2.51134730               -4.01007700               -4.32121963               -4.98242613              -22.26991760
              28.74662978                5.26503199               87.04272435                0.00010000                3.38033891               -3.10542015               -5.98255863               -2.37472549               -3.23337086              -27.68159342
              29.78887965                4.71657526               86.61548585                0.36869949                4.22498652               -3.21616225               -7.42863120                0.14439576               -1.04158621              -31.59651590
              20.31040378               11.19420979               90.75026899                1.00000000                0.00710727                0.08905545               -0.12980343               -0.00227918               -0.00171746                0.65859173
              21.31047485               10.65016729               90.33803725                0.76379807                0.00187510               -0.01813801                0.01810252               -0.00889409                0.00089530               -0.12488715
              22.31044128               10.10597041               89.92604521                0.00010000               -0.93884817               -0.13798532                0.14937159               -0.24012721                0.08870273               -0.94146923
              23.29169788                9.55737510               89.51537383                0.00010000               -2.23029830               -0.17678162                1.65182231               -1.00725206               -0.71694037               -1.29003904
              24.26583531                9.01025063               89.08428967                0.00010000               -2.56493088               -0.27600367                1.94403717               -1.95553736               -3.31534723               -2.85237945
              25.24039927                8.46075151               88.62823256                0.00010000               -2.16456961               -0.36289644                1.01457383               -3.09902959               -6.23555425               -5.70579071
              26.22254392                7.90815300               88.14931883                0.00010000               -1.07375121               -0.47777007               -1.01479354               -3.96303305               -8.60614268               -9.73471791
              27.21892424                7.35327665               87.65525473                0.00010000                0.60139472               -0.62951762               -3.91236839               -4.25481764               -9.69050323              -14.63034543
              28.23457181                6.79772672               87.15845779                0.00010000                2.61385849               -0.79312478               -7.29308450               -3.83496505               -8.85118402              -19.87141125
              29.27120141                6.24372919               86.67516956                0.00010000                4.38397523               -0.87956438              -10.56141459               -2.48757249               -5.53551490              -24.75325614
              30.32225132                5.69967211               86.22507063                0.36879482                5.10499052               -0.48471986              -12.85924285               -1.15224227               -2.28744569              -28.17975283
              20.85500292               12.19510115               90.61167959                1.00000000                0.00910432                0.08344510               -0.13272156               -0.00149889               -0.00832858                0.59725274
              21.85509397               11.64993685               90.19550442                0.78729950               -0.00304612               -0.02293551                0.02869573               -0.01061028               -0.02544216               -0.15859210
              22.85494200               11.10455781               89.77913125                0.00010000               -1.20508493               -0.13057039                0.19262355               -0.17219478               -0.04945756               -0.91994884
              23.83099227               10.55639287               89.36231854                0.00010000               -2.85620998               -0.05081928                2.03690549               -0.73102276               -1.21941173               -1.26527938
              24.79781780               10.00906351               88.91754758                0.00010000               -3.29452703                0.00449547                2.33209119               -1.43923270               -4.57867244               -2.62226575
              25.76510173                9.45968496               88.43877393                0.00010000               -2.78639231                0.12489999                1.03519559               -2.33398363               -8.31065893               -5.06448487
              26.74208995                8.90753054               87.92876185                0.00010000               -1.42160308                0.32572321               -1.69959204               -3.06412037              -11.32583515               -8.47932873
              27.73666967                8.35329947               87.39794419                0.00010000                0.60155367                0.59959536               -5.55374836               -3.40305830              -12.66464089              -12.61095928
              28.75412103                7.79869918               86.86338765                0.00010000                2.91316381                0.95104595              -10.01707452               -3.17370737              -11.48896590              -17.05718450
              29.79493294                7.24744071               86.34782349                0.00010000                4.99139647                1.42535410              -14.32760371               -2.13635514               -7.17241293              -21.22196059
              30.85394896                6.70688086               85.87795287                0.36922489                5.90160158                1.84161505              -17.44375542               -0.94752769               -3.12358121              -24.30428780
              21.40070238               13.19587869               90.47267794                1.00000000                0.01035954                0.07180793               -0.13613347               -0.00048397               -0.00901299                0.55830400
              22.40080598               12.64970858               90.05278270                0.81640486               -0.00805108               -0.02117499                0.03782053               -0.00806979               -0.02377514               -0.15787210
              23.40054136               12.10335901               89.63269390                0.00010000               -1.41171268               -0.10992580                0.21624140               -0.05958357               -0.11084645               -0.85776944
              24.37257173               11.55635872               89.21092837                0.00010000               -3.33913979                0.04250487                2.33176181               -0.42221505               -1.51743444               -1.17226115
              25.33375857               11.01034054               88.75535310                0.00010000               -3.86595789                0.23843258                2.61940618               -0.96874255               -5.42061260               -2.30085733
              26.29525257               10.46324951               88.25867787                0.00010000               -3.30557789                0.56067477                1.03262219               -1.66305443               -9.73620072               -4.28163143
              27.26764701                9.91466746               87.72424081                0.00010000               -1.77790641                1.04992407               -2.24735432               -2.24812812              -13.20875999               -7.01566300
              28.25969444                9.36526856               87.16465098                0.00010000                0.46547089                1.70490359               -6.84293461               -2.53652158              -14.72900735              -10.30428508
              29.27695643                8.81674764               86.60062303                0.00010000                3.02990954                2.49841977              -12.15596818               -2.36514458              -13.33634112              -13.82859970
              30.32029263                8.27223627               86.05955172                0.00010000                5.37320177                3.33829276              -17.31878462               -1.54772475               -8.30644273              -17.13331816
              31.38442046                7.73650441               85.57328351                0.36972677                6.41278316                3.97253336              -21.16780284               -0.70166792               -3.70471977              -19.62611947
              21.94733346               14.19653731               90.33343802                1.00000000                0.01187915                0.06142655               -0.14139216               -0.00015893               -0.00845375                0.52651189
              22.94745225               13.64951335               89.91005147                0.83833855               -0.01166355               -0.01780387                0.04371103               -0.00490729               -0.01780863               -0.14347341
              23.94710019               13.10235929               89.48654669                0.00010000               -1.59429092               -0.09307097                0.23221310                0.08349221               -0.03558734               -0.80506137
              24.91556643               12.55724297               89.06267126                0.00010000               -3.77740134                0.15160060                2.58619883               -0.09875908               -1.51319399               -1.03324081
              25.87155216               12.01383217               88.60006595                0.00010000               -4.40263589                0.46337980                2.89782120               -0.53820102               -5.85129738               -1.90619812
              26.82751371               11.47089846               88.09053941                0.00010000               -3.82219112                0.93856967                1.11585139               -1.07974125              -10.63686481               -3.38500529
              27.79510834               10.92852902               87.53795399                0.00010000               -2.18273305                1.64853642               -2.55895387               -1.51175138              -14.49206418               -5.39036988
              28.78385905               10.38739754               86.95668198                0.00010000                0.23710409                2.59414082               -7.70723588               -1.71389613              -16.19270242               -7.77673119
              29.79985042                9.84866757               86.37036293                0.00010000                3.01813100                3.70094937              -13.66635892               -1.57122018              -14.66653954              -10.30354342
              30.84422167                9.31420656               85.81010931                0.00010000                5.57644475                4.83214073              -19.48873207               -0.99834916               -9.12037629              -12.60210215
              31.91137932                8.78633153               85.31161555                0.36987300                6.71576424                5.77118390              -23.92180370               -0.46090199               -4.12589997              -14.23199309
              22.49474711               15.19710722               90.19400244                1.00000000                0.01387363                0.05463478               -0.14893596               -0.00009535               -0.00157992                0.48562480
              23.49488584               14.64935250               89.76741429                0.87401925               -0.01327593               -0.01489393                0.04547745               -0.00253718               -0.01282509               -0.12702315
              24.49448159               14.10149759               89.34064392                0.00010000               -1.78810859               -0.08174132                0.23986773                0.27749524                0.24292576               -0.67393692
              25.45912367               13.55939073               88.91900190                0.00010000               -4.25712663                0.32608077                2.85826861                0.26202549               -1.11145440               -0.82245669
              26.40933906               13.01960814               88.45376548                0.00010000               -5.00813932                0.70033600                3.26368978               -0.19840423               -5.87877840               -1.41516203
              27.35896089               12.48202090               87.93649766                0.00010000               -4.42130777                1.23028656                1.39559677               -0.61341577              -11.11923130               -2.38470761
              28.32091290               11.94763819               87.37142748                0.00010000               -2.68414604                2.08094113               -2.53738922               -0.89486618              -15.39180286               -3.64531749
              29.30527797               11.41715138               86.77449318                0.00010000               -0.10949509                3.21598173               -8.07757470               -1.01293660              -17.33603675               -5.13340996
              30.31872300               10.89076663               86.17185130                0.00010000                2.86918648                4.52670948              -14.50668634               -0.91550935              -15.75853056               -6.68164733
              31.36266170               10.36887909               85.59809012                0.00010000                5.61147479                5.85730988              -20.79858828               -0.56170933               -9.79626229               -7.96455885
              32.43095250                9.85192809               85.09236149                0.36998595                6.82908004                7.04478256              -25.61874176               -0.27684896               -4.49870338               -8.51797606
              23.04284099               16.19763000               90.05417187                1.00000000                0.01701533                0.05268553               -0.15960575               -0.00027468                0.03150610                0.37266979
              24.04301114               15.64921548               89.62484841                0.73046052               -0.01145608               -0.01341296                0.04380380               -0.00077879                0.08537039               -0.12798414
              25.04261186               15.10072447               89.19662847                0.00010000               -2.01573728               -0.07451006                0.23494783                0.57296877                0.81395640               -0.51421055
              26.00269639               14.56376459               88.78168215                0.00010000               -4.88289780                0.66502413                3.23574159                0.49048196               -0.26910082               -0.42598612
              26.94495391               14.02783889               88.31888538                0.00010000               -5.77405248                0.84660040                3.85681903               -0.00452305               -5.46002861               -0.83155777
              27.88721534               13.49550419               87.79837316                0.00010000               -5.14366838                1.38817710                1.99904089               -0.28621802              -11.31873956               -1.27890387
              28.84208054               12.97014785               87.22553776                0.00010000               -3.33717302                2.31228655               -2.08199402               -0.41204695              -16.14625408               -1.84465088
              29.82047188               12.45171717               86.61754017                0.00010000               -0.61340095                3.54996074               -7.89568605               -0.46898544              -18.47837997               -2.51691208
              30.82981252               11.93920176               86.00263498                0.00010000                2.56770706                4.97187841              -14.67112938               -0.43022704              -16.97815169               -3.21114946
              31.87182602               11.43135276               85.41896920                0.00010000                5.49659032                6.40724976              -21.29359394               -0.26248012              -10.59996440               -3.71619864
              32.93974433               10.92722718               84.91118779                0.37045911                6.79183033                7.70991292              -26.28457933               -0.15557810               -4.96961541               -3.39044805
              23.59157067               17.19816093               89.91268231                1.00000000                0.02051360                0.05309271               -0.17279049               -0.03470061                0.19180708                0.28097991
              24.59177580               16.64908424               89.48205914                0.80761148               -0.00894058               -0.01312335                0.03579729               -0.03121087                0.29467199               -0.13219584
              25.59139185               16.10000739               89.05350204                0.36137368               -2.49784539               -0.07170831                0.22471846                1.05834756                1.91343694               -0.45050957
              26.54181889               15.57269121               88.65502899                0.36108259               -5.69414314                0.89266267                3.95515185                0.73888798                1.60774813               -0.67543905
              27.47750899               15.03654014               88.19779088                0.36099555               -6.54456636                0.87012574                4.86001137                0.11016975               -4.68345698               -0.88360987
              28.41092757               14.50978444               87.67765846                0.36112372               -6.05250058                1.42802506                3.08044567                0.23841123              -11.45128331               -0.99371670
              29.35645898               13.99388392               87.10028355                0.36160635               -4.20416143                2.37360770               -1.09792556                0.35615131              -17.06682401               -1.07181548
              30.32684434               13.48815059               86.48405207                0.36278598               -1.29880534                3.64334159               -7.13103287                0.45325927              -19.97101549               -1.13601790
              31.33048287               12.99020420               85.85874570                0.36483217                2.12711705                5.10024342              -14.20028513                0.51070979              -18.79448342               -1.14997543
              32.36938668               12.49702408               85.26438075                0.36793795                5.28046135                6.56713229              -21.14256419                0.55217311              -12.19634358               -1.02528197
              33.43609210               12.00612635               84.75333918                0.68501195                6.67054206                7.88991737              -26.26532292                0.54500396               -6.29284375               -0.02852994
              18.53852606                7.33672890               92.30255637                1.00000000               -0.02264110                0.00534931                0.03578994               -0.00440274               -0.45643117                0.41332934
              19.53829965                6.79181521               91.90088259                1.00000000               -0.03324389               -0.02488306                0.10498500               -0.00640240               -0.62903517                0.06297609
              20.53786119                6.24683307               91.49587208                1.00000000               -0.05808828               -0.05611536                0.19888886               -0.00295128               -0.66994709               -0.04605704
              21.53713789                5.70197948               91.09294988                0.69446902               -0.11492702               -0.06525871                0.26134499               -0.00905901               -0.64192840               -0.25797711
              22.53556265                5.15698020               90.68781379                0.69185004               -0.17011125               -0.05960070                0.34465950               -0.01346333               -0.48490735               -0.11956921
              23.53373566                4.61182927               90.28693921                0.70533720               -0.16687807               -0.06136846                0.34075667               -0.01495026               -0.07965493               -0.08991867
              24.53222508                4.06644159               89.88928284                0.74483708               -0.12574239               -0.04149550                0.24665336               -0.02801275                0.20124229               -0.08490397
              25.53122081                3.52100407               89.49401548                0.82891501               -0.06943041                0.00326238                0.07867447               -0.02745274                0.34585992               -0.07932586
              26.53083648                2.97579078               89.09978487                1.00000000                0.01385672                0.05768833               -0.16153232               -0.01800118                0.27555762               -0.06765828
              27.53149795                2.43067525               88.70342933                1.00000000                0.10724476                0.12160226               -0.39816796               -0.02536654                0.11644116               -0.02084611
              28.53298137                1.88559099               88.30646448                1.00000000                0.14834223                0.19276092               -0.65172863               -0.03123790                0.03036269               -0.13340198
              19.08339573                8.33678239               92.16192951                1.00000000               -0.02121844                0.02528649                0.00777625               -0.01817995               -0.12530736                0.55974340
              20.08318354                7.79156638               91.76022861                1.00000000               -0.03230953               -0.01757182                0.07541592               -0.02101785               -0.19584865                0.09343537
              21.08274954                7.24627191               91.35744244                1.00000000               -0.06049073               -0.05490556                0.15496517               -0.00599414               -0.22172916               -0.13290375
              22.08197373                6.70132689               90.95527965                1.00000000               -0.11232109               -0.04975139                0.22460290               -0.00892869               -0.15944509               -0.18475552
              23.08050312                6.15638419               90.55359564                1.00000000               -0.15591325               -0.05283449                0.28742005               -0.00721923               -0.01299956               -0.06990702
              24.07885547                5.61121558               90.15452124                1.00000000               -0.15727807               -0.05208691                0.28765904               -0.00713310                0.23150395               -0.04566249
              25.07735756                5.06602664               89.75796733                1.00000000               -0.12918872               -0.03254959                0.21568850               -0.00571824                0.44523609               -0.03631017
              26.07627169                4.52103669               89.36353816                1.00000000               -0.07683408                0.00840809                0.06884050                0.00111553                0.58077307               -0.03700002
              27.07582087                3.97636767               88.97025263                1.00000000                0.00362433                0.06029149               -0.14748927                0.01263768                0.53167716               -0.06056628
              28.07634418                3.43189127               88.57543229                1.00000000                0.09661868                0.12178890               -0.38627060                0.01019765                0.32097269               -0.03776285
              29.07775325                2.88751860               88.17848599                1.00000000                0.14090701                0.18900309               -0.61899055                0.00680593                0.16701287               -0.17866897
              19.62859450                9.33723463               92.02447864                1.00000000               -0.02047232                0.06421320               -0.03284456               -0.01513302               -0.04333127                0.72920019
              20.62838977                8.79146377               91.62030162                1.00000000               -0.03068537               -0.00654178                0.04166172               -0.00811755               -0.00534214                0.11555084
              21.62798079                8.24573496               91.21735704                0.00010000               -0.07713708               -0.07243979                0.11799455                0.06803681                0.25312456               -0.40578709
              22.62684703                7.70098445               90.81875675                0.00010000               -0.12256113               -0.07549592                0.18544360               -0.34803706                0.38433112               -0.14832527
              23.62552957                7.15592351               90.41979070                0.00010000               -0.14482368               -0.16065232                0.23089020               -1.19941096                0.36987176               -0.87162266
              24.62395056                6.61078753               90.02217197                0.00010000               -0.16199795               -0.43389473                0.23808387               -2.10291385                0.49071664               -2.76125439
              25.62228961                6.06579060               89.62671238                0.00010000               -0.15242325               -0.88854735                0.18436466               -2.75828908                0.66248371               -5.71431733
              26.62090209                5.52117223               89.23326525                0.00010000               -0.10274793               -1.49303338                0.05683449               -2.89191017                0.79501484               -9.46220219
              27.62023465                4.97699661               88.84078090                0.00010000               -0.01755651               -2.20202185               -0.13810884               -2.25911077                0.80776179              -13.54827018
              28.62055096                4.43311103               88.44772350                0.00010000                0.08140886               -2.90411209               -0.37660771               -0.62849201                0.57671475              -17.24000894
              29.62186283                3.88937106               88.05096406                0.36582867                0.13118631               -3.77202666               -0.59293982                2.25135272                0.35423852              -19.80026612
              20.17463479               10.33806666               91.88714976                1.00000000               -0.01139202                0.09106418               -0.06473880                0.00110521                0.01653398                0.71798106
              21.17452087                9.79143554               91.48004761                0.83432274               -0.00225951               -0.00917214                0.01348250                0.01104866                0.02626289                0.02242097
              22.17458960                9.24482312               91.07348138                0.00010000               -0.48482165               -0.11348485                0.07099017                0.11531235                0.77385801               -0.73138198
              23.16482443                8.69981697               90.68106323                0.00010000               -1.39388898               -0.11439670                1.61350346               -0.61547844                0.83069663                0.00040497
              24.14671182                8.15317115               90.26870329                0.00010000               -1.89471661               -0.25329173                2.03387221               -2.24439537               -1.47399550               -1.49491188
              25.12693010                7.60253769               89.83457286                0.00010000               -1.74523727               -0.67286261                1.47982014               -4.05826598               -3.92599479               -5.23837062
              26.11180707                7.04825569               89.38105219                0.00010000               -0.98513140               -1.38066965                0.05775517               -5.41010233               -5.95539683              -11.05070317
              27.10722747                6.49117603               88.91375864                0.00010000                0.34463949               -2.34224276               -2.09276487               -5.83140093               -7.09124029              -18.40958800
              28.11869986                5.93232723               88.44143406                0.00010000                2.20862102               -3.48698136               -4.74105695               -4.90890057               -6.82251713              -26.45806627
              29.15139989                5.37380903               87.97617284                0.00010000                4.57801919               -4.71836904               -7.46833658               -2.68001269               -4.61173333              -33.98028078
              30.21026025                4.81207807               87.53166149                0.36628822                5.88603516               -5.52376115               -9.61878711                0.55588328               -1.61270149              -39.76561802
              20.72187883               11.33905591               91.74920559                1.00000000               -0.00245482                0.09360080               -0.08503314                0.00527354               -0.00293104                0.66071659
              21.72185429               10.79128033               91.33818741                0.80966045                0.00133865               -0.01598978                0.01427027                0.00985845               -0.00555765               -0.08843054
              22.72190561               10.24346526               90.92730086                0.00010000               -0.78324257               -0.13065701                0.10646837                0.15250965                0.96384146               -0.86276657
              23.70618943                9.69869652               90.53552976                0.00010000               -2.19923319               -0.12908246                2.49967740               -0.32840953                0.74996171               -0.34153261
              24.67792094                9.15085768               90.10890523                0.00010000               -2.92443674               -0.22302206                3.14340840               -1.57650440               -2.99945370               -1.75047283
              25.64770070                8.59733028               89.64303321                0.00010000               -2.62358594               -0.39280450                2.11221732               -2.96987519               -7.07772999               -5.11933985
              26.62544922                8.03817721               89.14151814                0.00010000               -1.37490822               -0.65632400               -0.40560169               -4.04707763              -10.46745194              -10.22282140
              27.62020254                7.47432738               88.61461977                0.00010000                0.69872046               -1.01339753               -4.14214321               -4.50769135              -12.27423221              -16.63388441
              28.63942363                6.90725698               88.07892635                0.00010000                3.34986668               -1.44049644               -8.67169652               -4.19354988              -11.59114875              -23.69388601
              29.68719987                6.33874365               87.55721065                0.00010000                5.85093900               -1.84290403              -13.29277850               -2.81371345               -7.45354357              -30.54859852
              30.75644241                5.77889583               87.07897990                0.36649219                6.92425448               -1.57440184              -16.86953864               -1.36771863               -3.17670513              -35.82540135
              21.27029143               12.33993867               91.61054336                1.00000000                0.00172608                0.07955186               -0.09558620                0.00587604               -0.00843019                0.60384643
              22.27030869               11.79111575               91.19574530                0.82760721               -0.00339127               -0.01485561                0.02180723                0.00554406               -0.02295608               -0.12146438
              23.27022360               11.24220998               90.78079942                0.00010000               -0.97224320               -0.11114766                0.14488223                0.18495100                1.05072379               -0.84953067
              24.25086383               10.69723532               90.38735890                0.00010000               -2.68378180               -0.17455056                3.11757586               -0.09499427                0.62816180               -0.52662958
              25.21654797               10.14871071               89.94748057                0.00010000               -3.53253781               -0.21022665                3.85194021               -1.05104333               -4.13114313               -1.81399110
              26.18021307                9.59468160               89.45501554                0.00010000               -3.13397735               -0.14188349                2.40894293               -2.11872990               -9.26191267               -4.71774960
              27.15386842                9.03512921               88.91458589                0.00010000               -1.61096013                0.03551226               -0.98003752               -2.99248898              -13.49483838               -9.04400325
              28.14799387                8.47090807               88.34008949                0.00010000                0.82720863                0.30951982               -5.95285546               -3.48617254              -15.67353094              -14.45615800
              29.17041259                7.90351730               87.75408093                0.00010000                3.77464551                0.68107688              -11.94954540               -3.41364481              -14.64797669              -20.47527999
              30.22348678                7.33695095               87.18766826                0.00010000                6.60944540                1.23146386              -18.07438275               -2.43527864               -9.36725240              -26.40444557
              31.30260150                6.78059003               86.67933777                0.36701954                7.91147237                1.76893542              -22.99654129               -1.12299196               -4.16008631              -31.28301431
              21.81964221               13.34064695               91.47148369                1.00000000                0.00516513                0.06308951               -0.10326092                0.00480638               -0.00876293                0.56465776
              22.81969386               12.79098322               91.05310744                0.84912515               -0.00785799               -0.01192282                0.02926748                0.00423551               -0.02080876               -0.12518704
              23.81948505               12.24124231               90.63459072                0.00010000               -1.09525205               -0.08591956                0.16742382                0.17529662                1.15545568               -0.80284598
              24.79778882               11.69520550               90.23963801                0.00010000               -3.00156250               -0.22072309                3.56939363                0.01588945                0.63041318               -0.65488834
              25.75945380               11.14665314               89.78913231                0.00010000               -3.94406103               -0.19086110                4.34801746               -0.67415215               -4.83929886               -1.78424500
              26.71890760               10.59449261               89.27568677                0.00010000               -3.50404163                0.10228417                2.57400081               -1.44435147              -10.69562147               -4.15994384
              27.68937297               10.03888745               88.70480086                0.00010000               -1.84083036                0.68515546               -1.48580317               -2.10194653              -15.49682617               -7.62424103
              28.68209099                9.48051777               88.09316332                0.00010000                0.78674473                1.53369832               -7.40763100               -2.50930830              -17.92531196              -11.93566116
              29.70510786                8.92087852               87.46788990                0.00010000                3.96652847                2.60782906              -14.54163129               -2.48621529              -16.69692970              -16.73337551
              30.76142156                8.36337292               86.86585804                0.00010000                7.07982724                3.80058012              -21.88444086               -1.73515382              -10.63783404              -21.50312903
              31.84670441                7.81427454               86.33200657                0.36718177                8.52828448                4.79736710              -27.97555221               -0.83023415               -4.81532401              -25.53691947
              22.36971503               14.34120046               91.33217727                1.00000000                0.00830177                0.05033142               -0.11102777                0.00316991               -0.00773692                0.53108409
              23.36979804               13.79087729               90.91043000                0.86025765               -0.01038892               -0.00983378                0.03383780                0.00326692               -0.01498098               -0.11743397
              24.36950725               13.24049159               90.48860779                0.00010000               -1.20136334               -0.06918710                0.18334244                0.13001612                1.37009466               -0.76157298
              25.34577078               12.69282086               90.09444768                0.00010000               -3.28647136               -0.23218128                3.93232129                0.02319108                0.89884869               -0.73807812
              26.30377782               12.14489349               89.63734539                0.00010000               -4.33395217               -0.14528639                4.77209855               -0.41686922               -5.11605942               -1.67181934
              27.25909173               11.59672728               89.10898586                0.00010000               -3.89867482                0.33327979                2.77684921               -0.90003766              -11.53787334               -3.46035510
              28.22580433               11.04883232               88.51560294                0.00010000               -2.16375525                1.24795495               -1.76404519               -1.32202954              -16.80309271               -5.99589550
              29.21581663               10.50158204               87.87607592                0.00010000                0.60144052                2.54914235               -8.38540747               -1.59606763              -19.47375549               -9.11945712
              30.23783314                9.95567388               87.22110206                0.00010000                3.97855268                4.13109302              -16.37448143               -1.57188044              -18.13772590              -12.57329884
              31.29538768                9.41296255               86.59209853                0.00010000                7.31802244                5.82415917              -24.64905478               -1.07642577              -11.53251911              -15.94105939
              32.38419358                8.87653737               86.03879697                0.36746032                8.88059014                7.34308580              -31.65384278               -0.53535278               -5.28111151              -18.69460259
              22.92035196               15.34165358               91.19265581                1.00000000                0.01161187                0.04353958               -0.12065055                0.00106480               -0.00081309                0.48744792
              23.92046808               14.79078654               90.76780018                0.88641872               -0.01050778               -0.00850236                0.03353725                0.00161419               -0.01145084               -0.10805500
              24.92014180               14.23985857               90.34277723                0.00010000               -1.33086658               -0.06040354                0.19017872                0.07923973                1.79736518               -0.64521671
              25.89385075               13.69056188               89.95395312                0.00010000               -3.64659034               -0.19148848                4.29468778               -0.01644038                1.59239149               -0.72046380
              26.84721000               13.14374742               89.49539204                0.00010000               -4.84413651               -0.08661474                5.27403827               -0.24978947               -4.93925899               -1.40931970
              27.79696802               12.60115820               88.95843547                0.00010000               -4.45661889                0.52162539                3.19264295               -0.47267713              -11.90723719               -2.59103787
              28.75807762               12.06384655               88.34975546                0.00010000               -2.68199688                1.67455020               -1.65518507               -0.68146312              -17.69383018               -4.16750140
              29.74332808               11.53150062               87.69019862                0.00010000                0.21060629                3.28046726               -8.76374731               -0.83974849              -20.69137242               -6.10166048
              30.76228974               11.00350038               87.01355145                0.00010000                3.78507380                5.19477262              -17.36413888               -0.83563208              -19.34110264               -8.21987869
              31.81902955               10.47985611               86.36552224                0.00010000                7.32789814                7.22594711              -26.29297436               -0.56063275              -12.28954489              -10.14247330
              32.90884771                9.96113626               85.80016986                0.36764248                8.98181529                9.15924875              -33.90621411               -0.31634647               -5.70331492              -11.29769095
              23.47147040               16.34207126               91.05270939                1.00000000                0.01549422                0.04299723               -0.13315409               -0.00068200                0.03221239                0.37161431
              24.47162534               15.79070724               90.62519427                0.73394172               -0.00768476               -0.00737959                0.02738525                0.00032553                0.08153732               -0.11614267
              25.47131671               15.23928352               90.19869864                0.00010000               -1.50361122               -0.05516494                0.18300087                0.05609126                2.58109944               -0.49736303
              26.44155312               14.68899109               89.82100678                0.00010000               -4.15654991               -0.14314302                4.79430817               -0.00026193                2.85176203               -0.40208643
              27.38818571               14.14316119               89.36744847                0.00010000               -5.60070299               -0.07282080                6.07477408               -0.12608566               -4.18940646               -0.95296094
              28.32953906               13.60715979               88.82746514                0.00010000               -5.31765305                0.62674184                4.02745977               -0.17569362              -11.96692892               -1.48243993
              29.28183265               13.08232332               88.20944325                0.00010000               -3.50856162                1.91261081               -0.98806653               -0.24446470              -18.48233456               -2.16985745
              30.25936783               12.56719139               87.53581085                0.00010000               -0.45338205                3.67823614               -8.42761483               -0.32736783              -22.00091705               -3.03051979
              31.27276501               12.05956933               86.84301411                0.00010000                3.35856639                5.76761429              -17.46377794               -0.35119359              -20.78685762               -3.97791504
              32.32653915               11.55748149               86.18125910                0.00010000                7.12706751                7.97339895              -26.83603967               -0.23957325              -13.25377959               -4.75753000
              33.41530636               11.05972235               85.61163387                0.36762774                8.87672017               10.12147523              -34.73946952               -0.19317807               -6.27116300               -4.55233975
              24.02306635               17.34251352               90.91107992                1.00000000                0.01959816                0.04422687               -0.14752769               -0.02786314                0.19014228                0.27868466
              25.02326233               16.79063895               90.48230451                0.80870122               -0.00432826               -0.00682935                0.01550304               -0.02421455                0.28551017               -0.12483563
              26.02297978               16.23875527               90.05545909                0.36161921               -1.66472465               -0.05282505                0.17118575                0.01931084                4.10493373               -0.43847115
              26.98996783               15.68769902               89.70287774                0.36081783               -4.82300977               -0.12920728                5.80938977                0.01825821                5.69784368               -1.02934102
              27.92651958               15.14229100               89.25820643                0.36100341               -6.78379108               -0.08701895                7.47792498                0.13308876               -2.96444407               -1.28330695
              28.85429201               14.61369304               88.71955276                0.36079116               -6.66814287                0.65332504                5.54160654                0.46568358              -12.03029641               -1.37859537
              29.79315673               14.10209877               88.09594904                0.36148943               -4.73786512                1.97754445                0.41258187                0.70102313              -19.61492204               -1.43553083
              30.75953471               13.60506534               87.41168229                0.36195324               -1.40904811                3.78739551               -7.28895100                0.85438346              -23.88987149               -1.49498332
              31.76497576               13.11885267               86.70525849                0.36319424                2.72751814                5.92833356              -16.67732587                0.93401313              -23.10707916               -1.51153396
              32.81408507               12.63932409               86.02927126                0.36564695                6.77633347                8.18425922              -26.43853951                0.99024646              -15.30809143               -1.37198519
              33.90050243               12.16356576               85.45483834                0.68389725                8.64173616               10.38434117              -34.52496522                0.94377534               -7.98363822               -0.11768103
              18.93547520                7.48152267               93.30322244                1.00000000               -0.02551413               -0.00500844                0.08863361               -0.01692617               -0.42106558                0.39152168
              19.93522006                6.93323774               92.90201366                1.00000000               -0.02198763               -0.03046936                0.11663251               -0.02156282               -0.57497681                0.06020452
              20.93503545                6.38504830               92.49775822                0.97666963               -0.02723285               -0.06173706                0.18026588               -0.01341988               -0.61987279               -0.04421217
              21.93467541                5.83740852               92.09518590                0.70162671               -0.06510676               -0.05367892                0.19741192                0.01551496               -0.59025962               -0.22545777
              22.93373332                5.29039189               91.69080703                0.70889521               -0.11577309               -0.03795717                0.26017736                0.01628623               -0.44180498               -0.10032758
              23.93235994                4.74373022               91.28978978                0.72978224               -0.13428622               -0.03055476                0.24085405                0.01852504               -0.09707039               -0.06853303
              24.93104759                4.19720855               90.89122986                0.77177469               -0.11431148               -0.00797767                0.15621766                0.01443355                0.14780930               -0.05890472
              25.93007371                3.65084448               90.49449474                0.84807911               -0.06351452                0.02309688                0.02405960                0.01127140                0.27440430               -0.06169831
              26.92977730                3.10460511               90.09817405                1.00000000                0.00965835                0.05704073               -0.14616313               -0.00071735                0.21132064               -0.05375022
              27.93026688                2.55838442               89.69999821                1.00000000                0.07516393                0.09363137               -0.29351874               -0.01312087                0.07194035               -0.02091574
              28.93128058                2.01216816               89.30118591                1.00000000                0.10136986                0.13215974               -0.43960886               -0.01500780                0.00068000               -0.12489115
              19.48359088                8.48147259               93.16231477                1.00000000               -0.03492563                0.02302813                0.06120590               -0.02736459               -0.10899678                0.53498191
              20.48324162                7.93293304               92.76106593                1.00000000               -0.03875095               -0.01930360                0.08858973               -0.03384220               -0.16669810                0.08893685
              21.48281586                7.38443093               92.35889134                1.00000000               -0.05414322               -0.05861646                0.13515175               -0.00481529               -0.18417190               -0.12993903
              22.48215876                6.83687173               91.95724226                1.00000000               -0.10402664               -0.02778246                0.17239316                0.01051312               -0.11856926               -0.16055937
              23.48073533                6.29001232               91.55610813                1.00000000               -0.15109482               -0.02432328                0.21702739                0.01693967                0.01876317               -0.06377777
              24.47913686                5.74342467               91.15696560                1.00000000               -0.15502643               -0.01819406                0.20511341                0.01880817                0.22640540               -0.03955677
              25.47763480                5.19712878               90.75971240                1.00000000               -0.13243560                0.00015893                0.13903172                0.02142482                0.40604860               -0.03034713
              26.47648815                4.65107545               90.36397678                1.00000000               -0.08173206                0.02764279                0.02161329                0.02197469                0.51296252               -0.03785271
              27.47600016                4.10517552               89.96878647                1.00000000               -0.00670023                0.06008624               -0.13946166                0.01516789                0.46287066               -0.05543040
              28.47635415                3.55932073               89.57204737                1.00000000                0.06733000                0.09562258               -0.29609661                0.00540027                0.27239914               -0.03558659
              29.47734676                3.01348976               89.17333139                1.00000000                0.09926120                0.13231849               -0.43485778                0.00555250                0.13746374               -0.15886636
              20.03200701                9.48198324               93.02444112                1.00000000               -0.04221227                0.07400624                0.01843288               -0.01777610               -0.03562329                0.70294026
              21.03158488                8.93285166               92.62078110                1.00000000               -0.05032741               -0.00353980                0.05229262               -0.00613896                0.00976338                0.10995333
              22.03100046                8.38387597               92.21841612                0.00010000               -0.11403032               -0.08424345                0.09437624                0.12996217                0.27821019               -0.40951629
              23.02930428                7.83685287               91.82042000                0.00010000               -0.17406450                0.31459337                0.14478646                0.03401232                0.41941116                0.74988325
              24.02751917                7.28990542               91.42182820                0.00010000               -0.18423137                0.27792515                0.17393745               -0.84532242                0.40296870                0.26487484
              25.02561965                6.74336634               91.02424453                0.00010000               -0.18469257               -0.10552137                0.17349071               -1.88573303                0.51232868               -1.92199127
              26.02382532                6.19721173               90.62825896                0.00010000               -0.15765901               -0.79313254                0.12328729               -2.70108804                0.65649735               -5.64258006
              27.02246647                5.65139733               90.23364160                0.00010000               -0.09949704               -1.73659496                0.01813316               -2.93799935                0.75387232              -10.54660311
              28.02183538                5.10580683               89.83945142                0.00010000               -0.02029126               -2.89603109               -0.13158857               -2.23461490                0.73524500              -16.04708968
              29.02206064                4.56029687               89.44434574                0.00010000                0.06091000               -4.16907549               -0.30339360               -0.15893812                0.51172635              -21.21101926
              30.02305358                4.01481453               89.04585280                0.36381817                0.09929314               -6.01213554               -0.43896808                3.86684391                0.31236843              -24.95119941
              20.58149850               10.48295271               92.88675710                1.00000000               -0.02723878                0.10236438               -0.01908275                0.00967838                0.01319839                0.70056712
              21.58122611                9.93286225               92.48021262                0.87962141               -0.00423019               -0.00753380                0.01927186                0.02384379                0.01559742                0.03377368
              22.58141390                9.38274606               92.07399768                0.00010000               -0.22082823               -0.12394630                0.03759232                0.58383254                1.65846372               -0.69859870
              23.57680955                8.84316360               91.70010253                0.00010000               -1.20492436                0.36979577                2.27356683                0.43066188                2.40930927                1.82650840
              24.55731541                8.29557082               91.29308880                0.00010000               -2.13468272                0.32792373                2.94505840               -1.55128653               -0.86620498                0.77681728
              25.53411589                7.74131425               90.85314318                0.00010000               -2.08666823               -0.27221543                2.34299354               -3.68462907               -4.18567863               -3.57555767
              26.51558205                7.18126613               90.38396803                0.00010000               -1.24914161               -1.35244308                0.63643968               -5.35938466               -7.00782381              -10.89064517
              27.50913306                6.61634355               89.89265506                0.00010000                0.34131396               -2.85646129               -2.03621298               -6.02231591               -8.82756774              -20.49600736
              28.52240833                6.04725489               89.39027215                0.00010000                2.75173116               -4.73023493               -5.47394884               -5.10408744               -8.93471353              -31.35208339
              29.56416769                5.47593922               88.89335762                0.00010000                6.16199937               -6.95175367               -9.23160544               -2.69957476               -6.35858866              -41.93412493
              30.64564831                4.89324705               88.42311010                0.36407128                8.14806268               -8.96633591              -12.44616824                1.33703978               -2.37995572              -50.83834116
              21.13238151               11.48403052               92.74856832                1.00000000               -0.01130917                0.09736295               -0.04609263                0.01364307               -0.00278810                0.65282395
              22.13226842               10.93270099               92.33832265                0.85433039               -0.00028759               -0.01373539                0.01414212                0.02595898               -0.00595817               -0.05690317
              23.13237576               10.38139704               91.92817458                0.00010000               -0.35878331               -0.12343580                0.07274262                0.72383893                2.37047324               -0.78294887
              24.12509275                9.84424879               91.56536738                0.00010000               -1.70164836               -0.07057817                3.58842648                0.75658348                3.25934063                1.08619433
              25.09834279                9.29646390               91.14715784                0.00010000               -2.94304936               -0.15071026                4.66104340               -0.80519342               -1.90220811               -0.00071646
              26.06623176                8.73792203               90.67047691                0.00010000               -2.83672335               -0.43189199                3.53583617               -2.38293860               -7.32301643               -3.93783801
              27.04160832                8.17016287               90.14120679                0.00010000               -1.51001902               -0.89491856                0.49903523               -3.60583692              -11.92313704              -10.34259398
              28.03603138                7.59426811               89.57241187                0.00010000                0.92748153               -1.53553977               -4.18166420               -4.21948966              -14.71884830              -18.67429220
              29.06015795                7.01120213               88.98502386                0.00010000                4.30228059               -2.35124323              -10.11656377               -4.09159570              -14.49047299              -28.16570340
              30.12207699                6.42126180               88.40931399                0.00010000                7.75103826               -3.26174055              -16.54949610               -2.87754739               -9.63326384              -37.86560945
              31.21517872                5.83548781               87.88767985                0.36444185                9.31017233               -3.25265707              -22.02120888               -1.48940239               -4.21432535              -46.19827295
              21.68443043               12.48489997               92.60976786                1.00000000               -0.00516574                0.07537016               -0.06184738                0.01366263               -0.00730859                0.60317373
              22.68437878               11.93258754               92.19594057                0.86401690               -0.00437777               -0.00904269                0.01883050                0.01958614               -0.01783625               -0.08677302
              23.68434288               11.38027734               91.78202889                0.00010000               -0.37522074               -0.09516624                0.10561795                0.69543235                2.80998315               -0.77906088
              24.67687436               10.84175204               91.42467006                0.00010000               -1.84022906               -0.40383107                4.48389955                0.89124623                3.79297791                0.56106350
              25.64753830               10.29255662               90.99458638                0.00010000               -3.20581050               -0.58365431                5.74103578               -0.32472977               -2.65282287               -0.54690501
              26.61275815                9.73267641               90.48695279                0.00010000               -3.02095326               -0.59208613                4.14883844               -1.48745173               -9.35980411               -3.96631664
              27.58711923                9.16336775               89.90916110                0.00010000               -1.45270734               -0.44986399                0.05369925               -2.42090198              -14.99698716               -9.38893321
              28.58370400                8.58563275               89.27888708                0.00010000                1.32317459               -0.18496016               -6.18144534               -3.05349756              -18.29626635              -16.40714113
              29.61358272                8.00023003               88.62439675                0.00010000                4.93135273                0.19284359              -14.04072943               -3.23815885              -17.75221135              -24.51021365
              30.68233106                7.41070441               87.98633584                0.00010000                8.69127534                0.82408146              -22.57010491               -2.53469150              -11.68693683              -32.96461150
              31.78740823                6.82819391               87.41802205                0.36445128               10.50771708                1.54095057              -30.14117797               -1.21914009               -5.27662388              -40.72274112
              22.23727963               13.48553793               92.47061272                1.00000000                0.00031428                0.05434449               -0.07250545                0.01036209               -0.00733954                0.56673309
              23.23728277               12.93252013               92.05336805                0.87516420               -0.00798612               -0.00578046                0.02441672                0.01495612               -0.01581835               -0.09467854
              24.23711991               12.37949372               91.63604237                0.00010000               -0.33221858               -0.06680091                0.12717717                0.48967771                3.16444670               -0.74728168
              25.23063840               11.83617217               91.28231624                0.00010000               -1.80980422               -0.67928717                5.10947474                0.66142708                4.28050824                0.07951457
              26.20092382               11.28479081               90.84231345                0.00010000               -3.24834054               -0.92102810                6.45789312               -0.14686769               -3.04641503               -0.99467602
              27.16567159               10.72608031               90.31015788                0.00010000               -3.03449425               -0.68668731                4.48104006               -0.89423359              -10.59849426               -3.81614987
              28.14023394               10.16116559               89.69452475                0.00010000               -1.37862164                0.01443794               -0.42721550               -1.53371082              -16.89286977               -8.15110362
              29.13809916                9.59056891               89.01649836                0.00010000                1.50445900                1.11701712               -7.84605529               -2.04628794              -20.50973656              -13.73418747
              30.17032312                9.01505901               88.30979040                0.00010000                5.26600652                2.56550085              -17.18117656               -2.26674536              -19.81343027              -20.20688018
              31.24341929                8.43774343               87.62186290                0.00010000                9.27469032                4.25083826              -27.39044669               -1.76034289              -12.98339877              -27.05310889
              32.35581692                7.86630683               87.01377247                0.36488590               11.23976366                5.80411370              -36.73403255               -0.89606054               -5.95538571              -33.48709014
              22.79067326               14.48598686               92.33121747                1.00000000                0.00488491                0.03930666               -0.08211987                0.00663071               -0.00575614                0.53302638
              23.79072211               13.93247193               91.91072823                0.87421490               -0.00944293               -0.00465009                0.02731070                0.01035477               -0.01017321               -0.09392480
              24.79048440               13.37894132               91.49021354                0.00010000               -0.29581508               -0.04956523                0.14182869                0.14252044                3.57449009               -0.71921869
              25.78480581               12.82816629               91.14131768                0.00010000               -1.78958012               -0.88749051                5.57952496                0.14565158                4.94028853               -0.35262345
              26.75469280               12.27413605               90.69550792                0.00010000               -3.31535528               -1.17360750                7.01752823               -0.20379618               -3.03493669               -1.33792449
              27.71849870               11.71894266               90.14607640                0.00010000               -3.13681895               -0.71797249                4.78435120               -0.48492047              -11.22483007               -3.47531477
              28.69195642               11.16365651               89.50267309                0.00010000               -1.48069361                0.46411334               -0.70109722               -0.79651792              -18.04715949               -6.63254602
              29.68888483               10.60797309               88.78897383                0.00010000                1.45584381                2.24071694               -8.98281430               -1.12805508              -21.97192632              -10.66220273
              30.72107330               10.05154005               88.04287330                0.00010000                5.34957769                4.46989963              -19.41490808               -1.29988505              -21.22753398              -15.32713302
              31.79587638                9.49572118               87.31712821                0.00010000                9.56434620                6.95628167              -30.89123839               -1.02153796              -13.88439932              -20.20088267
              32.91236022                8.94427618               86.67853870                0.36491424               11.64838369                9.34152714              -41.58508411               -0.55579810               -6.43236645              -24.68590527
              23.34444211               15.48632406               92.19158943                1.00000000                0.00932981                0.03256597               -0.09360992                0.00241762                0.00155074                0.48758377
              24.34453541               14.93242713               91.76808504                0.88819650               -0.00830782               -0.00418188                0.02489745                0.00544404               -0.00727892               -0.09290495
              25.34427595               14.37850241               91.34444750                0.00010000               -0.30893535               -0.04229860                0.14777334               -0.30339184                4.19659366               -0.61885573
              26.33835670               13.81842236               91.00489566                0.00010000               -1.91022116               -1.06840236                6.02179656               -0.55038803                6.03069996               -0.63467936
              27.30607153               13.26131866               90.55924625                0.00010000               -3.59519902               -1.40853903                7.63856074               -0.33434365               -2.53765675               -1.44000836
              28.26645272               12.71172086               90.00035052                0.00010000               -3.53991924               -0.71022800                5.31658171               -0.17437573              -11.35150999               -2.85580155
              29.23527314               12.17044786               89.33832378                0.00010000               -1.93990991                0.84502998               -0.52726577               -0.21029455              -18.80029545               -4.78802637
              30.22765452               11.63538324               88.59921823                0.00010000                1.06520950                3.08250068               -9.39812852               -0.39965051              -23.14897819               -7.26004695
              31.25657733               11.10445700               87.82456852                0.00010000                5.12989355                5.81981903              -20.59963922               -0.54801803              -22.45632534              -10.11776135
              32.33025239               10.57686906               87.07223063                0.00010000                9.55068081                8.83659786              -32.94974977               -0.45326696              -14.67813616              -12.94507832
              33.44759095               10.05313737               86.41423721                0.36549164               11.73385583               11.86178620              -44.53428051               -0.31260427               -6.88427192              -15.06719245
              23.89851547               16.48663818               92.05150879                1.00000000                0.01371713                0.03347494               -0.10778614               -0.00087824                0.03320275                0.37017187
              24.89865264               15.93238829               91.62539612                0.72800610               -0.00470626               -0.00300429                0.01473197                0.00142968                0.08168171               -0.10878071
              25.89842134               15.37809535               91.20028848                0.00010000               -0.38354210               -0.03926812                0.13915350               -0.84743470                5.25856105               -0.48367898
              26.89098180               14.80679824               90.87756831                0.00010000               -2.18569602               -1.50299344                6.63928263               -0.87291745                7.84044964               -0.42650362
              27.85470742               14.24596527               90.44038086                0.00010000               -4.25499020               -1.59802863                8.64687799               -0.32932948               -1.31635012               -1.17033029
              28.80588199               13.70473810               89.87892235                0.00010000               -4.53096382               -0.68417841                6.38382488                0.03590738              -11.16610956               -1.77585611
              29.76408814               13.18055711               89.20577643                0.00010000               -2.94996575                1.08569290                0.35387310                0.08214351              -19.54564942               -2.58669614
              30.74688268               12.66962311               88.44898788                0.00010000                0.22694878                3.55623920               -8.90524459               -0.02688737              -24.57301010               -3.66770110
              31.76862712               12.16793643               87.65335942                0.00010000                4.56239992                6.55138819              -20.63602150               -0.14974948              -24.09819745               -4.94189669
              32.83813068               11.67245313               86.88224841                0.00010000                9.24721982                9.83454918              -33.55612762               -0.15159548              -15.79013848               -6.11488646
              33.95357152               11.18151191               86.21639840                0.36504164               11.54408414               13.21132152              -45.57997228               -0.20941092               -7.54363548               -6.18156457
              24.45292432               17.48699356               91.90973175                1.00000000                0.01825082                0.03553767               -0.12251522               -0.02176542                0.18758960                0.27693713
              25.45310683               16.93236705               91.48236920                0.80445030               -0.00035093               -0.00212453               -0.00027222               -0.01840601                0.28206591               -0.12167415
              26.45291731               16.37771705               91.05692576                0.36099417               -0.00392020               -0.03783011                0.12662253               -1.75063157                7.37388954               -0.43072774
              27.45302843               15.78836249               90.77121678                0.36059514               -2.56861110               -1.84357583                8.00541001               -1.21328469               12.01162591               -1.57648324
              28.40154508               15.22935809               90.34734938                0.36061779               -6.02247007               -1.66071833               10.51179243                0.16750655                0.50610089               -1.87643695
              29.33257903               14.69803729               89.78849059                0.36099810               -6.47570381               -0.67008092                8.38702424                0.80988481              -11.12110801               -1.93123009
              30.27203101               14.19216171               89.10853518                0.36102046               -4.64207834                1.16046019                2.22254896                1.21782309              -20.90462203               -1.94665445
              31.23973746               13.70650803               88.33827305                0.36143514               -1.06393436                3.68849193               -7.34002641                1.45163076              -26.89486403               -1.99805396
              32.25075232               13.23548476               87.52519919                0.36227361                3.69537722                6.75483361              -19.47786107                1.56512073              -26.97304855               -2.02795665
              33.31364500               12.77356004               86.73560996                0.36377988                8.72664344               10.11069092              -32.85634007                1.64538472              -18.35422916               -1.89238463
              34.42528519               12.31736380               86.06283988                0.68271816               11.16401841               13.58518930              -45.12292041                1.55174279               -9.69145788               -0.37717907
              19.33252231                7.62637468               94.30432904                1.00000000               -0.02579759               -0.01113313                0.12413657               -0.02687594               -0.38605442                0.36905710
              20.33226433                7.07491476               93.90321524                1.00000000               -0.01154095               -0.03370814                0.12059783               -0.03373740               -0.51709694                0.05735698
              21.33229149                6.52368258               93.49947740                0.95238185                0.00097785               -0.06673450                0.15884284               -0.01802930               -0.57083357               -0.05092081
              22.33228389                5.97335761               93.09689812                0.71654918               -0.00844106               -0.04760073                0.15147204                0.04461048               -0.54231979               -0.19723425
              23.33212267                5.42437145               92.69301733                0.72754284               -0.04562314               -0.02839792                0.19000050                0.04070533               -0.40175912               -0.08750396
              24.33137143                4.87610697               92.29175629                0.74498860               -0.08231776               -0.01372729                0.16306035                0.03713492               -0.11362734               -0.05828856
              25.33047631                4.32829840               91.89240720                0.77529039               -0.08033572                0.00921893                0.09037325                0.03405596                0.09763125               -0.04676941
              26.32976471                3.78080602               91.49449667                0.83024880               -0.04584480                0.03267533               -0.01346024                0.02884329                0.20963331               -0.05154669
              27.32955942                3.23349094               91.09686161                0.97019454                0.00800876                0.04907444               -0.12077310                0.01245826                0.14895540               -0.04776804
              28.32992489                2.68615862               90.69755896                1.00000000                0.05300724                0.06733857               -0.20756012               -0.00220159                0.02791272               -0.02132123
              29.33061956                2.13880221               90.29767231                1.00000000                0.06946744                0.08721776               -0.28909272               -0.00414998               -0.02863319               -0.11560598
              19.88371347                8.62626335               94.16315363                1.00000000               -0.04404614                0.02382141                0.09876442               -0.03457793               -0.09087558                0.50855299
              20.88327301                8.07457768               93.76200041                1.00000000               -0.04118476               -0.01993044                0.09497223               -0.04511971               -0.13326919                0.08351636
              21.88288977                7.52301524               93.36014547                1.00000000               -0.04437226               -0.06221441                0.11475542               -0.00407397               -0.14162269               -0.13260089
              22.88238556                6.97288160               92.95872752                1.00000000               -0.08673658               -0.01178827                0.12940383                0.03057611               -0.07329832               -0.13814495
              23.88115504                6.42408747               92.55793619                1.00000000               -0.13031307               -0.00655588                0.15359293                0.03649215                0.05190315               -0.06015862
              24.87977930                5.87596970               92.15862351                1.00000000               -0.13438466                0.00315764                0.13310911                0.03490345                0.22171075               -0.03843276
              25.87846735                5.32839059               91.76074797                1.00000000               -0.11612104                0.01924828                0.07547992                0.03546234                0.36987221               -0.02989538
              26.87745688                4.78113277               91.36397042                1.00000000               -0.07298239                0.03779358               -0.01498794                0.03067259                0.45254735               -0.03601887
              27.87700770                4.23398168               90.96746340                1.00000000               -0.01048225                0.05391013               -0.12492944                0.01876124                0.39575337               -0.04999779
              28.87724723                3.68683200               90.56951036                1.00000000                0.04633850                0.07108843               -0.21859885                0.00759678                0.22296426               -0.03415702
              29.87793447                3.13967439               90.16978883                1.00000000                0.06872360                0.08830724               -0.29375885                0.00806459                0.10742176               -0.14047967
              20.43520209                9.62685111               94.02484730                1.00000000               -0.05920396                0.08437260                0.05573840               -0.01978324               -0.02549266                0.67176252
              21.43461005                9.07451615               93.62134747                1.00000000               -0.06479995               -0.00041095                0.05889290               -0.00467931                0.02954740                0.10069107
              22.43390609                8.52243830               93.21924457                0.00010000               -0.13934341               -0.09612758                0.07284877                0.17924392                0.31487490               -0.41875536
              23.43182318                7.97312184               92.82165248                0.00010000               -0.20708362                0.92590818                0.10165589                0.66679860                0.46736766                2.03783860
              24.42976441                7.42424033               92.42326945                0.00010000               -0.20284024                0.96451921                0.11491029               -0.08798464                0.44298607                1.93384055
              25.42776637                6.87617012               92.02564179                0.00010000               -0.18709658                0.44122299                0.10688833               -1.14994801                0.53230854               -0.56924039
              26.42602248                6.32868337               91.62917813                0.00010000               -0.14896491               -0.54478229                0.06329920               -2.04684297                0.64178530               -5.19835444
              27.42478708                5.78156189               91.23362792                0.00010000               -0.08935371               -1.93235812               -0.01606140               -2.35995519                0.70007521              -11.53040479
              28.42423541                5.23456914               90.83814913                0.00010000               -0.02014809               -3.71342810               -0.12250307               -1.58430876                0.65587358              -18.89495054
              29.42438411                4.68758039               90.44165562                0.00010000                0.04303377               -5.83368580               -0.23569181                1.00710739                0.44506373              -26.15853483
              30.42509608                4.14056836               90.04218469                0.36176788                0.07119708               -9.30950980               -0.30681971                6.55988167                0.26850953              -31.75624538
              20.98798771               10.62795080               93.88676811                1.00000000               -0.03954823                0.11252590                0.01556614                0.01748263                0.01206709                0.67521312
              21.98759223               10.07456946               93.48043305                0.92636439               -0.00593773               -0.00509194                0.02420223                0.03303557                0.00847959                0.03935528
              22.98786896                9.52109269               93.07423323                0.00010000                0.31636319               -0.13316122                0.01454482                1.25972816                2.94793289               -0.66997766
              23.99391949                8.99139976               92.72653457                0.00010000               -0.57609453                1.13655155                3.08038078                2.14274895                4.80976408                4.44802468
              24.97634707                8.44337786               92.32760446                0.00010000               -2.07910961                1.25527194                4.02534738               -0.08013856                0.39208511                4.10138416
              25.95233730                7.88479416               91.88143273                0.00010000               -2.21041745                0.42968915                3.38564211               -2.32289347               -3.83619563               -0.90576681
              26.93213872                7.31749495               91.39378098                0.00010000               -1.39826491               -1.12755538                1.42946221               -4.16397535               -7.51480260               -9.99656139
              27.92437200                6.74248561               90.87303438                0.00010000                0.35821541               -3.34761913               -1.75349038               -5.02802017              -10.23320169              -22.37249730
              28.93930303                6.15971312               90.33195509                0.00010000                3.35090793               -6.23754107               -6.10059162               -4.19253359              -11.08811605              -36.89512852
              29.99139016                5.57015829               89.79154073                0.00010000                8.19265690               -9.95635733              -11.23605203               -1.93672174               -8.43950697              -51.79252342
              31.10315616                4.95348419               89.28273813                0.36226148               11.17660021              -14.02749623              -16.06129621                2.84899492               -3.36651057              -65.65433298
              21.54231442               11.62910162               93.74828373                1.00000000               -0.01855477                0.10034764               -0.01505070                0.02187544               -0.00177316                0.63682244
              22.54212887               11.07441431               93.33847025                0.89580886               -0.00220362               -0.01172870                0.01567303                0.03860760               -0.00302652               -0.03180027
              23.54227035               10.51977507               92.92875572                0.00010000                0.51320594               -0.11658611                0.04689774                1.56316909                4.41778556               -0.70797325
              24.55239299                9.99585287               92.60729829                0.00010000               -0.37515471                0.00539815                4.88621975                2.49085505                7.10271334                3.10754939
              25.53476725                9.44934577               92.20212610                0.00010000               -2.26007882               -0.03804311                6.41161291                0.68863701                0.35495009                2.53597335
              26.50719141                8.88476391               91.71374993                0.00010000               -2.48578647               -0.45599339                5.19523368               -0.85542697               -6.40727257               -2.02337306
              27.48505152                8.30613226               91.15149884                0.00010000               -1.25914563               -1.17311768                1.68052692               -2.01493634              -12.25518667               -9.95705781
              28.48200850                7.71460951               90.53098648                0.00010000                1.38302682               -2.19034246               -3.93985014               -2.69265289              -16.31069083              -20.63152312
              29.51271206                7.10981832               89.87659508                0.00010000                5.49350518               -3.55833159              -11.48174029               -2.87698425              -17.03558191              -33.25255176
              30.59187860                6.48845324               89.22622073                0.00010000               10.13560579               -5.25242422              -20.28819006               -2.25336533              -11.84466219              -46.91751137
              31.71542417                5.86001843               88.63855572                0.36241753               12.35455703               -5.67208002              -28.56584238               -1.31645882               -5.31744066              -60.04717513
              22.09779985               12.62995775               93.60930641                1.00000000               -0.01089100                0.07151918               -0.03354518                0.02123040               -0.00514789                0.59623398
              23.09769094               12.07433489               93.19612191                0.89375646               -0.00530340               -0.00561618                0.01810200                0.03110926               -0.01135742               -0.05753836
              24.09769378               11.51876096               92.78291178                0.00010000                0.82374790               -0.08315202                0.07494743                1.43641450                5.35792447               -0.71400326
              25.11416589               10.99150773               92.47703689                0.00010000                0.17574990               -0.78523512                6.07575363                2.42954749                8.63091215                2.06430085
              26.10120878               10.44261699               92.06230128                0.00010000               -1.78618107               -1.17538414                7.86079020                1.00415844                0.33973286                1.25851864
              27.07844227                9.87567429               91.53799231                0.00010000               -1.96071939               -1.28589504                6.10412787               -0.05246967               -7.86868775               -2.72770814
              28.06199439                9.29403259               90.91565987                0.00010000               -0.58046914               -1.18894385                1.33780894               -0.84359763              -14.88188126               -9.42357902
              29.06683289                8.69867876               90.21646059                0.00010000                2.29626101               -0.94311185               -6.16511463               -1.54320013              -19.55662173              -18.37500951
              30.10791961                8.08854649               89.47326634                0.00010000                6.46449255               -0.57769747              -16.13928862               -2.14031484              -20.04178636              -29.12922969
              31.19612274                7.46510980               88.73626617                0.00010000               11.28884992                0.15325640              -27.77097238               -2.13054877              -13.73954489              -41.05575942
              32.33369661                6.84004259               88.07651421                0.36243403               13.75738659                1.19988267              -39.19364105               -1.08905208               -6.30492038              -53.19708181
              22.65398476               13.63053201               93.47003358                1.00000000               -0.00369159                0.04632647               -0.04575820                0.01592521               -0.00470376                0.56441279
              23.65394784               13.07430199               93.05359577                0.89231488               -0.00794823               -0.00265385                0.02199936                0.02437996               -0.00929659               -0.06901987
              24.65382579               12.51811203               92.63713426                0.00010000                1.15900340               -0.05294369                0.09521409                0.92799997                6.05127475               -0.69567722
              25.67712791               11.98014817               92.34182750                0.00010000                0.84290325               -1.41593751                6.86402428                1.64211653                9.81463162                1.05552764
              26.67068386               11.42583809               91.91829017                0.00010000               -1.12007456               -2.07073984                8.76273360                0.80047145                0.49604144                0.09895375
              27.65472642               10.85904600               91.36530758                0.00010000               -1.27543811               -1.93229689                6.55054954                0.27514909               -8.60984747               -3.20833331
              28.64517510               10.28235338               90.69625655                0.00010000                0.09520923               -1.08251136                0.82179229               -0.16647105              -16.30626990               -8.53590455
              29.65663060                9.69574727               89.93624222                0.00010000                2.91498107                0.34696781               -8.10773459               -0.73720053              -21.34295874              -15.62953039
              30.70347472                9.09826437               89.12426637                0.00010000                7.05704590                2.29033103              -19.92706249               -1.35102189              -21.77242027              -24.20986818
              31.79777152                8.49151837               88.31804910                0.00010000               12.01514188                4.67336825              -33.78660894               -1.41683640              -14.85368217              -33.86703211
              32.94377756                7.88401609               87.59732592                0.36295660               14.60060339                7.11559705              -47.76773763               -0.79879441               -6.90817246              -43.83091630
              23.21057839               14.63088428               93.33053487                1.00000000                0.00201240                0.02909627               -0.05650035                0.01010292               -0.00240869                0.53150847
              24.21059851               14.07428181               92.91097622                0.87902560               -0.00853974               -0.00207191                0.02337391                0.01672002               -0.00347625               -0.07491187
              25.21040760               13.51770209               92.49144437                0.00010000                1.43418264               -0.03527641                0.10904244                0.11722151                6.70841152               -0.68016096
              26.23928217               12.96318898               92.20603818                0.00010000                1.39563886               -1.92652553                7.41470521                0.30190939               10.99487401                0.11251590
              27.23832037               12.40120220               91.77769596                0.00010000               -0.59261036               -2.78818927                9.40940183                0.20787565                0.95430269               -0.91357459
              28.22742996               11.83702835               91.20467288                0.00010000               -0.81783360               -2.39248959                6.89561703                0.36570186               -8.81007262               -3.42048089
              29.22196370               11.27238237               90.50158100                0.00010000                0.43739683               -0.86853490                0.49202232                0.33093342              -17.05782642               -7.26463572
              30.23617790               10.70561812               89.69641964                0.00010000                3.15821862                1.52691803               -9.46603679               -0.02780445              -22.46116992              -12.35097799
              31.28512807               10.13435311               88.83280389                0.00010000                7.29281997                4.61973344              -22.63998504               -0.51824141              -22.94345995              -18.52215975
              32.38203430                9.55857717               87.97427376                0.00010000               12.37986070                8.21579878              -38.14767258               -0.69859763              -15.63983358              -25.40630370
              33.53272529                8.98235453               87.20709528                0.36318322               15.06909915               11.89583100              -54.00923231               -0.45368548               -7.34123090              -32.38166108
              23.76739176               15.63111393               93.19078362                1.00000000                0.00726710                0.02240445               -0.06930531                0.00373228                0.00538491                0.48487806
              24.76746443               15.07426055               92.76829813                0.88013476               -0.00643534               -0.00171722                0.01881157                0.00866690               -0.00041099               -0.08273234
              25.76726306               14.51740650               92.34573270                0.00010000                1.61007798               -0.02852063                0.11329011               -0.93673761                7.56194423               -0.59533793
              26.79966599               13.94161766               92.07438905                0.00010000                1.68694714               -2.45245410                7.90405644               -1.41723167               12.57805014               -0.60449389
              27.80100200               13.37007430               91.64816325                0.00010000               -0.44028529               -3.47753727               10.10043507               -0.41185798                1.89973829               -1.54718164
              28.79086029               12.81119621               91.06476711                0.00010000               -0.88989999               -2.67628774                7.49350502                0.41498639               -8.53420213               -3.19593371
              29.78320400               12.26498269               90.33921014                0.00010000                0.16217432               -0.60021870                0.68499545                0.69899268              -17.50322371               -5.49409585
              30.79410377               11.72628563               89.50223605                0.00010000                2.84734196                2.45822116               -9.95869517                0.49115440              -23.43656829               -8.57484473
              31.84015084               11.19065904               88.60155867                0.00010000                7.08471845                6.28738117              -24.06113880                0.09805828              -24.07029164              -12.33961196
              32.93579814               10.65583435               87.70652724                0.00010000               12.34991398               10.66136325              -40.67853154               -0.15316130              -16.40220357              -16.36584424
              34.08714912               10.12193271               86.90948425                0.36312188               15.13509748               15.25669271              -57.75439298               -0.21974510               -7.79184975              -19.89554015
              24.32435980               16.63133237               93.05055367                1.00000000                0.01194816                0.02462028               -0.08453560               -0.00091653                0.03432580                0.36735226
              25.32447928               16.07424746               92.62548891                0.71347820               -0.00220346               -0.00006259                0.00515833                0.00222589                0.08544195               -0.10624585
              26.32431573               15.51713168               92.20148171                0.00010000                1.68952242               -0.02701672                0.10362144               -2.28803169                8.96033544               -0.47280426
              27.35826973               14.91413990               91.95379244                0.00010000                1.80944642               -3.63726235                8.61225081               -2.26847476               15.06432085               -0.54215873
              28.36050466               14.33165145               91.54038603                0.00010000               -0.87242138               -3.96245399               11.28442077               -0.61357528                3.74449897               -1.53116975
              29.34082130               13.78350260               90.95514164                0.00010000               -1.98252632               -2.76321235                8.76173365                0.42751520               -7.98123014               -2.18337657
              30.32085413               13.26037799               90.21652071                0.00010000               -1.02483353               -0.36672627                1.75602223                0.66788844              -18.10345316               -3.09659587
              31.32032463               12.75478254               89.35770595                0.00010000                1.83431954                3.01241388               -9.32109434                0.52961959              -24.89179037               -4.41537901
              32.35754053               12.26010073               88.43029368                0.00010000                6.36863834                7.19774795              -24.03441121                0.25244723              -25.84821557               -6.08548175
              33.44769740               11.77180443               87.51013654                0.00010000               11.92965693               11.94594729              -41.34430278                0.04746574              -17.62969508               -7.77832364
              34.59613366               11.28748839               86.70003443                0.36354854               14.84362636               17.06032613              -59.02322987               -0.17838825               -8.52662062               -8.29891143
              24.88154324               17.63160634               92.90862961                1.00000000                0.01663993                0.02739692               -0.09861394               -0.01635990                0.18380766                0.27498981
              25.88170964               17.07425930               92.48229907                0.79762765                0.00333735                0.00118347               -0.01173174               -0.01397266                0.28320743               -0.12253861
              26.88160999               16.51686617               92.05799154                0.36063526                2.90335411               -0.02655106                0.09146808               -4.53991846               11.85838699               -0.42609604
              27.93977673               15.86887241               91.86298594                0.36077834                1.88789006               -4.52674811               10.36905298               -3.15134791               20.95968667               -2.39068575
              28.91936779               15.29082522               91.46844228                0.36076802               -3.45463376               -4.08262274               13.64105741                0.23929063                6.30550553               -2.72329412
              29.87068405               14.75593197               90.88729325                0.36086285               -4.70429844               -2.75706304               11.26830792                1.32742142               -7.80207803               -2.69234511
              30.82528182               14.25764816               90.14040002                0.36089684               -3.28553118               -0.27298308                4.10369284                1.97286600              -19.69825558               -2.63471045
              31.80497343               13.78653391               89.26488177                0.36033460                0.14480325                3.17513692               -7.30468874                2.31317098              -27.66060744               -2.67471948
              32.82817789               13.33461400               88.31570127                0.36121670                5.21931866                7.45132649              -22.45932024                2.47470528              -29.30340900               -2.73296922
              33.90935980               12.89475329               87.37214446                0.36216432               11.20177786               12.29488563              -40.28407402                2.59250150              -20.74146292               -2.62345820
              35.05221345               12.46313923               86.55237993                0.68166057               14.28536456               17.56508398              -58.26748802                2.44657177              -11.15047356               -0.84818399
              19.72998171                7.77125463               95.30570517                1.00000000               -0.02519481               -0.01292420                0.14270738               -0.03419863               -0.34906133                0.34496212
              20.72972976                7.21681454               94.90442562                1.00000000               -0.00229044               -0.03434053                0.11781032               -0.04258055               -0.45727639                0.05295956
              21.72993590                6.66269374               94.50093508                0.94810416                0.02796589               -0.06820022                0.12896323               -0.01843486               -0.51152410               -0.05552132
              22.73028908                6.10980505               94.09821534                0.74240770                0.04520327               -0.04505751                0.11560531                0.06681712               -0.48532827               -0.16882809
              23.73083997                5.55880410               93.69460704                0.74780280                0.02042266               -0.02470719                0.13684762                0.05499120               -0.36642673               -0.07748969
              24.73069753                5.00883001               93.29305099                0.75153071               -0.02900668               -0.00594889                0.10719063                0.04555322               -0.13417520               -0.05402371
              25.73025983                4.45959163               92.89303732                0.76050068               -0.04427797                0.01683099                0.04743154                0.04435157                0.04308247               -0.04311245
              26.72981197                3.91086605               92.49422553                0.78551213               -0.02828517                0.03577807               -0.03163299                0.04389636                0.14237416               -0.04459134
              27.72969413                3.36244616               92.09575858                0.87589055                0.01012307                0.04418728               -0.11122460                0.02757265                0.09393125               -0.05176612
              28.73001443                2.81405518               91.69584701                1.00000000                0.03935418                0.04857423               -0.15303272                0.00619764               -0.00741087               -0.02565878
              29.73048121                2.26562299               91.29540406                1.00000000                0.04667782                0.05447871               -0.18404936                0.00248517               -0.04571804               -0.10128620
              20.28407981                8.77112539               95.16429005                1.00000000               -0.04954119                0.02746889                0.12094500               -0.03967077               -0.07214867                0.47943244
              21.28358440                8.21647114               94.76296537                1.00000000               -0.04117562               -0.01908472                0.09468555               -0.05324254               -0.09855413                0.07611704
              22.28325630                7.66201174               94.36118645                1.00000000               -0.03411634               -0.06403214                0.09318823               -0.00298092               -0.09485665               -0.13352892
              23.28290207                7.10935447               93.95983033                1.00000000               -0.06894515               -0.00012280                0.09476271                0.04414751               -0.02559524               -0.11533253
              24.28187740                6.55855702               93.55917999                1.00000000               -0.10713868                0.00549337                0.10148213                0.04828324                0.08106995               -0.05520522
              25.28075930                6.00877052               93.15962778                1.00000000               -0.10960333                0.01711509                0.07521447                0.04312603                0.21436661               -0.03870074
              26.27968533                5.45975994               92.76122200                1.00000000               -0.09678162                0.03100010                0.02741346                0.04341827                0.33336772               -0.03155695
              27.27882367                4.91122383               92.36367702                1.00000000               -0.06550211                0.04296187               -0.03479854                0.04065516                0.39417114               -0.03356271
              28.27837529                4.36288804               91.96628788                1.00000000               -0.01678354                0.04849850               -0.10806250                0.02740541                0.33686125               -0.04635925
              29.27848800                3.81454092               91.56767539                1.00000000                0.02814823                0.05203116               -0.15826303                0.00958307                0.17909646               -0.03293854
              30.27893825                3.26616778               91.16745622                1.00000000                0.04502560                0.05586684               -0.19010361                0.00690629                0.07842968               -0.11699359
              20.83849680                9.77180401               95.02555589                1.00000000               -0.07182392                0.09475757                0.07929281               -0.02060847               -0.01475393                0.63568977
              21.83777856                9.21643285               94.62195895                1.00000000               -0.07519258                0.00277189                0.06149114               -0.00223634                0.05008068                0.08893038
              22.83699295                8.66141310               94.21987309                0.00010000               -0.15759073               -0.10881928                0.05481660                0.21922382                0.35163948               -0.42733628
              23.83462675                8.10980259               93.82245312                0.00010000               -0.23016826                1.85619066                0.06179851                1.71161954                0.51375429                3.78557906
              24.83238958                7.55891396               93.42412640                0.00010000               -0.21348016                2.00924151                0.06035691                1.38756361                0.48065686                4.20878870
              25.83035714                7.00917231               93.02638230                0.00010000               -0.18573450                1.31601235                0.04491845                0.58769116                0.54816354                1.37561229
              26.82867489                6.46021163               92.62952494                0.00010000               -0.14300836               -0.03728752                0.01026153               -0.17240062                0.62548793               -4.27352202
              27.82749698                5.91172528               92.23332037                0.00010000               -0.08748759               -1.98443947               -0.03829904               -0.46621184                0.65096314              -12.28718312
              28.82692514                5.36341613               91.83700136                0.00010000               -0.02853109               -4.59908319               -0.09764919                0.35674424                0.58064577              -22.01625967
              29.82692635                4.81509580               91.43963191                0.00010000                0.02202424               -7.95086382               -0.16534511                3.47153515                0.37952022              -32.19283251
              30.82736563                4.26674033               91.03971641                0.36061543                0.04392722              -14.11892104               -0.19626818               11.01370531                0.22459004              -40.64224077
              21.39440997               10.77302054               94.88706842                1.00000000               -0.04793826                0.12123312                0.03899718                0.02441384                0.01165543                0.64360278
              22.39393058               10.21652658               94.48069666                0.97344197               -0.00694662               -0.00283638                0.02797240                0.03860778                0.00327808                0.03991824
              23.39427103                9.65983535               94.07428858                0.00010000                1.28515086               -0.14270389                0.00278492                2.24310959                4.69823775               -0.64310091
              24.41963360                9.14647829               93.76171014                0.00010000                0.79939577                2.30474319                3.97986860                4.90281933                8.20985635                8.00770889
              25.41025895                8.59874186               93.37359575                0.00010000               -1.42090704                2.67862893                5.13555907                2.76065240                2.59363610                8.61121714
              26.39121546                8.03509077               92.92085602                0.00010000               -1.82873011                1.58613421                4.44518624                0.93143791               -2.33730356                2.90420778
              27.37368435                7.45901419               92.41255728                0.00010000               -1.24602675               -0.55344030                2.36178475               -0.64812930               -6.70084176               -8.17275617
              28.36629492                6.87153504               91.85758525                0.00010000                0.42276528               -3.67569225               -1.15544769               -1.54417290              -10.49788574              -23.77385964
              29.38213965                6.27090637               91.26826031                0.00010000                3.91497900               -7.92881454               -6.41489136               -0.93622327              -12.71867349              -42.88039428
              30.44459450                5.65552365               90.66863658                0.00010000               10.68918281              -13.84548351              -13.35301300                0.45898688              -10.69490401              -63.69144311
              31.59592331                4.98378936               90.10188418                0.36019049               15.13288037              -21.29860483              -20.64337875                5.66628581               -4.57789478              -85.22690852
              21.95197301               11.77422867               94.74826731                1.00000000               -0.02371061                0.10271326                0.00775622                0.02907028               -0.00061546                0.61466725
              22.95173590               11.21637612               94.33863611                0.93300722               -0.00347892               -0.01076616                0.01699591                0.04730097                0.00066027               -0.01400446
              23.95190343               10.65855902               93.92911253                0.00010000                2.10203651               -0.11083136                0.02577794                2.79183445                7.18429577               -0.64140517
              24.99377663               10.15589745               93.66309177                0.00010000                2.35433595                0.10152777                6.27104711                5.21985126               12.56501854                5.79785607
              25.99899015                9.61248654               93.27539009                0.00010000               -0.25315310                0.14105309                8.11992949                3.40580632                4.28268058                5.91804743
              26.98871357                9.04089500               92.77438158                0.00010000               -0.98610556               -0.42630833                6.77134293                2.37333119               -3.39519208                0.68050980
              27.97926804                8.44914282               92.17481733                0.00010000               -0.19961203               -1.44378592                2.95631850                1.73227109              -10.13498955               -8.95706978
              28.98472133                7.83821144               91.49361487                0.00010000                2.24720143               -2.93291040               -3.34123742                1.21835991              -15.62471726              -22.32360129
              30.02421207                7.20483984               90.75538906                0.00010000                6.92508880               -5.04661154              -12.49689312                0.53882301              -18.11896606              -38.77550069
              31.12322311                6.53818613               90.00355019                0.00010000               12.99739259               -7.88813984              -24.32797343               -0.21869087              -13.54306610              -57.76513647
              32.28415992                5.84076823               89.31636301                0.36105134               16.09368120               -8.91536396              -36.78566441               -0.49726834               -6.27545286              -78.15883191
              22.51069647               12.77507481               94.60909696                1.00000000               -0.01502220                0.06845226               -0.01176107                0.02805269               -0.00232258                0.58399685
              23.51054625               12.21631125               94.19630261                0.91646033               -0.00550430               -0.00453454                0.01797217                0.04020872               -0.00457455               -0.03543145
              24.51058639               11.65761873               93.78352784                0.00010000                2.97784265               -0.07557176                0.05167041                2.51039155                8.77209313               -0.65758078
              25.57010311               11.14850884               93.54618513                0.00010000                4.13955731               -1.38080156                7.70632165                4.79713404               15.46380423                4.00502531
              26.59337753               10.60156292               93.15180219                0.00010000                1.59613497               -2.05556659                9.82182428                3.32150944                5.47162208                3.61014032
              27.60202580               10.02656460               92.60903535                0.00010000                0.88178959               -2.28309637                7.82932796                2.76851214               -3.62504096               -0.98273853
              28.61101333                9.43013847               91.93591727                0.00010000                1.64696485               -2.23082225                2.59027853                2.51090440              -11.49007323               -9.07171658
              29.63496510                8.81287683               91.15558479                0.00010000                4.09640452               -2.00960958               -5.87491132                1.91722523              -17.64360835              -20.20692057
              30.69294142                8.16997414               90.30161097                0.00010000                8.46635982               -1.67578762              -17.96657589                0.68698894              -20.03245473              -34.15076826
              31.80429230                7.49776085               89.43091639                0.00010000               14.39361634               -0.78954741              -33.45760918               -0.72145343              -14.72277367              -50.63163125
              32.98081374                6.80548208               88.63414922                0.36093139               17.65214456                0.91695945              -50.45120855               -0.48088042               -6.89400892              -69.13129332
              23.07006117               13.77559772               94.46969756                1.00000000               -0.00650154                0.03960953               -0.02448672                0.02106761               -0.00105877                0.55758831
              24.06999615               13.21628543               94.05380804                0.90150943               -0.00737493               -0.00199598                0.02070774                0.03233537               -0.00172307               -0.04978668
              25.06991367               12.65704759               93.63794666                0.00010000                3.78894845               -0.04395305                0.07073379                1.55001355                9.87941458               -0.65095260
              26.14577512               12.12828142               93.41959673                0.00010000                5.87254527               -2.53268918                8.59249727                3.13381076               17.54866574                2.25880315
              27.18736458               11.57137521               93.01756812                0.00010000                3.48665695               -3.77857167               10.78926220                2.43591316                6.45336348                1.47698146
              28.21550826               10.99523307               92.44116888                0.00010000                2.79046603               -3.77455440                8.25107610                2.47687862               -3.46342810               -2.32547225
              29.24317390               10.40452638               91.71096059                0.00010000                3.38609479               -2.73641309                1.91361696                2.54129934              -11.92245545               -8.70299655
              30.28323016                9.79801925               90.85434367                0.00010000                5.49469632               -0.89585656               -8.19711239                2.01355727              -18.42924817              -17.47013919
              31.35306782                9.17132409               89.91124915                0.00010000                9.50279707                1.69152057              -22.49480305                0.78922468              -20.91094238              -28.54595644
              32.47328610                8.52239519               88.94613072                0.00010000               15.30160130                5.06780577              -40.80473263               -0.38603222              -15.33094679              -41.80039322
              33.65909985                7.85910742               88.05841772                0.36134312               18.58137498                8.95012734              -61.28918174               -0.37483537               -7.26614939              -56.64816826
              23.62974240               14.77586700               94.33008746                1.00000000                0.00006885                0.02025567               -0.03578676                0.01341381                0.00226196                0.52603328
              24.62974309               14.21627133               93.91119570                0.87113720               -0.00758679               -0.00128189                0.02109039                0.02273084                0.00535387               -0.06206838
              25.62959067               13.65673967               93.49239438                0.00010000                4.43543036               -0.02446355                0.08535080                0.05469837               10.81463614               -0.64832592
              26.71845170               13.09785506               93.28961179                0.00010000                7.27767438               -3.48515993                9.15793585                0.54819228               19.35064590                0.61861884
              27.77514415               12.52599148               92.88369595                0.00010000                4.99802573               -5.18451280               11.41992050                0.97710617                7.52080103               -0.43353481
              28.81841221               11.95107351               92.28398874                0.00010000                4.19544913               -4.89498193                8.52993890                1.93161218               -2.99249476               -3.28645275
              29.85905314               11.37541021               91.51251354                0.00010000                4.50131608               -2.94500747                1.43528322                2.42260044              -11.96472181               -7.81595675
              30.90843853               10.79495970               90.59965309                0.00010000                6.26484179                0.22903936               -9.84858331                2.08694097              -18.88122366              -14.04037584
              31.98434997               10.20380455               89.59007360                0.00010000               10.01748950                4.44254403              -25.74447197                1.09848791              -21.56417588              -21.96412395
              33.10878832                9.59911696               88.55417476                0.00010000               15.77712964                9.56471050              -46.08850873                0.08383572              -15.85032875              -31.36443875
              34.29989256                8.98448463               87.59835405                0.36125576               19.11042411               15.15900005              -69.01553390               -0.12622942               -7.58810000              -41.66812180
              24.18952078               15.77600283               94.19020332                1.00000000                0.00573264                0.01361156               -0.04923243                0.00515067                0.01034213                0.47896994
              25.18957810               15.21625979               93.76846127                0.85698832               -0.00484305               -0.00044472                0.01457125                0.01229165                0.00888713               -0.07910510
              26.18942391               14.65655832               93.34671330                0.00010000                4.89545256               -0.01796216                0.08803612               -1.89738532               11.91355891               -0.57898010
              27.28748715               14.05857822               93.16297679                0.00010000                8.21321652               -4.52484343                9.63237725               -2.69805866               21.48989768               -0.68835377
              28.35368824               13.46768495               92.76125495                0.00010000                5.86173160               -6.54643169               12.09485955               -0.40703754                9.03612595               -1.77908053
              29.40472178               12.89733343               92.15022062                0.00010000                4.70257386               -5.62645427                9.11193278                1.48258873               -2.14185541               -3.60968041
              30.44773972               12.34562623               91.35202369                0.00010000                4.59264224               -2.89874437                1.58370028                2.28341172              -11.91234962               -6.22415257
              31.49657463               11.80260003               90.40004433                0.00010000                6.15702964                1.18550595              -10.45868643                2.06920536              -19.47061927               -9.93078534
              32.57088031               11.26017497               89.34334574                0.00010000                9.88540564                6.41398197              -27.41889237                1.29858057              -22.43974445              -14.72941126
              33.69428274               10.71368940               88.25866000                0.00010000               15.74798123               12.60762373              -49.09085334                0.45600799              -16.50147596              -20.22966378
              34.88583994               10.16228742               87.25914935                0.36147253               19.15571971               19.40766858              -73.55098457                0.02734148               -8.00048955              -25.63137027
              24.74933149               16.77613923               94.04981808                1.00000000                0.01019453                0.01693127               -0.06436371               -0.00063923                0.03508940                0.36297164
              25.74943344               16.21626244               93.62549928                0.68796665               -0.00034829                0.00180838               -0.00207281                0.00360740                0.09259944               -0.10929880
              26.74932453               15.65638042               93.20236091                0.00010000                5.19652241               -0.01914310                0.07728513               -4.44649928               13.68647016               -0.46692959
              27.85336388               15.00735819               93.04981333                0.00010000                8.94618357               -6.82082274               10.37401233               -4.35166508               24.74743500               -0.80840550
              28.92824820               14.39506285               92.66606928                0.00010000                5.83794143               -7.44526200               13.38294270               -0.95770611               11.65227921               -2.08461141
              29.97012271               13.83854443               92.05415703                0.00010000                3.56032845               -5.87231285               10.51178317                1.11152039               -1.09349936               -2.71065282
              30.99945477               13.31743532               91.24089687                0.00010000                3.25755912               -2.69586733                2.79237619                1.64315223              -12.24826357               -3.66547352
              32.03527390               12.81866982               90.26256599                0.00010000                4.98887272                1.80309909               -9.69967632                1.46491550              -20.84418771               -5.21083772
              33.09923222               12.33208419               89.17267119                0.00010000                9.02610679                7.49176172              -27.31482696                0.95703761              -24.25825522               -7.32356781
              34.21579603               11.85126944               88.05536235                0.00010000               15.20055594               14.16928220              -49.76738614                0.42040749              -17.78523643               -9.64525233
              35.40324334               11.37263800               87.03593380                0.36149862               18.74473076               21.67108445              -74.98130287               -0.06490190               -8.77739662              -10.80487159
              25.30926157               17.77634146               93.90775948                1.00000000                0.01474832                0.02022278               -0.07634378               -0.01154173                0.17864591                0.27266868
              26.30940905               17.21629596               93.48213457                0.78487804                0.00683037                0.00335213               -0.01944298               -0.01073837                0.28897917               -0.12766727
              27.30939818               16.65617545               93.05875512                0.36012308                7.61811857               -0.02049696                0.06667836               -8.69934422               17.57243457               -0.42595790
              28.46177142               15.92216177               92.97859784                0.36063475                9.69748527               -8.51964184               12.52767881               -6.02903294               32.77200063               -3.55987110
              29.50334788               15.31877971               92.62017053                0.36106184                2.14041497               -7.62831349               16.20089445                0.39623876               15.04727887               -3.88108753
              30.50457972               14.77988717               92.01385675                0.36066371               -0.14352530               -5.86572550               13.46100473                2.09215942               -0.78331772               -3.68467626
              31.50047738               14.29170888               91.19060904                0.36056019                0.33221698               -2.57264369                5.56173061                3.04100328              -14.07163361               -3.50897797
              32.51122406               13.83866202               90.19217928                0.36015459                2.84720332                1.99921987               -7.25002188                3.51008309              -24.01948158               -3.53782375
              33.55742144               13.41001021               89.07601278                0.35981799                7.54565116                7.79260128              -25.28448615                3.73957356              -28.26178512               -3.64924809
              34.66213709               12.99707504               87.92992848                0.36074885               14.21916706               14.58055999              -48.26527435                3.91905087              -21.45135043               -3.58581098
              35.84180478               12.59570911               86.89749012                0.68084181               17.96676977               22.30711139              -73.83486544                3.71955180              -11.91205352               -1.54255527
              20.12810019                7.91610415               96.30718319                1.00000000               -0.02112923               -0.01028763                0.14371243               -0.03900463               -0.30863424                0.31859949
              21.12788889                7.35889444               95.90557145                1.00000000                0.00855474               -0.03277542                0.10652127               -0.05007382               -0.39673585                0.04647995
              22.12827128                6.80206941               95.50205667                0.97853287                0.05082352               -0.06627667                0.09741090               -0.02152905               -0.43802522               -0.04891211
              23.12890536                6.24675106               95.09921023                0.78183386                0.08436038               -0.04138899                0.08380754                0.07779294               -0.41080822               -0.13586778
              24.12995849                5.69367576               94.69575428                0.76745868                0.06761372               -0.02117568                0.10086422                0.05814276               -0.32784361               -0.06724830
              25.13025764                5.14187291               94.29390010                0.74888930                0.01024637               -0.00085359                0.07404315                0.04624953               -0.14916999               -0.05406060
              26.13016342                4.59106679               93.89335583                0.73095661               -0.01833529                0.02050398                0.02926843                0.04912005               -0.00566299               -0.04716688
              27.12989093                4.04101122               93.49386401                0.72529508               -0.01734246                0.03554588               -0.03227599                0.05486070                0.07187592               -0.04232748
              28.12981657                3.49139703               93.09463711                0.77234518                0.01201300                0.04146925               -0.10802150                0.04187177                0.03533984               -0.04469864
              29.13013119                2.94198868               92.69449830                0.85301207                0.03872640                0.03996551               -0.15435135                0.01672045               -0.03334284               -0.04373105
              30.13059109                2.39267217               92.29399132                0.98822122                0.04599019                0.03499972               -0.17774843                0.00338107               -0.04035761               -0.12896494
              20.68491985                8.91600127               96.16557253                1.00000000               -0.05143290                0.03411938                0.12761777               -0.04342445               -0.05347008                0.44709577
              21.68440553                8.35856668               95.76389412                1.00000000               -0.03960881               -0.01654823                0.08799496               -0.05945331               -0.06385481                0.06685211
              22.68412768                7.80140665               95.36200923                1.00000000               -0.02627025               -0.06399834                0.07254976               -0.00280411               -0.04433041               -0.12842166
              23.68388012                7.24633717               94.96062277                1.00000000               -0.05743424                0.01012760                0.06630186                0.04984741                0.02511068               -0.09019948
              24.68297899                6.69346400               94.55996583                1.00000000               -0.09277519                0.01622911                0.06220930                0.05085435                0.10965694               -0.04699540
              25.68202462                6.14186437               94.16012780                1.00000000               -0.09467659                0.02906096                0.03207385                0.04406496                0.20913315               -0.03930976
              26.68108546                5.59127183               93.76129624                1.00000000               -0.08750959                0.04054298               -0.00190842                0.04665260                0.29859604               -0.03575090
              27.68027442                5.04136668               93.36327445                1.00000000               -0.06694537                0.04493912               -0.03492190                0.04894341                0.32585689               -0.03319827
              28.67974655                4.49181172               92.96530215                1.00000000               -0.03068008                0.04372419               -0.08000981                0.03709406                0.26415743               -0.03556941
              29.67966082                3.94238833               92.56634510                1.00000000                0.00974275                0.03869347               -0.11669692                0.01693667                0.13522046               -0.03664386
              30.67994141                3.39302217               92.16598676                0.97115804                0.02805862                0.03117019               -0.13663796                0.00477355                0.05928252               -0.11408597
              21.24210088                9.91678654               96.02643315                1.00000000               -0.08064246                0.10550805                0.08981381               -0.02008255               -0.00421384                0.59510171
              22.24129446                9.35856347               95.62257730                1.00000000               -0.08280860                0.00619918                0.06037563                0.00175078                0.06968135                0.07563235
              23.24044471                8.80078945               95.22034090                0.00010000               -0.17247507               -0.12077073                0.04081424                0.25413462                0.38345216               -0.43078143
              24.23784496                8.24695361               94.82288845                0.00010000               -0.24981669                3.22890590                0.03133131                3.40701109                0.55268859                6.01550397
              25.23544838                7.69400034               94.42447659                0.00010000               -0.22569248                3.54372522                0.01643179                4.07977165                0.51278796                7.05143362
              26.23333111                7.14245413               94.02654016                0.00010000               -0.19271062                2.65073276               -0.00845988                4.12412021                0.56199753                3.86020749
              27.23159416                6.59187765               93.62938336                0.00010000               -0.15005941                0.87377982               -0.03012223                3.98815339                0.61191397               -2.83193272
              28.23032992                6.04191000               93.23286194                0.00010000               -0.10286863               -1.73263757               -0.04126167                3.94153408                0.59818457              -12.64073048
              29.22953679                5.49227151               92.83619614                0.00010000               -0.05352225               -5.40470914               -0.05936187                4.74921096                0.49986994              -25.20097656
              30.22925947                4.94276255               92.43834872                0.00010000               -0.00589509              -10.49885917               -0.09219104                8.26157311                0.30697051              -39.33664373
              31.22941889                4.39329558               92.03825933                0.35903406                0.01594164              -21.03613738               -0.10738614               18.31138612                0.17676988              -52.15029906
              21.80096434               10.91811144               95.88754805                1.00000000               -0.05267020                0.12899446                0.05183396                0.03110420                0.01187171                0.60794969
              22.80043763               10.35869067               95.48099249                1.00000000               -0.00720535               -0.00175986                0.03093438                0.04410960                0.00071198                0.03507082
              23.80082023                9.79899123               95.07428893                0.00010000                2.91859058               -0.15408712                0.00281412                3.66402569                6.92498027               -0.61934905
              24.85880945                9.31091529               94.80613194                0.00010000                3.41268420                4.01906985                4.84174512                9.24590592               12.76020557               12.56207077
              25.86907391                8.76433851               94.43031564                0.00010000                0.39101311                4.77499727                5.92962206                7.88232076                6.11804833               14.22157260
              26.86662971                8.19487903               93.97033646                0.00010000               -0.38406283                3.38703240                5.09116418                7.54690747                1.23435141                7.73836409
              27.86139266                7.60874743               93.44101668                0.00010000               -0.39592283                0.58766062                3.16141377                7.16795898               -3.12101471               -5.36109335
              28.85871125                7.00671392               92.84992543                0.00010000                0.62427847               -3.58860276               -0.17601725                6.67913078               -7.96897385              -24.34578162
              29.87387823                6.38371753               92.20365726                0.00010000                4.25784825               -9.56569328               -6.02769964                6.82789268              -12.55206109              -48.81032689
              30.94386822                5.73241115               91.52448047                0.00010000               13.56124223              -18.59459222              -15.25264929                5.96828754              -12.66203121              -77.46787740
              32.14510307                4.97229942               90.86987055                0.35897211               20.12348541              -31.43594143              -26.48260635               10.73235676               -5.95290430             -110.75672241
              22.36156450               11.91936643               95.74843886                1.00000000               -0.02676508                0.10480033                0.02250649                0.03507277               -0.00005519                0.58857747
              23.36129685               11.35852827               95.33881017                0.96822933               -0.00319524               -0.01181681                0.01747291                0.05361032                0.00279551               -0.00443449
              24.36150060               10.79770770               94.92927128                0.00010000                4.80594721               -0.11080027                0.00883158                4.56198136               10.66051437               -0.59077595
              25.45741580               10.32733501               94.73271923                0.00010000                7.38152272                0.20939943                7.46872526                9.40753865               19.85110454                9.13068262
              26.50913105                9.78950029               94.36452469                0.00010000                4.12222669                0.41516324                9.15168699                8.07884254               10.53577074               10.01200460
              27.53986033                9.21019477               93.84917679                0.00010000                2.69936955               -0.28234012                7.49584420                8.46636182                3.23516933                4.02448829
              28.56311845                8.60363087               93.21062521                0.00010000                2.45410488               -1.61462140                3.79254329                9.20969994               -3.21173488               -7.34761512
              29.58894243                7.97013794               92.46416173                0.00010000                3.86394872               -3.64511884               -2.40685507                9.34412753               -9.96319674              -23.51388991
              30.64039742                7.30095764               91.62665722                0.00010000                8.55504528               -6.70232549              -12.68401251                7.93967223              -15.49794250              -44.30565931
              31.76004333                6.57087070               90.73966126                0.00010000               16.19460285              -11.12572535              -28.20083209                4.44399533              -13.55831416              -70.10797884
              32.96428948                5.76457675               89.90284244                0.35954654               20.42461416              -12.84687046              -47.04141173                1.58298908               -6.60822279             -101.14087326
              22.92334210               12.92020744               95.60907119                1.00000000               -0.01735319                0.06634227                0.00315474                0.03359448                0.00105946                0.56720180
              23.92316857               12.35845433               95.19648135                0.93588425               -0.00444883               -0.00575573                0.01708484                0.04676059                0.00232931               -0.02066228
              24.92325312               11.79677523               94.78394519                0.00010000                6.59995346               -0.07406340                0.03318807                4.03868721               12.99765035               -0.61039278
              26.05516763               11.31510328               94.63116332                0.00010000               11.22689395               -2.27187157                8.97583374                8.34652538               24.47262095                6.30705590
              27.14779100               10.77264177               94.25873777                0.00010000                8.33293651               -3.30081685               10.78216391                7.15884365               13.50179426                6.36486887
              28.22182636               10.18923222               93.69457887                0.00010000                6.89262429               -3.63058018                8.33543826                7.80091434                5.16904990                1.15911371
              29.28564349                9.57645500               92.96746544                0.00010000                6.32203300               -3.59668375                3.10683001                8.75060360               -2.06163935               -8.30103290
              30.34826702                8.93381155               92.09896236                0.00010000                7.31477133               -3.39308824               -5.42798133                8.60153353               -9.37789101              -21.65691124
              31.43193891                8.24967103               91.11393482                0.00010000               11.04309962               -3.10375135              -19.05401857                6.45782465              -14.99007488              -39.12825583
              32.56912902                7.50989664               90.06711398                0.00010000               17.87059236               -1.93092852              -39.06925895                2.48158385              -13.10538872              -61.20683258
              33.78935076                6.71536201               89.06749003                0.35974481               22.02217420                1.11355719              -64.12359422                1.02609223               -6.36041030              -88.41803066
              23.48574262               13.92069327               95.46954385                1.00000000               -0.00783364                0.03458682               -0.00963637                0.02524108                0.00332211                0.54623963
              24.48566428               13.35841316               95.05400993                0.90657692               -0.00586117               -0.00335591                0.01936690                0.03816327                0.00649062               -0.03690821
              25.48562540               12.79622643               94.63854894                0.00010000                8.14077385               -0.04031481                0.05242405                2.42577676               14.54434297               -0.61290197
              26.64847976               12.28189758               94.51367745                0.00010000               14.62767929               -4.14609909                9.80091792                5.35416980               27.59417770                3.59442269
              27.77817898               11.72348395               94.13407542                0.00010000               12.17928140               -6.18985500               11.56661433                5.11270171               15.58215158                3.02694352
              28.89206539               11.13758317               93.53032910                0.00010000               10.76861062               -6.34923366                8.48260002                6.25746792                6.70107709               -1.20997404
              29.99355119               10.53169719               92.73452889                0.00010000                9.78458451               -5.07274333                2.07226879                7.30272146               -0.88133995               -8.54966621
              31.08775708                9.90227618               91.77229997                0.00010000                9.99588120               -2.73508023               -8.25572082                6.99558818               -8.47441557              -18.96180757
              32.19346882                9.23888262               90.67437031                0.00010000               12.81134728                0.66515080              -24.38344496                4.86799645              -14.38542946              -32.72694987
              33.34398402                8.53225213               89.50195445                0.00010000               19.02058799                5.44312376              -47.76014535                1.77917624              -12.81907470              -50.24091321
              34.57388058                7.78684789               88.37154228                0.35985292               22.98965546               11.64492277              -77.21466553                0.62227352               -6.31850463              -71.34017201
              24.04840714               14.92089918               95.32981914                1.00000000               -0.00084754                0.01347216               -0.02103100                0.01580831                0.00795500                0.51627340
              25.04839867               14.35838721               94.91139802                0.85615917               -0.00614538               -0.00191456                0.01941092                0.02688351                0.01638999               -0.05552979
              26.04828424               13.79596893               94.49315138                0.00010000                9.32974232               -0.01830315                0.06890759               -0.04062975               15.74382196               -0.62241806
              27.23499352               13.23218130               94.38919690                0.00010000               17.30376025               -5.71242678               10.25790530                0.96591394               30.04475531                1.08485841
              28.39435944               12.64884467               94.00609437                0.00010000               15.18844830               -8.56822911               12.01380205                2.31839780               17.38221349                0.03441892
              29.53876248               12.06224755               93.37527166                0.00010000               13.63227321               -8.43744291                8.54393831                4.56722599                8.06704863               -3.05217415
              30.66700491               11.47500014               92.53028666                0.00010000               12.11154410               -5.97904453                1.33980824                5.92222488                0.06911982               -8.13637474
              31.78099336               10.87910994               91.49944797                0.00010000               11.61589912               -1.87595755              -10.24832274                5.67930801               -7.96862085              -15.42745526
              32.89932289               10.26297404               90.31791446                0.00010000               13.78769510                3.72952993              -28.15506500                3.94603167              -14.28324934              -25.19239043
              34.05674727                9.61875912               89.05250359                0.00010000               19.66409100               10.89006727              -53.88300145                1.56337122              -12.95973607              -37.47997316
              35.29260471                8.94826047               87.82678461                0.35988176               23.58574431               19.24388279              -86.24131209                0.56413795               -6.48990964              -51.85654651
              24.61108272               15.92096272               95.18979897                1.00000000                0.00494833                0.00682370               -0.03448022                0.00581702                0.01586147                0.46988682
              25.61113220               15.35837487               94.76858956                0.82204094               -0.00320015                0.00004893                0.01143916                0.01437122                0.02116263               -0.08257424
              26.61101872               14.79586037               94.34749342                0.00010000               10.18950468               -0.01088306                0.07221371               -3.26394851               17.06305123               -0.56990970
              27.81492230               14.16764904               94.26703660                0.00010000               19.17309836               -7.49152828               10.62606972               -4.46122266               32.73917862               -0.96216680
              28.99448068               13.55211937               93.89006044                0.00010000               17.11660735              -10.89005148               12.55899222               -0.19838138               19.55615661               -2.17247260
              30.15725444               12.96883431               93.24700576                0.00010000               15.03263081               -9.82970701                9.01527116                3.26790884                9.63674421               -4.04525783
              31.29513330               12.41211630               92.37088415                0.00010000               12.80574450               -6.32584848                1.38412737                4.81988548                0.77301151               -6.82699511
              32.41336933               11.86475703               91.29306233                0.00010000               11.88034887               -1.03395547              -10.99111052                4.60150545               -8.02579798              -11.07958586
              33.53274028               11.31347322               90.05318082                0.00010000               13.82978431                5.89941465              -30.04286139                3.27763101              -14.78890846              -16.93892951
              34.68996502               10.75005348               88.72471017                0.00010000               19.67101781               14.44358949              -57.25145383                1.51175650              -13.44039427              -24.09267242
              35.92616063               10.17172555               87.43846456                0.35988013               23.61956139               24.23948586              -91.37949510                0.50911335               -6.83418224              -31.76101232
              25.17369918               16.92103565               95.04926639                1.00000000                0.00892589                0.01071014               -0.04800464               -0.00058312                0.03461336                0.35753358
              26.17378844               16.35838819               94.62544745                0.64971230                0.00159566                0.00302600               -0.00742504                0.00384988                0.10336932               -0.11834241
              27.17373109               15.79575127               94.20302741                0.00010000               10.78608141               -0.01508858                0.06051401               -7.52303837               19.21203773               -0.46714473
              28.38951007               15.08235073               94.16127268                0.00010000               20.77377262              -11.37715386               11.31353604               -7.29142983               36.80524178               -1.29258170
              29.58920654               14.43104364               93.80804489                0.00010000               17.73068294              -12.35591993               13.84675835               -1.30617716               23.06846908               -2.85850039
              30.74412373               13.86565341               93.16537730                0.00010000               13.91366776              -10.29976578               10.45024403                2.23821336               11.29047105               -3.31139380
              31.86747990               13.34848317               92.27236823                0.00010000               11.37714165               -6.20360198                2.65768545                3.15853722                0.81764415               -4.19079630
              32.97166656               12.85843083               91.16371243                0.00010000               10.60495797               -0.41030853              -10.13665902                2.91449445               -9.18729295               -5.91190899
              34.07957906               12.38096233               89.88399714                0.00010000               12.85317518                7.07363198              -29.82436323                2.08263915              -16.51408941               -8.47412214
              35.22873006               11.90763091               88.51478882                0.00010000               18.99318872               16.19256703              -57.82605898                1.04891455              -14.67758193              -11.48294624
              36.45944283               11.43305019               87.20040837                0.35995109               23.07127721               26.87249740              -92.81815137                0.17635147               -7.58430600              -13.44626879
              25.73636598               17.92117692               94.90710274                1.00000000                0.01276035                0.01412665               -0.05595855               -0.00747285                0.17187108                0.27061549
              26.73649358               17.35843539               94.48191021                0.76611485                0.01147135                0.00471988               -0.02332156               -0.01040134                0.30004228               -0.13746629
              27.73659541               16.79555860               94.05932511                0.35995680               14.86538703               -0.01926679                0.05369057              -14.63003961               24.28525398               -0.43308780
              29.03380132               15.94010597               94.11353951                0.36097482               22.42295261              -14.22447646               13.81671750              -10.09875570               47.29851465               -5.18208923
              30.18505446               15.30500097               93.79246017                0.36055257               12.53889303              -12.60426730               16.99934720                0.72144307               27.29474094               -5.37445614
              31.28457919               14.76283900               93.15651334                0.36042649                9.02360803              -10.28144132               13.67057610                3.19771061               11.67898021               -4.88379738
              32.36552662               14.28804426               92.25163463                0.36004898                7.73004343               -6.04389055                5.69370461                4.49026507               -1.18086406               -4.52746771
              33.43918005               13.85655086               91.11988133                0.35955914                7.98331826               -0.18799757               -7.33227274                5.09642926              -12.60976289               -4.56903687
              34.52519299               13.45494585               89.81001155                0.35935896               10.98377016                7.39835204              -27.29613545                5.42909064              -20.89785762               -4.78343334
              35.65885546               13.07390482               88.40683898                0.35889495               17.68280590               16.62739109              -55.72958285                5.72402166              -18.82165694               -4.79546791
              36.87884910               12.70917550               87.07568262                0.67989571               21.99936463               27.61253098              -91.09944978                5.46769481              -11.23797568               -2.43996255
              20.52703250                8.06084793               97.30857942                1.00000000               -0.01109360               -0.00305955                0.12614471               -0.04144019               -0.26651107                0.29064091
              21.52692157                7.50109880               96.90655604                1.00000000                0.02520580               -0.02964684                0.08523420               -0.05697495               -0.33709863                0.04000595
              22.52753662                6.94181036               96.50288330                1.00000000                0.07268655               -0.06512904                0.07364130               -0.03136715               -0.36406344               -0.03485786
              23.52837530                6.38426261               96.09989149                0.83082144                0.10283012               -0.03903491                0.05877163                0.06852308               -0.32489952               -0.09600599
              24.52959322                5.82903604               95.69662432                0.77929093                0.08686467               -0.01412258                0.07693397                0.04876848               -0.27293809               -0.05465349
              25.53011259                5.27529340               95.29453185                0.73053822                0.02947207                0.00508676                0.06143006                0.03646874               -0.13811859               -0.05502897
              26.53018266                4.72276747               94.89362269                0.68787078               -0.00721915                0.02499123                0.03554738                0.02805447               -0.02186134               -0.04821325
              27.52996821                4.17119862               94.49358001                0.65774734               -0.02080105                0.03633196               -0.00878090                0.00940133                0.02405818               -0.02616834
              28.52976664                3.62022212               94.09359815                0.67434186                0.00125825                0.03954938               -0.08930777               -0.00346809               -0.03311482               -0.01947433
              29.52999337                3.06948696               93.69275998                0.72106694                0.04606913                0.04706661               -0.20086801               -0.00702328               -0.09418478               -0.04675690
              30.53068802                2.51905281               93.29184909                0.90300030                0.06946510                0.05652363               -0.30483031               -0.02815821               -0.07286254               -0.18704581
              21.08636723                9.06081734               97.16684241                1.00000000               -0.04966327                0.04412953                0.11883198               -0.04691391               -0.03565840                0.41258639
              22.08587060                8.50080233               96.76472527                1.00000000               -0.03630958               -0.01258392                0.07566337               -0.06576945               -0.03103861                0.05787286
              23.08564104                7.94115907               96.36263745                1.00000000               -0.02114550               -0.06462926                0.05565322               -0.00579268                0.00548477               -0.11948716
              24.08544769                7.38387226               95.96115637                1.00000000               -0.05377676                0.01704468                0.04445552                0.04526345                0.07689022               -0.06155909
              25.08456551                6.82889481               95.56042417                1.00000000               -0.09180657                0.02783953                0.03330323                0.04362150                0.14580748               -0.03462781
              26.08361156                6.27534427               95.16026926                0.96980588               -0.10274543                0.04372006                0.00057245                0.03501537                0.22630843               -0.03975021
              27.08251060                5.72301738               94.76118383                0.89784886               -0.11383323                0.05425299               -0.01037521                0.03131995                0.29906100               -0.03682687
              28.08133489                5.17156194               94.36297858                0.84783878               -0.09614044                0.05305411               -0.02502385                0.01399545                0.30476506               -0.02143277
              29.08058779                4.62061762               93.96468768                0.83194980               -0.04135503                0.04096840               -0.05577563                0.00324010                0.23122826               -0.01918839
              30.08050779                4.06995762               93.56534145                0.77464994                0.01263984                0.03703002               -0.10149308                0.00048197                0.12236754               -0.03988816
              31.08084059                3.51961805               93.16472346                0.82685977                0.03327921                0.03988711               -0.16483428               -0.01436835                0.07627576               -0.15015466
              21.64612424               10.06173052               97.02735217                1.00000000               -0.08597958                0.11782472                0.08770582               -0.01877623                0.00553995                0.55183344
              22.64526444                9.50084712               96.62316647                1.00000000               -0.08867002                0.00963943                0.05606272                0.00603001                0.08701802                0.06155159
              23.64435084                8.94051778               96.22068938                0.00010000               -0.18598068               -0.13205369                0.03211673                0.28732658                0.40974177               -0.42799945
              24.64154483                8.38460350               95.82307975                0.00010000               -0.26785996                5.20083318                0.01224964                6.12191788                0.58297720                8.65773537
              25.63899364                7.82959283               95.42445504                0.00010000               -0.24272521                5.71151979               -0.01460438                8.77070980                0.54050757               10.17551563
              26.63669032                7.27616780               95.02621310                0.00010000               -0.22011223                4.59385730               -0.05542359               10.79247992                0.59730004                6.51900574
              27.63459139                6.72385253               94.62892250                0.00010000               -0.20212199                2.37665409               -0.04830359               12.26281914                0.63603172               -1.04805152
              28.63264788                6.17225970               94.23249514                0.00010000               -0.15778185               -0.91211655               -0.03964077               13.00644654                0.60900433              -12.39698589
              29.63143576                5.62104149               93.83581412                0.00010000               -0.08226523               -5.81894270               -0.03476263               13.69617272                0.49833525              -27.97951906
              30.63100258                5.07022756               93.43778809                0.00010000               -0.01779747              -13.25520337               -0.05198656               17.17209287                0.31844893              -47.38394670
              31.63107981                4.51985056               93.03756868                0.35814966                0.00772276              -30.77731226               -0.10337896               30.22452335                0.22937220              -67.05741349
              22.20775851               11.06317383               96.88810510                1.00000000               -0.05545680                0.13732812                0.05431337                0.03738091                0.01398396                0.57065727
              23.20720395               10.50099512               96.48131535                1.00000000               -0.00636604               -0.00242739                0.03293650                0.05195603                0.00312345                0.02488126
              24.20763119                9.93851800               96.07434486                0.00010000                5.58035264               -0.17152692                0.00928366                5.68738109                9.55731161               -0.60588037
              25.31881100                9.48788892               95.85854505                0.00010000                8.03921028                6.44381130                5.38832366               15.93038439               18.47817319               17.97810718
              26.36841540                8.94312521               95.49218819                0.00010000                4.31952268                7.73558404                5.64306473               16.67934314               11.59234496               20.37217376
              27.40520145                8.36722142               95.02267931                0.00010000                3.16298426                6.04872739                4.39004871               19.90256863                8.44651746               12.89255289
              28.43167508                7.77055047               94.47578555                0.00010000                1.95367069                2.59446097                3.10175093               22.57775970                5.90026711               -1.89343027
              29.44427487                7.15331961               93.85406490                0.00010000                1.24341506               -2.66814983                1.09392712               23.52329022                0.62594356              -23.71894326
              30.45654338                6.50423876               93.14770632                0.00010000                4.04328605              -10.62962001               -4.26360795               22.94259415               -7.69752932              -53.65156728
              31.52514059                5.80485356               92.36358359                0.00010000               16.47708374              -23.84172570              -16.10203471               17.23510331              -13.02701966              -92.23926882
              32.78608506                4.90407180               91.57223205                0.35828278               26.09444729              -44.97596353              -34.25806900               19.64949012               -7.20251364             -143.53617421
              22.77122928               12.06447709               96.74871744                1.00000000               -0.02698857                0.10700115                0.02847130                0.03908965                0.00036603                0.56121740
              23.77095939               11.50079857               96.33898557                1.00000000               -0.00123120               -0.01484344                0.01779664                0.05625208                0.00306194               -0.00331431
              24.77120466               10.93708724               95.92928916                0.00010000                9.22929567               -0.11923957                0.00350934                7.04536936               14.65197677               -0.55870431
              25.95554531               10.51347973               95.81246628                0.00010000               16.10216745                0.29014111                7.91842259               15.65846087               28.97915357               12.88043305
              27.09324800                9.98430451               95.45842383                0.00010000               12.58855642                0.80921811                8.20118850               15.76225504               20.11064667               14.29910775
              28.20731644                9.39714235               94.92429847                0.00010000               10.34001955                0.06865761                5.81254810               19.14574589               15.97567376                7.47730891
              29.30004840                8.77574175               94.25066820                0.00010000                8.10544776               -1.51681670                2.97822536               22.77381567               12.53910715               -5.37362836
              30.36942539                8.11889670               93.44547777                0.00010000                6.93526461               -4.08596186               -1.50314113               24.46851875                5.53200956              -23.93447709
              31.43875369                7.40844909               92.50170881                0.00010000               10.32231063               -8.22714162              -11.38646029               22.14706266               -4.72427457              -49.01363215
              32.57587160                6.59339305               91.43953354                0.00010000               19.34397132              -14.67612743              -30.86159341               13.76854599               -9.26135513              -82.86844199
              33.82563311                5.62033128               90.37553477                0.35838129               24.97615111              -16.78250918              -59.81513894                6.03224266               -5.18943324             -128.77113481
              23.33589733               13.06531385               96.60916005                1.00000000               -0.01784992                0.06487359                0.01107732                0.03674815                0.00445212                0.54754830
              24.33571883               12.50069825               96.19664431                0.96079175               -0.00199531               -0.00839896                0.01456979                0.04904157                0.00841841               -0.01217470
              25.33585743               11.93613321               95.78419160                0.00010000               12.45220571               -0.07519422                0.01623359                6.14609244               17.71533081               -0.57194543
              26.58476295               11.49369174               95.72570180                0.00010000               23.20702238               -3.56717140                9.08927071               13.48816277               35.52046157                8.67878225
              27.79999787               10.95930957               95.36744546                0.00010000               20.59580892               -4.98735135                9.09949621               13.20053895               25.49658329                9.11463759
              28.99667913               10.36859457               94.77574411                0.00010000               18.26995854               -5.34007792                5.79430972               16.13322304               21.24586289                3.37672713
              30.16539704                9.74021413               93.99805387                0.00010000               15.21293877               -5.25149577                1.48502371               19.32668163               17.74278311               -7.14660057
              31.30093790                9.07160037               93.04702516                0.00010000               12.97956262               -5.02996104               -5.30371960               20.19784162               10.41059916              -22.31599762
              32.42498830                8.33969593               91.92053060                0.00010000               14.38457059               -4.78218142              -18.79545999               16.83408514               -0.14157480              -43.12729875
              33.58862931                7.51133101               90.64953121                0.00010000               21.39325681               -3.06028653              -43.43726075                8.62933617               -5.99807020              -71.39340621
              34.85285343                6.56842162               89.35167734                0.35873634               26.42241202                2.63390632              -80.08183379                4.10511036               -3.41094979             -109.50448300
              23.90119545               14.06577456               96.46950483                1.00000000               -0.00745789                0.03117446               -0.00123118                0.02792349                0.00789323                0.53126346
              24.90112087               13.50063059               96.05419538                0.91117044               -0.00312201               -0.00585718                0.01696999                0.04143040                0.01443502               -0.02892876
              25.90113301               12.93558336               95.63899514                0.00010000               15.05056647               -0.03931924                0.03733006                3.61582536               19.61721158               -0.58089932
              27.20213220               12.44213630               95.61561509                0.00010000               29.06114738               -6.37493355                9.53244115                8.53074983               39.63566391                4.83058759
              28.48235596               11.88455748               95.24890041                0.00010000               27.34720656               -9.43073660                9.30092918                9.24601414               28.84305234                4.48861856
              29.74907633               11.29034079               94.61082088                0.00010000               25.06101342               -9.76206013                5.32958205               12.25180605               24.52475368                0.02666848
              30.98357623               10.67071184               93.75240597                0.00010000               21.24120462               -8.19433412               -0.11560195               14.94094325               21.01484177               -7.91857331
              32.17390042               10.01829748               92.68922925                0.00010000               17.60642624               -5.29760672               -8.69933940               15.12970232               13.48746736              -19.56316874
              33.33570475                9.31280546               91.42358026                0.00010000               17.29161058               -0.92748485              -24.83387418               11.72654502                2.33862075              -35.73596531
              34.51973264                8.53218731               89.99092782                0.00010000               22.89246730                5.77153848              -53.19658563                5.61490434               -4.65515670              -57.66996884
              35.79355410                7.67300941               88.51412441                0.35846559               27.38214611               15.60048991              -94.78309884                2.51615503               -2.91818575              -85.88985214
              24.46674373               15.06593734               96.32966684                1.00000000               -0.00050864                0.00893787               -0.01235618                0.01744500                0.01372005                0.50288206
              25.46673864               14.50058111               95.91158392                0.83406040               -0.00377508               -0.00358584                0.01754927                0.02977521                0.02855342               -0.05466489
              26.46666823               13.93534682               95.49377254                0.00010000               16.98325874               -0.01496282                0.05688057               -0.16415744               20.98857024               -0.60167277
              27.80640382               13.36619307               95.49476989                0.00010000               33.50227166               -8.74385958                9.68837001                1.64597595               42.60830738                1.35915967
              29.13671366               12.77069484               95.12397199                0.00010000               32.45785365              -13.11362484                9.34249462                4.48232751               31.37593807                0.38345366
              30.45556089               12.17335337               94.45486750                0.00010000               29.97727791              -13.20090810                5.01399264                8.65946213               26.85940131               -2.67584435
              31.73625922               11.57632745               93.53930970                0.00010000               25.29387149              -10.18535416               -1.16875528               11.29310150               23.04719643               -7.97087216
              32.96143832               10.96564824               92.39468664                0.00010000               20.46850734               -5.07768114              -10.99046530               11.23401775               15.02235884              -15.97353693
              34.14562937               10.32114623               91.02697230                0.00010000               18.96425651                2.12541149              -28.94280814                8.44315439                3.22074467              -27.30869691
              35.34072345                9.62676178               89.47651473                0.00010000               23.79514868               11.86817013              -59.77014906                3.98718352               -4.46254564              -42.45877473
              36.62153234                8.88043142               87.87352781                0.35849816               28.08088887               24.02170011             -104.40768867                1.77163550               -2.98769717              -61.24864552
              25.03225683               16.06595331               96.18951372                1.00000000                0.00500720                0.00243916               -0.02493708                0.00645122                0.02101937                0.45804903
              26.03230690               15.50055888               95.76869005                0.76989482               -0.00094647               -0.00030847                0.00866463                0.01659730                0.03608333               -0.09322925
              27.03223790               14.93528410               95.34815757                0.00010000               18.36984046               -0.00704899                0.06333754               -5.11139728               22.45104534               -0.56845914
              28.39970371               14.26725911               95.37549818                0.00010000               36.63021597              -11.55947156                9.83800419               -6.74758461               45.77143006               -1.49543674
              29.76484222               13.62228498               95.01243479                0.00010000               35.84646276              -16.76008605                9.64398839                0.39314106               34.23493529               -2.71504562
              31.11663296               13.02632263               94.33052604                0.00010000               32.61505861              -15.52721978                5.30747743                6.03838331               29.19697786               -4.35314427
              32.41714339               12.46700475               93.37970623                0.00010000               26.85645173              -11.17292714               -1.25134594                8.58172663               24.42674084               -7.02735830
              33.65376200               11.91674386               92.18022212                0.00010000               21.31554544               -4.60178008              -11.82724645                8.33848720               15.50864939              -11.59487088
              34.84345430               11.35531369               90.74248851                0.00010000               19.32145628                4.23123967              -30.90878093                6.25257648                3.09219136              -18.35552216
              36.04019112               10.76955072               89.11363092                0.00010000               23.90966154               15.63599678              -63.23847651                3.16197191               -4.77499543              -27.13658171
              37.32164753               10.15344341               87.43155944                0.35881185               28.14564053               29.30315707             -109.72011785                1.32855880               -3.25575617              -37.30521680
              25.59766163               17.06598613               96.04885799                1.00000000                0.00781748                0.00638770               -0.03539515                0.00024243                0.03182430                0.35135727
              26.59773981               16.50057494               95.62535078                0.59295044                0.00392110                0.00311243               -0.01096927                0.00501739                0.11727883               -0.13320750
              27.59774005               15.93520584               95.20357119                0.00010000               19.33557175               -0.01829019                0.05062085              -11.71676188               24.92799331               -0.47433365
              28.98445124               15.13500364               95.27608405                0.00010000               39.38864527              -17.66363910               10.37666395              -11.24048873               50.61400842               -2.05628785
              30.38551296               14.43549312               94.94300445                0.00010000               37.35787739              -18.99124772               10.84412857               -1.53840068               38.72803776               -3.79730947
              31.73160879               13.86280897               94.26316191                0.00010000               31.59797825              -16.31917428                6.69418663                3.98638468               31.51590591               -3.83327095
              33.01747252               13.35286891               93.29405058                0.00010000               25.41451686              -11.21890143                0.02407064                5.35761930               24.91248350               -4.47186908
              34.23989913               12.87361263               92.05983281                0.00010000               20.02007583               -4.09001918              -10.90973747                4.98960088               14.67257814               -6.26959358
              35.41787404               12.40577103               90.57618393                0.00010000               18.29670215                5.34995208              -30.53039543                3.74607142                1.62700888               -9.24786928
              36.60583317               11.93948171               88.89884117                0.00010000               23.12220416               17.37573268              -63.58851555                2.02826434               -5.80567217              -12.94640751
              37.88031812               11.46649456               87.17957078                0.35891254               27.44849544               32.14589715             -110.98507515                0.58680737               -3.83482237              -15.84824090
              26.16308405               18.06608107               95.90664030                1.00000000                0.01034760                0.00949420               -0.03768229               -0.00375217                0.16303269                0.26889674
              27.16318753               17.50062113               95.48166813                0.73652000                0.01949505                0.00461880               -0.02134698               -0.01336640                0.31713063               -0.15169868
              28.16347395               16.93491829               95.05982893                0.35932114               25.57095650               -0.02875481                0.05510430              -22.75834992               31.35616007               -0.45509637
              29.67460666               15.91398632               95.25493219                0.36042774               42.13974593              -22.10173167               13.11394111              -15.60737145               63.77741778               -7.34256385
              31.00626887               15.24246003               94.96015747                0.36120234               30.21891022              -19.30330861               14.08714452                1.37323247               43.58739719               -7.14824468
              32.27898486               14.69993915               94.28726827                0.36089184               25.36116187              -16.28698247                9.88632685                4.74594222               31.88426202               -6.14125283
              33.51349211               14.24262672               93.30448313                0.36029705               21.08335153              -11.02421828                3.06176039                6.35217522               22.86978572               -5.57842988
              34.70065189               13.83494348               92.04553383                0.35927004               16.95072672               -3.86691568               -7.91626013                7.05957730               11.37309337               -5.68084492
              35.85250664               13.46231273               90.53009007                0.35838869               15.96904906                5.65417071              -27.48733875                7.56935510               -2.67458184               -6.14800901
              37.02003288               13.11706537               88.81533682                0.35827036               21.34256690               17.75836563              -60.61741918                8.12240174              -10.12174029               -6.31086512
              38.27935798               12.79636136               87.07550112                0.67917620               25.93251071               32.98667962             -108.36027302                7.83358449               -7.90838567               -3.64667010
              20.92681672                8.20539099               98.30970608                1.00000000                0.00263252                0.00892682                0.09082336               -0.04106486               -0.22375411                0.25942733
              21.92684304                7.64335609               97.90727613                1.00000000                0.04189223               -0.02423780                0.05479144               -0.06168407               -0.27595974                0.03585717
              22.92765456                7.08186396               97.50352949                1.00000000                0.09116535               -0.06531349                0.05543733               -0.03757411               -0.29583046               -0.02179098
              23.92866635                6.52230118               97.10038566                0.87464680                0.11024045               -0.03834483                0.04437509                0.05243667               -0.24890594               -0.05901848
              24.92985937                5.96498299               96.69729296                0.76633446                0.09152755               -0.00422584                0.05822098                0.04210510               -0.20144444               -0.03875790
              25.93049690                5.40929751               96.29512870                0.68680878                0.04093280                0.00906058                0.05970196                0.02928527               -0.08253390               -0.05420113
              26.93067803                4.85498024               95.89406678                0.62925102               -0.00501334                0.02552471                0.06189143               -0.01240694                0.02924150               -0.02114824
              27.93039663                4.30169071               95.49368840                0.58675199               -0.03518616                0.03321803                0.04451402               -0.06066364                0.04917193                0.01827639
              28.92997430                3.74882848               95.09285096                0.58534415               -0.02000369                0.03834969               -0.04064221               -0.08661105               -0.06665447                0.02161278
              29.92999656                3.19589060               94.69048094                0.61308566                0.04906594                0.06718660               -0.23796948               -0.07471408               -0.18625389               -0.05048753
              30.93095562                2.64318252               94.28789471                0.83412260                0.09590622                0.11169608               -0.49410599               -0.09607805               -0.17990785               -0.34682196
              21.48844096                9.20548025               98.16794917                1.00000000               -0.04512438                0.05847675                0.09627553               -0.04833553               -0.01959017                0.37424117
              22.48798972                8.64311372               97.76540739                1.00000000               -0.03173425               -0.00758324                0.05900430               -0.07074345               -0.00175962                0.05058505
              23.48780627                8.08121082               97.36312230                1.00000000               -0.01792585               -0.06709554                0.04365422               -0.00621383                0.04987918               -0.10856165
              24.48763120                7.52191774               96.96151188                1.00000000               -0.05120087                0.02092306                0.03112708                0.04012007                0.12286498               -0.03327841
              25.48678226                6.96494073               96.56063190                0.99513548               -0.09200368                0.03818224                0.00687124                0.03680934                0.18410821               -0.02075010
              26.48579113                6.40938812               96.16013925                0.80822970               -0.12124501                0.05633408               -0.02228887                0.03037547                0.27975364               -0.04015354
              27.48435736                5.85523549               95.76108873                0.68616458               -0.14626239                0.06673310               -0.01520602               -0.00052484                0.37809925               -0.01469992
              28.48286588                5.30202289               95.36277398                0.60049567               -0.11745536                0.05966244               -0.03364608               -0.04008838                0.41379469                0.01284654
              29.48200825                4.74921198               94.96418663                0.55359621               -0.03967399                0.04170028               -0.06934427               -0.06120911                0.38486566                0.00548855
              30.48207240                4.19656246               94.56431524                0.49739504                0.03473314                0.04754369               -0.11221650               -0.05175809                0.29301851               -0.08758502
              31.48270291                3.64429949               94.16269007                0.68355885                0.06305151                0.07280938               -0.28539961               -0.05182170                0.26444576               -0.39393868
              22.05058308               10.20656052               98.02818727                1.00000000               -0.08854765                0.13395275                0.07151747               -0.01648147                0.01451026                0.50591890
              23.04969761                9.64320443               97.62369855                1.00000000               -0.09284089                0.01277360                0.04942428                0.01160753                0.10178094                0.04678602
              24.04872626                9.08052204               97.22098324                0.00010000               -0.19793826               -0.14684908                0.03139798                0.32228520                0.42819155               -0.42112062
              25.04573884                8.52271965               96.82313345                0.00010000               -0.28005446                7.95865831                0.00489185               10.40614826                0.60243121               11.45243547
              26.04312517                7.96574663               96.42418450                0.00010000               -0.24645955                8.64362282               -0.04137993               16.88544227                0.55994029               12.77109001
              27.04080965                7.41042419               96.02543169                0.00010000               -0.25462098                7.26282999               -0.09006993               22.83699231                0.66856770                8.35482023
              28.03803276                6.85631491               95.62841729                0.00010000               -0.25956362                4.69488157               -0.06164269               27.80574048                0.75061970                0.38332271
              29.03561838                6.30288396               95.23206912                0.00010000               -0.19111027                0.86647714               -0.05907785               30.48955289                0.77448895              -11.45541677
              30.03421055                5.74966249               94.83550089                0.00010000               -0.08722427               -5.22102375               -0.05907369               31.11791045                0.73700671              -29.43588977
              31.03387389                5.19684147               94.43730899                0.00010000                0.01172954              -15.53410728               -0.10521552               33.58529589                0.60905938              -55.53966778
              32.03444514                4.64463871               94.03619175                0.35734925                0.05712495              -44.03448170               -0.49982190               49.83237266                0.75235967              -86.79648444
              22.61482351               11.20815931               97.88863432                1.00000000               -0.05631713                0.14876489                0.04434428                0.04361202                0.01875643                0.53336545
              23.61426034               10.64336919               97.48165122                1.00000000               -0.00433754               -0.00356987                0.03244559                0.06016471                0.00947863                0.01096834
              24.61473676               10.07827384               97.07447460                0.00010000                9.81346166               -0.19175858                0.02001371                8.50274387               12.33420205               -0.59888592
              25.81052957                9.68109090               96.91389841                0.00010000               16.10248961                9.75336345                5.05725558               26.08323534               25.88151330               23.81577835
              26.93678655                9.13781319               96.54317694                0.00010000               12.07165623               11.72392689                2.63906681               31.49702202               20.21319041               25.50930323
              28.05196270                8.55464472               96.05813743                0.00010000               10.56129229                9.81259757                0.44781756               41.88198637               22.79819280               16.65681573
              29.14801240                7.94913312               95.50305170                0.00010000                7.36733266                5.87875347                0.84678915               50.96981245               25.07408213                1.07708357
              30.19930935                7.31935243               94.87180397                0.00010000                3.11982743               -0.21979070                1.74525859               55.42910081               21.51668433              -21.66284940
              31.21040895                6.64479150               94.11838510                0.00010000                2.97463692              -10.09008845               -0.55861306               54.20867415                8.85684894              -55.61373941
              32.25880209                5.88588032               93.20243978                0.00010000               18.66734662              -28.46436115              -13.88358685               39.29673628               -7.30060671             -105.42464153
              33.58375588                4.76360985               92.18470917                0.35744053               32.49537902              -61.74649733              -45.79642805               35.47561431               -6.22211611             -184.58804603
              23.18103556               12.20953582               97.74900828                1.00000000               -0.02491953                0.11058552                0.02432375                0.04167759                0.00269842                0.53566566
              24.18078637               11.64313303               97.33916610                1.00000000                0.00119314               -0.01840789                0.01754802                0.05980500                0.00631641               -0.00884972
              25.18105943               11.07668687               96.92934146                0.00010000               16.35389151               -0.13217478                0.01023648               10.42096794               18.58835205               -0.54362392
              26.50786420               10.71778691               96.89108768                0.00010000               30.92261865                0.22196063                6.39473463               24.76658639               40.24392278               16.29034495
              27.79951180               10.20022517               96.52854846                0.00010000               27.96326211                1.33223809                2.57249584               27.98915165               35.07745998               17.62422600
              29.06712944                9.60667614               95.96542775                0.00010000               24.66047439                0.77998195               -0.91339485               36.89186577               39.70498273                9.90279857
              30.29272129                8.97388998               95.27018972                0.00010000               19.07062848               -0.86739498               -1.45541177               45.65088508               43.37294166               -3.67664776
              31.44854201                8.29848815               94.43409891                0.00010000               12.95674315               -3.78061631               -2.16834005               50.43318362               38.71621579              -23.29891634
              32.55185615                7.54786072               93.39892801                0.00010000               12.62241295               -8.97689507               -8.55817604               47.26292594               22.98251882              -51.32663697
              33.70099027                6.62755425               92.12242939                0.00010000               21.83211033              -17.76230353              -30.49470977               31.05334155                5.68147902              -93.35666986
              34.98849836                5.40970877               90.70653966                0.35766917               28.75080875              -18.84635669              -75.06199529               14.86963304                1.47477873             -157.70349547
              23.74846264               13.21037102               97.60929273                1.00000000               -0.01572515                0.06379689                0.01176861                0.03719231                0.00718064                0.52847153
              24.74830539               12.64300103               97.19677275                1.00000000                0.00198001               -0.01190314                0.01104061                0.04678157                0.01095527               -0.00778926
              25.74850224               12.07563034               96.78426986                0.00010000               21.70088090               -0.08296793                0.00701722                8.90097874               22.07574553               -0.54158419
              27.18232300               11.68553011               96.81294874                0.00010000               42.95890594               -5.41728350                6.29368811               20.61255860               48.64988078               10.50215333
              28.60768036               11.16445795               96.44072769                0.00010000               41.69061034               -7.17476907                1.77110514               22.25183404               43.45088171               11.08838724
              30.01613521               10.57024436               95.81046506                0.00010000               38.07688720               -7.38414967               -2.52322006               28.96263670               49.37402245                5.16708265
              31.36921810                9.93178522               94.99716592                0.00010000               30.89335349               -7.09100381               -4.18230730               35.81070579               53.69137947               -5.64471802
              32.63400228                9.24374011               93.99288797                0.00010000               22.86916328               -6.75684104               -6.86286319               38.56292530               48.65469459              -21.44481240
              33.82660137                8.46525360               92.73802562                0.00010000               19.20092972               -6.50695516              -16.85299164               33.67903288               32.02090893              -44.26090922
              35.01802088                7.53063425               91.19836877                0.00010000               24.51190691               -3.78425071              -44.39588244               19.03877911               11.56366086              -77.94281945
              36.31683950                6.38668272               89.46585336                0.35787371               29.88186292                6.87458072              -97.11200739                9.63611328                4.51399098             -127.46302849
              24.31651939               14.21081176               97.46951922                1.00000000               -0.00567133                0.02884549                0.00227434                0.02755860                0.01191247                0.51393343
              25.31646268               13.64289497               97.05434933                0.93120638                0.00152639               -0.01008952                0.01247152                0.03872078                0.02054828               -0.02170403
              26.31654992               13.07502751               96.63929554                0.00010000               25.74125452               -0.04286531                0.02119380                5.14568554               24.03895046               -0.54665102
              27.83128777               12.60944124               96.70432627                0.00010000               52.16421612               -9.30243591                5.90364541               12.81697379               53.24403461                5.46840652
              29.35983424               12.05672979               96.32009400                0.00010000               52.38835678              -13.57392950                0.91036071               15.18260711               47.76264084                5.39369433
              30.87905490               11.45899315               95.63692074                0.00010000               48.78027064              -14.06094300               -3.86939038               20.99088493               54.15747282                1.18295320
              32.33543965               10.83206990               94.73221685                0.00010000               40.36386176              -12.17513978               -6.38501558               26.16348852               58.75124887               -6.58283037
              33.68633214               10.16335133               93.59831318                0.00010000               30.15515093               -8.75468837              -10.63560260               27.27136909               53.52905590              -18.37065041
              34.93854267                9.41772162               92.17769283                0.00010000               23.70023004               -3.36808792              -23.12473410               22.19131152               35.93611132              -35.63907053
              36.16033674                8.55186923               90.43802274                0.00010000               26.52905046                5.81231349              -54.29850326               11.61993641               13.56473736              -60.88721265
              37.46912368                7.54720038               88.47588030                0.35812732               30.87869423               20.95849022             -111.71506681                5.63237012                5.21689417              -95.73569158
              24.88484738               15.21094793               97.32957202                1.00000000                0.00166591                0.00603987               -0.00739912                0.01668382                0.01799155                0.48625812
              25.88486404               14.64279924               96.91174901                0.81229924                0.00111445               -0.00757724                0.01445929                0.02862246                0.03889309               -0.05572396
              26.88486967               14.07477304               96.49428900                0.00010000               28.60480807               -0.01674911                0.04621079               -0.33181330               25.37480742               -0.58671581
              28.45696020               13.49948140               96.58296430                0.00010000               58.84554594              -12.65075463                5.46735553                2.64961155               56.38877340                1.22162853
              30.06178059               12.89297936               96.19294426                0.00010000               60.18262982              -18.89718929                0.27683050                7.69306932               50.80656469                0.45883796
              31.66061280               12.28902550               95.47555151                0.00010000               56.31745528              -19.27580650               -4.69746924               14.50853637               57.23082750               -2.09975110
              33.18812970               11.68828243               94.50691156                0.00010000               46.65825722              -15.76208212               -7.74191393               18.90766176               61.56254426               -6.98980069
              34.59377795               11.06864634               93.27963867                0.00010000               34.68899958               -9.78189425              -13.02508377               19.20186605               55.76061184              -14.90270130
              35.88190969               10.39789184               91.73905829                0.00010000               26.35814469               -1.02852379              -27.10158184               15.04334013               37.29173080              -26.82616483
              37.12094084                9.64688052               89.85710061                0.00010000               27.84574615               11.65630848              -60.42674822                7.65090602               13.86768295              -43.93154733
              38.43882461                8.80585252               87.73863083                0.35774940               31.78837728               28.61889333             -120.46796238                3.70044000                5.13689670              -66.62334307
              25.45315044               16.21093255               97.18930022                1.00000000                0.00595717               -0.00058573               -0.01735653                0.00622139                0.02384014                0.44304652
              26.45321002               15.64274342               96.76876285                0.70150964                0.00405245               -0.00266411                0.00544622                0.01583717                0.05236216               -0.10876095
              27.45323149               15.07469253               96.34876017                0.00010000               30.64318297               -0.00898992                0.05232659               -7.48146259               26.84683924               -0.58271995
              29.06607368               14.35642615               96.46379668                0.00010000               63.54600160              -16.88452162                5.26718803               -9.52548752               59.83397152               -2.34199426
              30.72415153               13.67878600               96.08294021                0.00010000               65.39244426              -24.28022931                0.29503913                1.59798588               54.28351101               -3.26455309
              32.37392256               13.07347702               95.35315531                0.00010000               60.49102585              -22.83898663               -4.57673539               10.04125803               60.20837052               -4.26481149
              33.93397204               12.51682826               94.34585723                0.00010000               49.34187397              -17.70067708               -7.92296150               13.75826944               63.40973924               -6.44293325
              35.36076004               11.96771344               93.05651740                0.00010000               36.36016277              -10.04595435              -13.86545149               13.47648556               56.59658286              -10.92128605
              36.66117530               11.39715114               91.43500520                0.00010000               27.23170700                0.52557726              -28.91564387               10.42415737               37.39392998              -18.07623290
              37.90539418               10.78499540               89.45994064                0.00010000               28.20065844               15.00581708              -63.53965413                5.53580190               13.59699200              -28.07063349
              39.22518847               10.11957825               87.24406220                0.35789445               31.97942868               33.31455853             -125.19372006                2.58141303                4.86169774              -40.64540083
              26.02135007               17.21093621               97.04855849                1.00000000                0.00707368                0.00288315               -0.02604706                0.00200076                0.02558977                0.34146595
              27.02142081               16.64274596               96.62522807                0.51128834                0.01038113                0.00116439               -0.01132513                0.00472907                0.13325791               -0.15116526
              28.02155769               16.07459324               96.20403982                0.00010000               32.04680873               -0.03756659                0.03192302              -17.18659663               29.57098098               -0.50006501
              29.66235698               15.16179096               96.36880596                0.00010000               67.75658731              -26.04338732                5.63885962              -16.21355036               65.42090253               -3.04914155
              31.37668944               14.40737477               96.02492746                0.00010000               68.05193636              -27.55279935                1.44161407               -1.46152017               59.84961427               -4.66652275
              33.02339571               13.83224576               95.29926103                0.00010000               59.61846141              -24.08379033               -3.16437290                6.54551597               63.06899419               -3.96266569
              34.56905867               13.33426889               94.27284965                0.00010000               47.97945317              -18.06088500               -6.68462396                8.30831145               64.24711561               -4.18379028
              35.98298477               12.86772725               92.94551768                0.00010000               35.20261032               -9.80907544              -12.95541104                7.72047230               56.10597188               -5.97081794
              37.27311087               12.40840339               91.27338924                0.00010000               26.31224988                1.35111220              -28.40017771                5.99963283               36.30276668               -9.23846327
              38.50922977               11.94699686               89.24301851                0.00010000               27.40881548               16.48504080              -63.63203038                3.46778636               12.95706694              -13.60224438
              39.82128718               11.47214369               86.98070686                0.35791251               31.20574132               36.24015791             -126.40663035                1.27289999                4.68233771              -17.84127223
              26.58957097               18.21099022               96.90634909                1.00000000                0.00765987                0.00540020               -0.02135781               -0.00026015                0.14903919                0.26293239
              27.58964757               17.64276671               96.48148327                0.68963210                0.04417900                0.00207546               -0.01191368               -0.02977429                0.33885334               -0.16628950
              28.59045455               17.07394120               96.06042720                0.35904401               40.96867812               -0.06520385                0.06735289              -33.47072927               37.49289099               -0.53349604
              30.40902113               15.83555841               96.37581833                0.36010987               71.70058843              -32.62325587                8.42036581              -22.64414388               81.03475777              -10.12851479
              32.02446632               15.12773002               96.07420306                0.36085693               58.44588161              -27.96447552                4.46407910                2.58982876               65.03982260               -8.80591978
              33.57793877               14.59180121               95.35423988                0.36071622               52.00952295              -24.04445488               -0.30835414                6.84833274               63.21705286               -7.22559488
              35.06465678               14.15561056               94.31286984                0.36009660               43.15481073              -17.86583289               -3.99435575                8.54634719               62.36656235               -6.38396740
              36.44103498               13.77153193               92.96155613                0.35893032               31.86207848               -9.61953226              -10.04171545                9.23316227               53.53611969               -6.73849801
              37.70189835               13.42417338               91.26026477                0.35796014               23.49873113                1.57699944              -24.98518096               10.03696206               33.01303350               -7.70644494
              38.91100960               13.11469622               89.19449059                0.35754985               24.92272224               16.76993611              -59.60138718               11.18838442                9.34462701               -8.50794317
              40.20035280               12.84438141               86.90847716                0.67871388               28.93431915               37.22377123             -122.44969115               10.87507987                0.85556406               -5.56555462
              21.32741732                8.34955030               99.31039589                1.00000000                0.01616436                0.02706707                0.04471776               -0.03551857               -0.17199661                0.21271093
              22.32757896                7.78555343               98.90765187                1.00000000                0.05465824               -0.01618209                0.01881427               -0.05973650               -0.20959730                0.03016893
              23.32851048                7.22218893               98.50399204                1.00000000                0.10273732               -0.06548329                0.03229998               -0.03381662               -0.22807962               -0.00759876
              24.32963371                6.66082980               98.10077899                0.87744092                0.11554039               -0.03708922                0.02929565                0.04587298               -0.19097789               -0.02575289
              25.33082129                6.10158301               97.69778874                0.71157487                0.10271973                0.00052555                0.04002112                0.04782615               -0.12686331               -0.02384199
              26.33168810                5.54418829               97.29572589                0.60981489                0.06932551                0.00499274                0.05715776                0.04204873                0.03143317               -0.03376316
              27.33220780                4.98830060               96.89486052                0.55146136                0.02396817                0.00722775                0.10059639               -0.01675943                0.19445933                0.06019677
              28.33216746                4.43339299               96.49447029                0.51491794               -0.02833958                0.00451568                0.11528332               -0.08133629                0.20939692                0.12573571
              29.33164101                3.87798303               96.09278531                0.50807750               -0.04714625                0.00944284                0.03386753               -0.11893559               -0.01107969                0.09460839
              30.33122454                3.32080861               95.68800059                0.52087086                0.03106565                0.05692643               -0.20542336               -0.10885001               -0.27195398               -0.01552327
              31.33226232                2.76252565               95.28196697                0.77496291                0.10377813                0.09165859               -0.60008007               -0.11654458               -0.34799094               -0.60106176
              21.89105900                9.34982097               99.16876792                1.00000000               -0.03967173                0.08067266                0.06078408               -0.04420761               -0.00518175                0.31887714
              22.89066228                8.78539161               98.76590536                1.00000000               -0.02624323               -0.00072147                0.03963174               -0.06808690                0.02161723                0.04159723
              23.89053413                8.22153410               98.36351053                1.00000000               -0.01334433               -0.07229330                0.03704164                0.00182933                0.08103524               -0.08933268
              24.89039539                7.66045890               97.96177891                1.00000000               -0.04569146                0.02179401                0.02347073                0.04063256                0.14724912               -0.00087689
              25.88962030                7.10158827               97.56056160                0.84364700               -0.08227981                0.04432869               -0.01755324                0.04261136                0.21349469               -0.01207711
              26.88874980                6.54423822               97.15982348                0.58968532               -0.10912237                0.05388681               -0.03860658                0.04626974                0.34343909               -0.03573082
              27.88743786                5.98837287               96.76087971                0.45027519               -0.11184555                0.06277136               -0.06096722               -0.00207607                0.51424792                0.05610727
              28.88651289                5.43343814               96.36230566                0.36170629               -0.03470082                0.03641933               -0.11534732               -0.07044116                0.69043370                0.14177233
              29.88674384                4.87807745               95.96330080                0.30161661                0.06759195                0.00711028               -0.14935904               -0.13826273                0.85398529                0.10935679
              30.88786472                4.32137787               95.56309712                0.24253875                0.13179962                0.02505278               -0.13910560               -0.16834230                0.76998019               -0.16461879
              31.88937983                3.76344224               95.15901546                0.55021064                0.15151069               -0.03119420               -0.37516933                0.01139432                0.68681033               -1.13325412
              22.45539188               10.35116375               99.02878252                1.00000000               -0.08877848                0.15995786                0.03557959               -0.01043319                0.02278204                0.44873688
              23.45450409                9.78553900               98.62415495                1.00000000               -0.09560530                0.01776614                0.03982551                0.02351336                0.11247743                0.02987329
              24.45347977                9.22074306               98.22131734                0.00010000               -0.20559558               -0.16760215                0.04442074                0.36302936                0.43194791               -0.40868187
              25.45039218                8.66126568               97.82317758                0.00010000               -0.27927858               11.78956727                0.01118473               17.95350311                0.59515963               13.77013704
              26.44789420                8.10246959               97.42362744                0.00010000               -0.22816461               12.36795218               -0.07291350               31.14101180                0.58553477               12.90977407
              27.44582889                7.54526603               97.02441170                0.00010000               -0.24639259               10.80617236               -0.09923883               44.98135935                0.74211407                7.11289768
              28.44296635                6.98955602               96.62768964                0.00010000               -0.23874160                8.09734170               -0.09710155               56.04538408                1.02721721               -0.04728380
              29.44105406                6.43412137               96.23131358                0.00010000               -0.10151648                4.22973426               -0.16224056               63.06657358                1.59968067              -10.48843324
              30.44093602                5.87812523               95.83463265                0.00010000                0.07194241               -2.47702988               -0.43863773               65.17445042                2.77912705              -28.43789024
              31.44249291                5.32130967               95.43568378                0.00010000                0.37127286              -15.50687758               -1.01267880               65.43580968                4.38110840              -61.69406213
              32.44836148                4.76190177               95.02757225                0.35700743                0.58685706              -61.07396306               -6.60410955               84.44541605               10.49328232             -119.84783037
              23.02209983               11.35302013               98.88899198                1.00000000               -0.05465956                0.16841156                0.01760382                0.05146722                0.02505933                0.49342121
              24.02155324               10.78574693               98.48196426                1.00000000               -0.00158930               -0.00194745                0.02700717                0.07051869                0.01794189               -0.00404030
              25.02206805               10.21818205               98.07474513                0.00010000               17.30928472               -0.21617821                0.04146406               12.40368288               14.61864523               -0.59454580
              26.36773893                9.89625025               97.95969016                0.00010000               30.31860720               13.94853133                1.38055437               42.07949203               34.54251256               28.18885496
              27.62844019                9.34894731               97.54496953                0.00010000               26.67758091               16.83843419               -8.18595484               56.83371739               40.23328408               26.36246987
              28.90129055                8.76036166               97.03163566                0.00010000               24.55250001               14.88023335               -8.53198983               80.76591673               52.75452527               15.23078472
              30.11949019                8.15031971               96.49272133                0.00010000               17.89923002               10.92692754               -5.91316350              100.67704416               63.25723283                0.86410904
              31.25927515                7.51803283               95.88897008                0.00010000                9.17771827                4.88565016               -2.18164167              112.60872529               66.67382889              -19.12719123
              32.30304455                6.82853686               95.13653406                0.00010000                2.67646158               -5.79247020                0.93972668              113.11725275               56.49510845              -51.76717547
              33.31280438                6.01124032               94.08591186                0.00010000               19.70296960              -29.54895044               -7.19749256               82.64113756               26.43222549             -110.66491222
              34.69710395                4.54196298               92.65630349                0.35689878               38.42995665              -78.83922899              -59.58516871               64.99959968                9.75443347             -228.42288296
              23.59096761               12.35453198               98.74920391                1.00000000               -0.02150667                0.11761096                0.00923892                0.04586126                0.00763822                0.50938726
              24.59075254               11.78550005               98.33933653                1.00000000                0.00412531               -0.01938465                0.01425016                0.06475440                0.01389241               -0.01544520
              25.59105012               11.21641950               97.92949389                0.00010000               28.52321105               -0.14173043                0.01615969               14.69322771               21.05296940               -0.53243192
              27.16121676               10.94023630               97.94036097                0.00010000               56.47035097               -0.28770130               -2.21066143               37.81912884               55.20405060               18.02234837
              28.72045714               10.43923827               97.50987375                0.00010000               54.92790338                2.02922308              -13.33108739               47.28466914               66.46091737               18.16748293
              30.25977483                9.84287069               96.90603057                0.00010000               48.91894670                2.00407856              -14.21358733               64.76435513               84.77392617               10.01050075
              31.69883607                9.20809457               96.22155996                0.00010000               37.76182921                0.74864674              -11.42849985               81.31376103               97.65097510               -2.80937025
              33.01501142                8.53183438               95.40211097                0.00010000               25.56187563               -1.97714878               -7.74679434               91.40390962               98.04216901              -21.03634514
              34.21007358                7.76227583               94.33054529                0.00010000               18.34390608               -7.64119635               -7.49836795               87.76887013               79.71547265              -48.27497152
              35.38188954                6.73033066               92.82963935                0.00010000               23.84172905              -18.71795239              -24.73427105               60.10558888               43.21185050              -94.25232849
              36.68690816                5.18511719               90.87429486                0.35721225               30.50186254              -14.60712867              -88.57640980               31.03165934               18.87946360             -174.89648723
              24.16108092               13.35537235               98.60939543                1.00000000               -0.01201072                0.06209799                0.00611858                0.03898363                0.00984940                0.50547641
              25.16096081               12.78535924               98.19686512                1.00000000                0.00577171               -0.01399016                0.00760137                0.04890362                0.01547704               -0.00593457
              26.16119635               12.21534744               97.78433195                0.00010000               37.01709629               -0.08941483                0.00541895               12.30109716               24.00751899               -0.51304844
              27.90130273               11.89049622               97.85157557                0.00010000               75.51514161               -7.93737199               -4.52701113               29.95910005               63.20660042               10.26349518
              29.67149918               11.38953177               97.40286757                0.00010000               76.32093071               -9.95117363              -16.49954210               34.72520916               75.93937765               11.09885541
              31.42772135               10.80044324               96.72527971                0.00010000               69.26512721               -9.69786440              -17.34840827               46.80444876               96.35733845                5.84808275
              33.05680173               10.16529264               95.91440773                0.00010000               55.27253694               -8.93924905              -14.97836699               58.82096548              110.16278716               -3.64747893
              34.53317209                9.47848985               94.90976790                0.00010000               40.15619752               -8.38502994              -12.63786040               64.72072183              109.85892443              -17.68189223
              35.85992568                8.67571293               93.58347077                0.00010000               27.94513543               -8.16422212              -15.45126744               58.15176300               89.93860699              -38.83186725
              37.09207480                7.63688128               91.76161356                0.00010000               27.41191967               -3.73097182              -38.27556434               34.25289224               49.34400291              -73.21001379
              38.40816407                6.24982040               89.40943719                0.35738996               31.60892741               15.02004591             -109.51209815               18.05734722               22.37573404             -131.03545191
              24.73177349               14.35577394               98.46955032                1.00000000               -0.00179746                0.02545782                0.00294741                0.02806357                0.01223018                0.48798217
              25.73175552               13.78522025               98.05444481                1.00000000                0.00807922               -0.01530686                0.00736487                0.03479877                0.02097613               -0.01499646
              26.73193508               13.21463120               97.63941901                0.00010000               42.72294587               -0.05997852                0.00977834                6.90106748               25.49510323               -0.48372207
              28.58621443               12.78148886               97.73368800                0.00010000               88.65396151              -12.96704973               -6.57698978               17.99024416               67.21509355                4.82780110
              30.50501431               12.24021480               97.26710762                0.00010000               91.69442522              -18.62531941              -18.95655921               22.80915509               80.28951593                5.13449264
              32.42010294               11.64891341               96.53343307                0.00010000               84.60972274              -19.26597317              -19.71822979               32.37917962              101.41623345                1.96540284
              34.19720876               11.02930959               95.62470566                0.00010000               68.94513129              -17.12007930              -17.64011840               41.09207991              115.48607520               -4.33308910
              35.79900556               10.36413378               94.47651720                0.00010000               50.87543291              -13.45499298              -16.25666599               44.05067629              114.92612744              -14.32110347
              37.21471742                9.59899138               92.96108557                0.00010000               34.69171712               -7.42011842              -20.93105924               37.28269032               93.90988991              -29.67078970
              38.49283991                8.65571122               90.90495775                0.00010000               30.37297151                4.46658257              -46.39350984               20.64782488               51.13375826              -54.27898970
              39.82217685                7.48551811               88.27982307                0.35701584               32.93369424               26.49811285             -120.69494519               10.63297648               22.88172115              -92.92498717
              25.30274957               15.35588150               98.32951886                1.00000000                0.00499527                0.00269145               -0.00068747                0.01890454                0.01929674                0.46104502
              26.30279953               14.78505310               97.91187311                0.82804743                0.00997572               -0.01578265                0.00977578                0.02025222                0.04299317               -0.05793263
              27.30294909               14.21414787               97.49469675                0.00010000               46.63622480               -0.03761660                0.02685765               -0.58460524               26.40532425               -0.51058979
              29.23552402               13.63115523               97.60411700                0.00010000               97.86543278              -17.34556515               -7.91254943                3.94330891               69.80836816                0.41786756
              31.26025774               13.01702539               97.12950860                0.00010000              102.53430631              -25.76020372              -20.45113038               12.00540227               83.36789030                0.18268125
              33.28621015               12.41512377               96.36091812                0.00010000               95.15826048              -26.57982627              -21.08450372               22.18230408              104.60950224               -1.32377258
              35.16342295               11.82289106               95.38447142                0.00010000               77.91468369              -22.85507973              -19.21031787               28.95167724              118.35956908               -4.98509010
              36.84450382               11.20938999               94.13418496                0.00010000               57.52895442              -16.58473251              -18.45003783               30.09798099              117.20993424              -11.51261065
              38.31400204               10.52731056               92.48494066                0.00010000               38.70003751               -6.97666464              -24.14582259               24.50075805               95.31894528              -21.95442495
              39.61850457                9.72621293               90.26797977                0.00010000               32.36038935                8.32544630              -50.92613245               13.13530788               51.37325844              -38.29914193
              40.96120983                8.77978266               87.46416856                0.35714493               34.27052563               30.64706285             -126.67519647                6.78004935               22.71274983              -62.93272153
              25.87380838               16.35582777               98.18916659                1.00000000                0.00858108               -0.00574629               -0.00394578                0.01191709                0.02434740                0.42078278
              26.87389419               15.78490460               97.76879898                0.64136909                0.01662332               -0.01109464                0.00035346                0.00875998                0.06284201               -0.12918284
              27.87414085               15.21387887               97.34920410                0.00010000               49.41544549               -0.03051763                0.02784478              -10.38471717               27.68561053               -0.55033257
              29.86220310               14.43457756               97.48084194                0.00010000              104.35064813              -23.45780354               -8.43532389              -12.62052549               73.22525034               -3.39351562
              31.96115381               13.72501072               97.01833558                0.00010000              109.78401252              -33.30627873              -20.62110023                3.72658733               87.20875443               -3.53925622
              34.05788335               13.11731688               96.23899134                0.00010000              101.04111380              -31.63263428              -21.09055746               15.30268058              107.76070581               -3.38557932
              35.98197609               12.57220800               95.22124700                0.00010000               81.93311643              -26.03552825              -19.47355829               20.39287438              120.19764304               -4.80943695
              37.69654568               12.03243913               93.90291309                0.00010000               60.29667814              -18.01162239              -19.21259276               20.21126234              118.03224252               -8.62141532
              39.18790965               11.45945809               92.16417564                0.00010000               40.32641426               -6.57841830              -25.55659943               16.11037608               95.43835053              -15.08694640
              40.50307396               10.82222015               89.84283784                0.00010000               33.13643601               10.33369764              -53.14356851                8.90767895               51.06685232              -24.89493388
              41.85063837               10.09845936               86.92768504                0.35697134               34.75644032               33.27357483             -129.84285208                4.49283862               22.42602774              -39.22273391
              26.44483426               17.35576658               98.04833704                0.97742251                0.00893634               -0.00346337               -0.01747451                0.00586868                0.02261155                0.32196402
              27.44492363               16.78483121               97.62512428                0.40293817                0.03737587               -0.00598316               -0.00769930               -0.01183766                0.13973019               -0.16802823
              28.44558178               16.21353752               97.20420965                0.00010000               51.35290153               -0.12026191               -0.02020013              -23.89880954               30.64598768               -0.52958376
              30.47198166               15.16199916               97.38886124                0.00010000              110.32341945              -36.85931396               -8.23737744              -22.16574297               79.99171376               -4.40225932
              32.65205017               14.35089981               96.97183673                0.00010000              113.65424141              -37.86101456              -18.90017484               -0.60190504               93.63796788               -4.98979629
              34.74506649               13.78247109               96.19987445                0.00010000              100.20540111              -33.59236600              -19.47155625                9.90282329              110.74607724               -3.06473868
              36.65615819               13.30218049               95.16035810                0.00010000               80.82062442              -26.86505067              -18.33548597               11.91087422              120.95996016               -3.05383176
              38.36147897               12.84915755               93.80072459                0.00010000               59.51351755              -18.21712526              -18.45763384               11.04976911              117.71403665               -4.81742927
              39.84642854               12.39574219               92.00818037                0.00010000               39.80889521               -6.25126644              -25.11500473                8.78262669               94.68799579               -8.05693696
              41.15765688               11.93288688               89.62620057                0.00010000               32.60798113               11.08710975              -53.04614192                5.25755126               50.45978345              -12.62473059
              42.49858817               11.44525416               86.65143817                0.35654998               34.09312874               36.55251556             -130.91417587                2.12961581               22.19081002              -18.81955388
              27.01579648               18.35575851               97.90621315                0.94767287                0.00900084               -0.00080719                0.00059906               -0.00113488                0.12899613                0.23962782
              28.01588649               17.78478494               97.48142986                0.61742153                0.16001116               -0.00462766               -0.00840148               -0.11795699                0.36037526               -0.16865376
              29.01899671               17.21147363               97.06117599                0.35886576               63.28197287               -0.20638890                0.01765286              -47.02818993               40.61458523               -1.08815840
              31.28152595               15.69739128               97.42333951                0.36008634              115.48235360              -46.46078775               -5.68775981              -31.22973061               99.07966239              -12.87515491
              33.32864378               14.96779043               97.04943906                0.36076405              101.15665935              -38.31093785              -15.52784337                5.06327497               98.23455838              -10.29319257
              35.30465914               14.44546956               96.28110119                0.36056305               91.24316651              -33.70015270              -17.06018104                9.31509278              110.14503738               -7.18728083
              37.15350711               14.03490698               95.22459602                0.35998184               75.96601101              -26.72735064              -16.31377888               10.86624495              119.43941919               -6.57057795
              38.82397936               13.66809662               93.84469952                0.35895408               56.31628689              -18.10609235              -16.00353463               11.22632734              116.57998973               -7.63913706
              40.27983285               13.33443276               92.03038645                0.35765795               36.73668347               -6.13094318              -21.72541943               12.13371648               93.48132174               -9.41940462
              41.55871303               13.04396234               89.62330908                0.35680454               29.43316399               11.10754623              -48.69256415               14.85946052               49.08027825              -11.20179707
              42.86849613               12.82950968               86.62650730                0.67846096               30.97831006               38.42555175             -126.41030148               15.54552957               21.01531685              -11.84639241
              21.72886481                8.49290113              100.31060044                1.00000000                0.01901237                0.05700320                0.00527745               -0.02510038               -0.09618163                0.12789035
              22.72905494                7.92745250               99.90765242                1.00000000                0.05505158               -0.00099161               -0.00963732               -0.04885510               -0.12170530                0.01671001
              23.72996584                7.36267501               99.50417549                1.00000000                0.09975779               -0.05761329                0.00272612               -0.02455223               -0.13982905                0.00329441
              24.73105009                6.79978629               99.10097157                0.81416970                0.12046827               -0.02846806                0.00388408                0.06177388               -0.11631237                0.00299846
              25.73237521                6.23896044               98.69809339                0.61179845                0.15018473               -0.00999476                0.00578781                0.09527625               -0.02071726               -0.00534496
              26.73405379                5.68042707               98.29627186                0.50256609                0.17237992               -0.04393761                0.02510068                0.08806815                0.22158115                0.03621831
              27.73582281                5.12414579               97.89607870                0.45964569                0.13029969               -0.06172789                0.09863442                0.03911388                0.46933997                0.16933400
              28.73665978                4.56853469               97.49599406                0.44500815                0.01998015               -0.05196435                0.12596698                0.03656295                0.45100833                0.19046051
              29.73622241                4.00968968               97.09352831                0.44186223               -0.06419817               -0.01379023                0.05667636                0.05002724                0.15680161                0.10584162
              30.73537582                3.44538707               96.68637247                0.43888725               -0.00796853                0.01998314               -0.10621107                0.00688268               -0.17382215                0.07995561
              31.73606304                2.87706430               96.27589311                0.72090366                0.06872235               -0.10351726               -0.44136878                0.02166237               -0.33779110               -0.51776404
              22.29406245                9.49347116              100.16916485                1.00000000               -0.03829977                0.12050312                0.01570946               -0.03140665                0.01310979                0.20652478
              23.29367945                8.92744258               99.76620002                1.00000000               -0.02545109                0.01452492                0.01908023               -0.05074484                0.03722791                0.02216601
              24.29355343                8.36209887               99.36386313                1.00000000               -0.00771672               -0.07805998                0.03112018                0.02178875                0.07196971               -0.05873105
              25.29352511                7.79950161               98.96198130                1.00000000               -0.02729205                0.02124256                0.01373216                0.05217285                0.11056158                0.02445059
              26.29300758                7.23886049               98.56028083                0.56838014               -0.05916613                0.02868722               -0.02671042                0.08563126                0.19978952               -0.00531776
              27.29234179                6.67998769               98.15936712                0.28581119               -0.04237246                0.02214524               -0.07441375                0.11019812                0.42117009                0.05333393
              28.29216014                6.12352851               97.75986939                0.17796328                0.09558378               -0.03090917               -0.20300018                0.19398822                0.74665279                0.31076460
              29.29425347                5.56801505               97.36046703                0.13698896                0.30681799               -0.10419051               -0.27901083                0.50162316                1.13391428                0.39857307
              30.29829649                5.00955177               96.96119945                0.10100764                0.37519319               -0.10091285               -0.25946589                1.33861702                1.49872182               -0.02570190
              31.30175733                4.44558690               96.56153313                0.04249100                0.31529685               -0.26207886               -0.19998459                2.98290005                1.43933748               -0.94487649
              32.30460243                3.87602913               96.15518669                0.44019592                0.28450999               -6.33351116               -0.38512896                9.26776335                1.27991139               -7.14909869
              22.86029385               10.49531120              100.02889886                1.00000000               -0.08815198                0.20675847               -0.01344629                0.00906470                0.03275148                0.31765721
              23.85941233                9.92774299               99.62449506                1.00000000               -0.09756310                0.03321119                0.02790329                0.04945954                0.10568283                0.01868352
              24.85834259                9.36111381               99.22187165                0.00010000               -0.20402004               -0.19462521                0.07692558                0.41492446                0.35812616               -0.33882463
              25.85533193                8.80021114               98.82335714                0.00010000               -0.23704179               16.40915029                0.02871336               30.80253458                0.45576300               12.86231781
              26.85360175                8.23953418               98.42272623                0.00010000               -0.18711016               16.99778913               -0.08077774               62.85789922                0.52880512                4.68258118
              27.85158973                7.68086997               98.02344691                0.00010000               -0.09632692               14.88269268               -0.26340167               87.54765164                1.20512163               -0.00023496
              28.85167522                7.12352761               97.62647526                0.00010000                0.45396271               12.45082345               -2.18011547              107.46217061                7.79161791               -5.37958574
              29.86066898                6.56645088               97.22882431                0.00010000                1.68738414                9.89980910               -6.79228837              123.94317743               33.76436521              -11.57664312
              30.88542290                6.00767142               96.82672814                0.00010000                3.39437408                5.19917914              -12.85091765              135.93837262               72.95867176              -23.12020524
              31.92855646                5.44014549               96.41705541                0.00010000                8.75554756               -8.34801995              -16.45848516              135.43212478              115.50354469              -51.34009336
              33.06053385                4.75039408               95.90410956                0.35655609               13.19773861              -76.37997781              -63.01409442              147.69780122              160.89617517             -191.47834359
              23.42938014               11.49760633               99.88898640                1.00000000               -0.05141153                0.20044618               -0.02215687                0.08150907                0.03022993                0.37630535
              24.42886603               10.92810680               99.48219137                1.00000000                0.00018115                0.00901380                0.01357343                0.09809705                0.02862621               -0.00597710
              25.42938377               10.35820637               99.07530388                0.00010000               30.11446999               -0.23311924                0.05649585               17.11647982               13.68313438               -0.48438048
              27.03115543               10.12768461               98.94150950                0.00010000               62.00614853               19.30686669              -28.23451102               69.84216636               95.27609827               29.15079070
              28.66950674                9.57881627               98.37945784                0.00010000               56.40729856               23.30713050              -26.60845512              107.97078619              114.06170015               16.38193994
              30.15930140                8.97764154               97.88749763                0.00010000               44.31579497               21.61860668              -23.30709109              149.65303657              135.08124338                7.54142903
              31.55582264                8.37254498               97.38478843                0.00010000               36.48359023               18.62442835              -19.75875865              184.31774315              147.30019688               -3.29188445
              32.88897320                7.76601123               96.82817113                0.00010000               29.37733491               14.52562710              -16.07163055              209.03607300              154.35219285              -17.18747620
              34.14336934                7.11353536               96.13717963                0.00010000               18.93519817                6.38765797              -11.09475221              217.29147971              150.40598295              -38.19118710
              35.26767717                6.27862650               95.05848993                0.00010000               24.73459731              -18.66697590               -7.67312146              166.39077269              110.34722087              -87.71794261
              36.63806128                4.34842957               92.99300580                0.35668230               37.03841136              -79.58743786              -46.24460079              117.79244445               59.13008970             -215.20293294
              24.00092310               12.49932012               99.74919306                1.00000000               -0.01488578                0.12639057               -0.01461530                0.07732002                0.01274402                0.39662304
              25.00077424               11.92792327               99.33945111                1.00000000                0.00856391               -0.01663704                0.00855481                0.09718405                0.01939282               -0.01379740
              26.00109437               11.35645142               98.92966466                0.00010000               51.53955573               -0.13810567                0.01792372               20.14918028               16.37943649               -0.42473949
              28.03156535               11.18634847               98.84687445                0.00010000              108.09830872               -1.51058102              -37.20195884               57.29946677              106.31708347               13.02671955
              30.16306055               10.70567679               98.26192671                0.00010000              100.96781991                2.51924556              -34.86567997               75.50753281              134.99680201               12.85379403
              32.05092175               10.11324210               97.68115601                0.00010000               79.32999221                4.10809844              -30.00596638              103.13898995              160.96195444                6.68650244
              33.74966039                9.49601618               97.04161972                0.00010000               62.47391575                4.15724849              -24.77650270              128.79421698              174.49040493               -1.96481465
              35.30040007                8.85696342               96.27916303                0.00010000               48.44884137                2.48423994              -19.90212768              145.62764641              178.94345074              -13.67395815
              36.71863722                8.13542458               95.24896065                0.00010000               36.05388178               -2.77296926              -16.22700862              142.00005283              166.37014328              -32.40662838
              38.02147770                7.06680597               93.62774397                0.00010000               27.90696874              -14.37554664              -19.99650153               96.72390421              118.15347187              -65.66336066
              39.27677660                5.15864532               90.93501146                0.35674245               25.52988931                0.60079505              -77.62819998               50.71621690               78.29932704             -139.42180923
              24.57372024               13.50013415               99.60941510                1.00000000               -0.00418359                0.05639239               -0.00440998                0.06658732                0.01228493                0.39092121
              25.57367841               12.92777406               99.19692478                1.00000000                0.01109625               -0.01681102                0.00465967                0.07746861                0.01945338               -0.00495922
              26.57394217               12.35544426               98.78437824                0.00010000               62.71204923               -0.07315768                0.00112064               15.79066752               17.55956142               -0.39270587
              28.82791939               12.09747299               98.72240851                0.00010000              133.94107977              -11.64463213              -44.04014698               39.50463017              111.76962329                6.98640768
              31.25276376               11.62920118               98.11073685                0.00010000              130.19112124              -13.64490942              -40.63244369               48.25747265              141.29990035                7.62938704
              33.43174182               11.05980351               97.46349690                0.00010000              106.76109475              -12.52896508              -34.76417413               66.26742758              169.08378356                4.82819633
              35.38798566               10.45568995               96.69759858                0.00010000               86.51879559              -11.03358759              -28.78900617               85.41545725              182.82241060               -1.00561038
              37.16211773                9.81569603               95.74013076                0.00010000               69.27710909              -10.22256171              -23.98359705               97.52303608              186.40594346               -9.72705221
              38.77352784                9.05807597               94.42900028                0.00010000               50.84083906              -10.62943235              -21.74803413               92.25411197              172.01765638              -23.06342666
              40.17893451                7.99111557               92.43285748                0.00010000               34.75895416               -5.34413708              -29.48242402               57.25831021              122.08241360              -46.34754429
              41.46870692                6.36044547               89.27561140                0.35643045               28.97724138               23.76619730              -91.13831876               31.94553387               79.94110691              -97.07032886
              25.14697501               14.50044797               99.46957817                1.00000000                0.00384910                0.02092048               -0.00108267                0.05413709                0.01027931                0.37718058
              26.14701350               13.92758705               99.05449662                0.87633783                0.01168912               -0.02438220                0.00657549                0.07039534                0.01721706               -0.01830612
              27.14720879               13.35498827               98.63949111                0.00010000               70.04437627               -0.03340530                0.00390085                8.63294388               17.44916350               -0.36088578
              29.54790103               12.95345583               98.57278647                0.00010000              150.93353456              -16.83940961              -48.49770233               23.40933299              113.65648089                2.68123013
              32.16587948               12.43277860               97.94096282                0.00010000              150.09402549              -24.18980779              -44.60520757               31.43902442              144.29200971                3.21953992
              34.54978154               11.86266280               97.24255614                0.00010000              126.80987694              -25.14058673              -38.05606964               45.43320142              172.45310971                1.88445593
              36.70207702               11.27534442               96.37941448                0.00010000              104.93466155              -23.18253370              -31.74230236               59.19589790              186.25378622               -1.56438409
              38.64847477               10.65251219               95.27317986                0.00010000               84.31114483              -20.18488928              -27.07201655               66.14405864              189.63302857               -7.31649295
              40.38829992                9.92283593               93.75907164                0.00010000               60.78998186              -15.11813447              -25.67848703               59.41884968              174.85136732              -16.56138994
              41.86427440                8.95992323               91.51015254                0.00010000               39.43637710               -2.40489903              -34.66383068               35.06884648              123.33106654              -32.42595295
              43.17702746                7.63396927               88.06198140                0.35645586               31.27530566               26.94453230              -96.89268281               19.00435840               80.33397953              -64.44061860
              25.72052482               15.50055256               99.32955827                1.00000000                0.00211931                0.00410285                0.00141534                0.04326677                0.01804807                0.36647395
              26.72054601               14.92728642               98.91194453                0.68341744                0.01037218               -0.03392270                0.00796500                0.08197167                0.04184309               -0.07400795
              27.72073226               14.35477615               98.49482615                0.00010000               74.88848506               -0.04076440               -0.00819257               -0.94548353               17.44807433               -0.39711814
              30.21831572               13.76068480               98.42471331                0.00010000              162.58025086              -22.48221154              -50.90548091                5.20875316              114.88883830               -0.46620937
              32.97233728               13.14540503               97.78392165                0.00010000              163.97621562              -33.35529237              -46.70540982               17.03023553              146.42675584               -0.11087166
              35.49784003               12.55699178               97.05386144                0.00010000              140.48584754              -34.79268501              -39.85691255               31.15389809              174.72414159               -0.38231581
              37.78205423               11.99203928               96.12270520                0.00010000              116.98336830              -31.52957918              -33.49858292               41.34662966              188.20136388               -2.22994791
              39.83750739               11.41199824               94.91063791                0.00010000               93.62197792              -26.18833398              -29.00885581               44.68377473              191.24634411               -5.94676417
              41.65449379               10.75571328               93.25614184                0.00010000               66.58353558              -17.53317170              -27.99557868               38.63684908              175.96175364              -12.17704618
              43.16917811                9.94301759               90.83857796                0.00010000               42.31041156               -1.55236523              -37.34119433               22.12851261              123.62397961              -22.61207295
              44.50070202                8.89933612               87.20512690                0.35663948               33.15239167               25.69423476              -99.33245708               11.98121098               79.99604269              -42.77938919
              26.29437262               16.50053002               99.18922131                1.00000000                0.00567205               -0.01118095                0.00497959                0.02300759                0.01963941                0.33666462
              27.29442934               15.92690860               98.76876992                0.47795293                0.02640589               -0.02659555               -0.00436234                0.07198720                0.07140690               -0.14391992
              28.29490074               15.35417298               98.34931707                0.00010000               78.35089345               -0.13732335               -0.04445596              -13.65443863               18.50225830               -0.48987589
              30.86144721               14.50381160               98.29509021                0.00010000              170.76382403              -31.47182947              -51.25538340              -15.61258768              117.17411410               -3.93022849
              33.71017722               13.76567276               97.67051821                0.00010000              173.23890200              -43.44648311              -46.62954077                6.45479037              149.49796213               -2.36691036
              36.32622525               13.16680910               96.93134416                0.00010000              148.19129663              -41.40753202              -40.00187950               21.55179676              177.07730253               -1.62120283
              38.67400315               12.64475284               95.95638607                0.00010000              122.61255034              -36.10980210              -33.89005834               28.36449525              189.40901616               -2.34525233
              40.77847626               12.12874551               94.67226554                0.00010000               97.80072019              -29.12030011              -29.70485434               28.96777488              191.76955959               -4.72346283
              42.63001756               11.57217250               92.92387322                0.00010000               69.23727814              -18.73297244              -28.94045481               24.35157208              176.07337935               -8.83147326
              44.16322182               10.92887593               90.39706927                0.00010000               43.69985305               -1.44932904              -38.49630674               14.08355019              123.44637388              -15.23075147
              45.50401462               10.14785396               86.64720516                0.35628252               34.07927965               24.87971206             -100.55184099                7.59411143               79.81555726              -27.51855689
              26.86822783               17.50032894               99.04820900                0.76487434                0.01149723               -0.02497295               -0.01253707                0.00979954                0.03085222                0.27352742
              27.86834280               16.92675451               98.62507408                0.22115487                0.12563282               -0.00630604               -0.00802034               -0.04181781                0.12935310               -0.18026776
              28.87074049               16.35202968               98.20363582                0.00010000               81.31106907               -0.79638070               -0.39727511              -31.47852100               22.24077302               -0.68119714
              31.49456418               15.13124821               98.20405841                0.00010000              178.38475503              -49.73564124              -48.78113532              -26.73251063              124.15699964               -6.39398173
              34.43843559               14.27647537               97.64692396                0.00010000              177.76158484              -49.95056254              -44.29795390                0.94057564              155.64616212               -2.92073318
              37.04979588               13.72884114               96.90982991                0.00010000              147.44860722              -44.06034903              -38.24176941               13.64125856              179.03994580               -1.24923006
              39.38740773               13.26984324               95.90613993                0.00010000              121.98236761              -37.45148388              -33.01513914               15.82973944              189.67919495               -1.41937040
              41.48944323               12.82959224               94.57636500                0.00010000               97.69935410              -29.89730850              -29.19323158               14.97893410              191.23905978               -2.80266443
              43.34139481               12.38105383               92.77108914                0.00010000               69.28622060              -19.03996831              -28.54802995               12.36682171              175.50646108               -5.14006116
              44.87516764               11.91403101               90.18209567                0.00010000               43.66166834               -1.62163376              -38.17438591                7.45745164              122.95941505               -8.26114942
              46.21462818               11.39693036               86.36242335                0.35651887               33.94605356               25.47306686             -100.83126987                3.80233946               79.58547721              -14.48778469
              27.44171747               18.50003056               98.90636107                0.82325383                0.01747688               -0.02983714                0.02213658                0.02415498                0.13041536                0.23185798
              28.44189224               17.92678247               98.48131524                0.49977840                0.95595713                0.00279675               -0.02941301               -0.73431627                0.39213881               -0.19275155
              29.46083661               17.33824537               98.06078025                0.35869195               98.02295368               -1.37843165               -3.95512285              -61.87457227               45.97829157               -6.74059985
              32.40235131               15.50909878               98.26206314                0.35922617              183.52795971              -62.21494367              -43.24129041              -37.80048004              143.05126869              -18.87275572
              35.13139581               14.76666151               97.76364619                0.35963202              160.16656201              -50.98138603              -39.12756479                8.12118934              158.45576734               -8.24060272
              37.60568255               14.28560212               97.01303626                0.35971174              137.92255153              -44.32390151              -36.01176728               12.04175003              177.44063545               -6.07528006
              39.88984684               13.89572316               95.98659426                0.35923057              118.05808939              -37.41200734              -31.69854520               12.50377147              188.67679609               -6.24345154
              41.96684434               13.53079934               94.64148543                0.35905226               95.15341924              -29.87929015              -27.55549090               12.52260930              191.63826954               -8.26521097
              43.79291522               13.19137313               92.82575638                0.35794346               66.48249924              -18.96807019              -25.73933274               13.43423661              176.13109549              -12.05498141
              45.29649433               12.89644325               90.22063931                0.35680928               41.06737371               -1.75877549              -34.94156878               15.42977647              123.34709281              -13.85614362
              46.61426270               12.65731530               86.38027113                0.67842866               31.77683713               26.03849384              -97.76857436               16.05065643               80.76420627              -17.89655277
              22.13138972                8.63497927              101.31050143                1.00000000                0.01800785                0.06737646               -0.00990016               -0.03257157               -0.05174044                0.06588172
              23.13156980                8.06879242              100.90745912                1.00000000                0.05025124                0.01998631               -0.01932934               -0.09111090               -0.07125738                0.01677693
              24.13239474                7.50287954              100.50404657                1.00000000                0.09098828               -0.02162198               -0.01289253               -0.11635422               -0.08723256                0.02908993
              25.13338956                6.93887032              100.10085668                1.00000000                0.13559568               -0.03079721               -0.01148972               -0.00897940               -0.07315641                0.02809135
              26.13510666                6.37710122               99.69790450                1.00000000                0.23724216               -0.02521572               -0.01888884                0.10495228                0.04170597                0.02636767
              27.13813441                5.81872214               99.29622790                1.00000000                0.33828681               -0.05922937               -0.00439567                0.29525777                0.35449725                0.04023767
              28.14187239                5.26410591               98.89683321                1.00000000                0.28018096                0.00857029                0.07545028                0.41656669                0.64304497               -0.00533819
              29.14373802                4.70825626               98.49698963                1.00000000                0.12631174                0.03230944                0.09955695                0.44489095                0.56210583               -0.05426156
              30.14439863                4.14475757               98.09391884                1.00000000                0.08226334               -0.03939803                0.03905271                0.31686253                0.26195844               -0.07394677
              31.14538329                3.57208641               97.68587637                1.00000000                0.10332959               -0.02890105               -0.04961049                0.16937757               -0.03821464               -0.00795933
              32.14646522                2.99358322               97.27313960                1.00000000                0.10819281               -0.13394038               -0.27535171                0.27025252               -0.23345948               -0.53077901
              22.69725085                9.63565304              101.16908211                1.00000000               -0.05422953                0.13580396               -0.00827421                0.00716450                0.03932591                0.11879525
              23.69670856                9.06899229              100.76628696                1.00000000               -0.05292999                0.05644514                0.00869420               -0.04572779                0.05545201                0.01766557
              24.69619225                8.50266332              100.36413293                1.00000000               -0.02598163               -0.01768582                0.02698028               -0.05222310                0.05221233               -0.00309144
              25.69618892                7.93856235               99.96205356                1.00000000                0.00190093                0.00567527                0.00722612               -0.02754759                0.06110365                0.05083292
              26.69623027                7.37684907               99.56002739                1.00000000                0.06978588               -0.00785104               -0.02534427                0.14206869                0.13635109                0.00422697
              27.69758464                6.81812985               99.15833520                1.00000000                0.25203636               -0.07956649               -0.10319123                0.76952181                0.36390093               -0.03999613
              28.70127100                6.26419161               98.75681971                1.00000000                0.51382313               -0.35303190               -0.30496792                7.09992128                0.83059825               -1.57098390
              29.70786110                5.70857936               98.35672544                1.00000000                0.71905897                1.33140716               -0.37415861               32.62612177                1.42535211               -6.01965969
              30.71565218                5.14436359               97.95811148                1.00000000                0.74015678                4.74916898               -0.30879764               71.53488853                1.85416756              -12.33404572
              31.72266424                4.57179740               97.55909743                1.00000000                0.60093804               11.27322931               -0.24356981              118.88396590                1.75076124              -16.34706435
              32.72767094                3.99224382               97.15131289                1.00000000                0.50066981              -44.95337173               -0.38738021              169.33021485                1.52839628              -63.67099310
              23.26485451               10.63769535              101.02851359                1.00000000               -0.12095468                0.22994980               -0.03852719                0.17477904                0.07600853                0.21175262
              24.26364496               10.06992133              100.62471302                1.00000000               -0.15371457                0.08395302                0.02179555                0.19650909                0.14037612                0.01527168
              25.26178022                9.50252582              100.22285585                1.00000000               -0.24960520               -0.09809396                0.09841997                0.46414236                0.29570459               -0.27169286
              26.25865286                8.93898383               99.82375185                1.00000000               -0.16998421               25.85931995                0.03947115              107.36681992                0.28989457              -14.47541215
              27.25838053                8.37694420               99.42201188                1.00000000                0.37647195               23.02682820               -0.07143487              157.28013847                0.24746887              -13.62034603
              28.26618230                7.81713081               99.01914367                1.00000000                6.75203860               21.76756515               -0.43032422              189.00506265               -0.43697056              -16.01598459
              29.39342131                7.25704527               98.58408733                1.00000000               32.49530926               20.25729713               -4.23879259              217.06516127                7.99081661              -19.61191123
              30.91608848                6.73488441               98.09546782                1.00000000               65.92285225               20.76826164              -13.33564937              243.43811853               55.21829836              -22.61604634
              32.71187835                6.23974095               97.57761430                1.00000000               87.95469475               24.90585065              -24.91138412              271.39299197              133.19785815              -28.96667042
              34.67518238                5.79755100               97.10651407                1.00000000               99.01491691               23.71977540              -31.05413409              239.80166162              184.14639451              -45.59184915
              36.69217669                4.09451579               95.76729036                1.00000000              101.69943111              -39.26207000             -113.68192032              193.84663146              229.24191233             -236.58289970
              23.83629448               11.64025203              100.88854885                1.00000000               -0.04862123                0.21701907               -0.04375498                0.33452591                0.06012232                0.28447098
              24.83580827               11.07067135              100.48223573                1.00000000                0.00590575                0.02846854                0.00443609                0.37366217                0.06053452               -0.00381495
              25.83641260               10.50070144              100.07587505                1.00000000              106.66493332               -0.18377354                0.05711671               26.72563392              -13.65890631               -0.40066726
              28.96910694               10.45574875               99.39499994                1.00000000              156.36367293               24.04439276              -54.65095622              151.66638553              140.64141982                1.43491062
              30.96368606                9.83738563               99.01280043                1.00000000               81.42389451               29.40454684              -36.66574123              206.27317446              187.94262680               -4.61565090
              32.59758483                9.25348115               98.56549383                1.00000000               58.05672842               29.17353356              -32.20037997              263.25452668              198.06562956               -8.07766071
              34.12482063                8.66933755               98.09754616                1.00000000               49.81714845               29.94714290              -28.72422653              303.38396415              207.00198038              -13.22361400
              35.59392780                8.12394459               97.56753746                1.00000000               47.80123979               30.57555906              -26.06336702              322.17970321              211.35010203              -18.77663408
              37.08084542                7.64248060               96.91463902                1.00000000               53.49974174               29.12908351              -22.25406183              319.96327343              211.99320685              -25.68593482
              38.66392263                7.04619291               95.93244943                1.00000000               46.49142866               12.25724440              -12.60404977              247.41238020              180.46316948              -57.08359670
              40.01067400                5.20700242               93.73141148                1.00000000               34.67513629                0.97798099              -26.15943224              163.39010240              117.15747615             -136.42069012
              24.41070640               12.64203573              100.74891161                1.00000000               -0.00375970                0.12768139               -0.02814534                0.34613580                0.03793233                0.30948072
              25.41066880               12.07049070              100.33950763                1.00000000                0.02545476               -0.02284043                0.00565206                0.36965401                0.03649452               -0.00712796
              26.41121550               11.49885035               99.92985237                1.00000000              127.23137856               -0.15172812                0.01877107               24.99361130              -16.14717942               -0.33614174
              29.95529638               11.41987168               99.19632179                1.00000000              208.74480638               -7.57181952              -65.05526608               65.37072225              136.50849143                2.14095532
              32.58611162               10.96503514               98.81256015                1.00000000              137.20122674                1.28488904              -44.93665629               88.67262730              197.78457991                4.80674802
              34.69932091               10.40060148               98.30591124                1.00000000              100.22627619                4.10629386              -37.52447643              125.79517246              210.51340383                1.96105743
              36.59063715                9.85598813               97.72602991                1.00000000               84.36092954                6.90240610              -31.55898140              162.87947766              219.00553402               -1.94873250
              38.38653950                9.34639559               97.00406841                1.00000000               79.91291753                8.29936914              -27.50946134              195.11479755              222.61270377               -7.92885888
              40.18889550                8.82232262               96.00600512                1.00000000               83.61843320                3.09264025              -24.29555372              211.15034814              218.30787313              -19.61664265
              42.05890817                8.04269589               94.42970932                1.00000000               72.47321141              -10.93355457              -19.80346557              165.74710522              169.52933384              -40.43522582
              43.63835973                6.11407541               91.32173087                1.00000000               57.94515618               -1.27792650              -61.32805961              122.67817089              125.36046797             -111.69402445
              24.98630727               13.64280566              100.60930723                1.00000000                0.00794651                0.05693297               -0.01078776                0.31267621                0.02381135                0.29800441
              25.98638674               13.07021454              100.19695831                1.00000000                0.02982840               -0.03281599                0.00335358                0.31896637                0.02318963               -0.00251768
              26.98690384               12.49766687               99.78435436                1.00000000              141.19749269               -0.09423843               -0.00238837               19.27554088              -20.01311696               -0.29550492
              30.81033659               12.30431236               98.97077263                1.00000000              238.47524824              -14.35315077              -75.16358855               48.39962532              138.53493664               -0.94545579
              33.75640881               11.86308341               98.59021869                1.00000000              170.60993496              -16.68071733              -52.05181582               58.31339378              203.32568432                1.51038875
              36.22253529               11.33560703               98.02999623                1.00000000              134.01036335              -15.21817501              -43.35006660               83.78474098              216.49979305                0.90037314
              38.43661607               10.80738568               97.33862761                1.00000000              115.36769842              -14.15364179              -35.89709736              112.76742829              224.86802768               -1.63894265
              40.52988926               10.28993197               96.43009596                1.00000000              108.54680055              -14.95494087              -31.00348052              136.12086016              227.27127709               -6.02598248
              42.60755208                9.70433340               95.14851009                1.00000000              107.86113441              -19.08502979              -28.04901895              141.17332164              220.49588058              -13.29872084
              44.68711195                8.82752182               93.17196508                1.00000000               85.69631470              -22.06121026              -26.08924000              103.73768990              172.72578025              -27.26078378
              46.32147838                7.18144389               89.58667082                1.00000000               63.43664304                7.65574113              -68.89405795               69.73415646              126.74771896              -66.88823117
              25.56214217               14.64317439              100.46952866                1.00000000                0.00447485                0.03810901               -0.00495076                0.26753551                0.02148152                0.28463969
              26.56218692               14.06983438              100.05457632                1.00000000                0.02431621               -0.04574446                0.00796932                0.28864759                0.01576019               -0.02156219
              27.56262850               13.49696558               99.63949703                1.00000000              149.78427124               -0.06436623                0.00059206               10.76061173              -23.00014811               -0.29334162
              31.55787234               13.13280867               98.76373395                1.00000000              257.92281684              -20.23925238              -80.90525253               28.41619519              137.77245386               -1.30297856
              34.72108483               12.63142079               98.37500347                1.00000000              193.64205614              -28.89154241              -56.59593458               38.33326195              205.94942121                0.12330472
              37.43071347               12.09623798               97.77231168                1.00000000              158.52879672              -30.84587939              -47.02444664               58.04343204              218.83599998                0.04669967
              39.89166077               11.57291529               96.98985961                1.00000000              139.06477538              -30.30325801              -38.95548737               79.25582377              227.09663415               -1.44930521
              42.21200898               11.04729677               95.93507687                1.00000000              129.15556587              -29.92814716              -33.81029905               93.69057652              229.23623197               -4.32594712
              44.47477208               10.44062202               94.44751583                1.00000000              122.22712528              -29.26826700              -31.15558106               92.59599463              222.47742983               -9.39544114
              46.65655148                9.60147168               92.21168114                1.00000000               92.52133193              -22.02335425              -29.84714054               64.07276808              173.95038668              -18.38561479
              48.32519872                8.26719023               88.34196941                1.00000000               66.86472423                7.87636157              -72.00119861               41.89957540              127.84595395              -42.13547364
              26.13833801               15.64356784              100.32954717                1.00000000                0.00304891                0.03679695               -0.00111000                0.22126977                0.02984362                0.28840471
              27.13836850               15.06929965               99.91203241                1.00000000                0.04018863               -0.04688685                0.00878828                0.29256778                0.03153573               -0.09190610
              28.13914179               14.49637955               99.49453290                1.00000000              155.29183892               -0.08469506               -0.02932485               -0.72675553              -24.46029894               -0.39876208
              32.24420528               13.89952731               98.58600738                1.00000000              271.02514723              -27.80903884              -83.87059280                5.77424581              137.63233211               -1.51573286
              35.55964473               13.28525256               98.19540041                1.00000000              209.88520761              -40.83752927              -58.85212457               20.64681958              207.61936921               -0.47818198
              38.44190943               12.71868944               97.56377987                1.00000000              175.55145136              -43.36568141              -49.00815720               39.94580128              220.36190853               -0.49813040
              41.07067376               12.20132052               96.71449976                1.00000000              154.70423131              -41.55235344              -40.82054339               55.51269259              228.37335177               -1.39256485
              43.53599406               11.69136903               95.55400785                1.00000000              141.73116522              -38.75269954              -35.66300611               63.50441476              230.37513281               -3.37596467
              45.90529706               11.11896806               93.92502909                1.00000000              130.30025204              -33.63703471              -33.11127551               60.27435614              223.43772895               -6.78198641
              48.14199910               10.38705474               91.52115588                1.00000000               96.13678661              -21.36921385              -31.74220776               40.60605359              174.90661641              -12.53475674
              49.82803280                9.33897112               87.47751942                1.00000000               68.60336939                6.18007761              -72.76074819               26.26558928              128.36943124              -27.30255970
              26.71510395               16.64391033              100.18926618                1.00000000                0.01226173                0.02647587                0.00448722                0.16778693                0.01768774                0.26498781
              27.71522657               16.06889664               99.76871173                1.00000000                0.13808870               -0.03095580               -0.00581894                0.25383532                0.03216291               -0.15462208
              28.71786573               15.49527168               99.34831499                1.00000000              158.46288394               -0.39645773               -0.10020845              -15.99988130              -23.35237412               -0.80356749
              32.88448425               14.57662789               98.45573427                1.00000000              279.84966859              -41.61903598              -83.93559324              -20.64866212              139.17519248               -1.35681347
              36.31485910               13.81467021               98.08574476                1.00000000              221.45386476              -54.29477011              -58.47734444                7.59268224              209.62916142               -0.57639281
              39.31356154               13.22892435               97.43895375                1.00000000              185.71879652              -52.14475252              -49.23904142               27.59690085              221.61868296               -0.22551521
              42.02923503               12.74186822               96.54344584                1.00000000              162.54440892              -47.88678156              -41.29402286               37.79258336              229.01630027               -1.01068399
              44.56444972               12.27224278               95.30881600                1.00000000              147.76692373              -43.37423322              -36.34495407               40.56649990              230.69338154               -2.50766738
              46.98457350               11.76788133               93.58536654                1.00000000              134.21098892              -36.39551299              -33.85066758               37.36873296              223.66037988               -4.81958268
              49.24866950               11.17408741               91.07291171                1.00000000               98.10521206              -22.14804394              -32.41575687               25.32111625              175.10885203               -8.40100374
              50.94667774               10.39079178               86.91664822                1.00000000               69.80082439                4.17306876              -73.05569365               16.75091547              128.63996438              -17.84155058
              27.29172114               17.64409736              100.04808630                1.00000000                0.03627277                0.00905889               -0.01226949                0.12794301                0.03708770                0.24632733
              28.29208386               17.06868053               99.62496387                1.00000000                0.98458879               -0.02245252               -0.01102102               -0.07817208               -0.21700139               -0.20090359
              29.31141291               16.48845040               99.19626415                1.00000000              160.98748231               -6.64494525               -0.73716715              -28.07925138              -16.51902433               -4.67000143
              33.51183351               15.06714659               98.41323853                1.00000000              287.38945010              -68.63505880              -79.08198780              -36.69460474              146.20760757               -1.27119083
              37.05920191               14.19935716               98.08587765                1.00000000              227.74079635              -62.25681446              -56.10463134                2.02873535              213.16665919                1.34532948
              40.06664944               13.67579439               97.43503906                1.00000000              186.20025425              -55.56865452              -47.47908474               18.05949771              222.39423916                0.79092996
              42.78320700               13.24358488               96.50005532                1.00000000              162.73307588              -49.63694726              -40.60846086               20.87244040              228.67097163               -0.26687127
              45.32131096               12.82388437               95.21685996                1.00000000              148.38100480              -44.98456195              -35.95050429               20.03029153              230.04499509               -1.33210252
              47.75082710               12.39105780               93.43721977                1.00000000              135.21000086              -39.19413381              -33.38693662               17.94684359              223.23587270               -2.48793996
              50.02551097               11.94409386               90.86271285                1.00000000               98.94076302              -24.21676066              -31.93828223               12.69226632              174.91398261               -4.41541508
              51.72964236               11.42243249               86.63481277                1.00000000               70.41313836                2.25456370              -72.76105764                8.72580710              128.71140985               -9.72540738
              27.86849646               18.64409151               99.90665588                1.00000000                0.08136291               -0.00058493                0.02948050                0.11314058                0.09647131                0.26305232
              28.86931009               18.06844759               99.48084160                1.00000000               14.46590894               -0.02329435               -0.04736389               -6.36331413               -3.48733228               -0.24571554
              30.15781464               17.36237277               98.98207353                1.00000000              178.51876472              -12.60776212               -7.87067234              -58.58587100               23.58140767              -19.00632125
              34.43968539               15.20392671               98.55851370                1.00000000              279.44856832              -86.32198769              -70.35494403              -46.85675520              167.97411887              -15.98968971
              37.74678601               14.56953392               98.26688776                1.00000000              209.54191943              -62.98232423              -49.67584311               14.43963666              211.65662727               -1.61174750
              40.63052377               14.11755126               97.56086584                1.00000000              177.59039250              -55.82431257              -45.21704150               15.36720161              218.67098983               -4.22240790
              43.29859386               13.74912928               96.59062511                1.00000000              159.35294278              -49.44556060              -39.59691500               14.28869970              227.51089470               -5.60240877
              45.81758263               13.37255154               95.29358970                1.00000000              146.23535125              -45.13328253              -34.78957349               11.37063613              231.32256316               -8.15180583
              48.22330088               12.98399865               93.51559980                1.00000000              132.67787532              -40.70591543              -31.01565840               13.10741132              224.58296626              -12.89944569
              50.47114014               12.68975219               90.92447770                1.00000000               97.06078644              -25.43416636              -29.61616049               17.15713665              175.24138167              -14.49262031
              52.16451661               12.43588306               86.67113581                1.00000000               69.33764745                1.34505614              -70.91353198               18.10051171              129.69120205              -18.51092054
         1          2         13         12        122        123        134        133  
         2          3         14         13        123        124        135        134  
         3          4         15         14        124        125        136        135  
         4          5         16         15        125        126        137        136  
         5          6         17         16        126        127        138        137  
         6          7         18         17        127        128        139        138  
         7          8         19         18        128        129        140        139  
         8          9         20         19        129        130        141        140  
         9         10         21         20        130        131        142        141  
        10         11         22         21        131        132        143        142  
        12         13         24         23        133        134        145        144  
        13         14         25         24        134        135        146        145  
        14         15         26         25        135        136        147        146  
        15         16         27         26        136        137        148        147  
        16         17         28         27        137        138        149        148  
        17         18         29         28        138        139        150        149  
        18         19         30         29        139        140        151        150  
        19         20         31         30        140        141        152        151  
        20         21         32         31        141        142        153        152  
        21         22         33         32        142        143        154        153  
        23         24         35         34        144        145        156        155  
        24         25         36         35        145        146        157        156  
        25         26         37         36        146        147        158        157  
        26         27         38         37        147        148        159        158  
        27         28         39         38        148        149        160        159  
        28         29         40         39        149        150        161        160  
        29         30         41         40        150        151        162        161  
        30         31         42         41        151        152        163        162  
        31         32         43         42        152        153        164        163  
        32         33         44         43        153        154        165        164  
        34         35         46         45        155        156        167        166  
        35         36         47         46        156        157        168        167  
        36         37         48         47        157        158        169        168  
        37         38         49         48        158        159        170        169  
        38         39         50         49        159        160        171        170  
        39         40         51         50        160        161        172        171  
        40         41         52         51        161        162        173        172  
        41         42         53         52        162        163        174        173  
        42         43         54         53        163        164        175        174  
        43         44         55         54        164        165        176        175  
        45         46         57         56        166        167        178        177  
        46         47         58         57        167        168        179        178  
        47         48         59         58        168        169        180        179  
        48         49         60         59        169        170        181        180  
        49         50         61         60        170        171        182        181  
        50         51         62         61        171        172        183        182  
        51         52         63         62        172        173        184        183  
        52         53         64         63        173        174        185        184  
        53         54         65         64        174        175        186        185  
        54         55         66         65        175        176        187        186  
        56         57         68         67        177        178        189        188  
        57         58         69         68        178        179        190        189  
        58         59         70         69        179        180        191        190  
        59         60         71         70        180        181        192        191  
        60         61         72         71        181        182        193        192  
        61         62         73         72        182        183        194        193  
        62         63         74         73        183        184        195        194  
        63         64         75         74        184        185        196        195  
        64         65         76         75        185        186        197        196  
        65         66         77         76        186        187        198        197  
        67         68         79         78        188        189        200        199  
        68         69         80         79        189        190        201        200  
        69         70         81         80        190        191        202        201  
        70         71         82         81        191        192        203        202  
        71         72         83         82        192        193        204        203  
        72         73         84         83        193        194        205        204  
        73         74         85         84        194        195        206        205  
        74         75         86         85        195        196        207        206  
        75         76         87         86        196        197        208        207  
        76         77         88         87        197        198        209        208  
        78         79         90         89        199        200        211        210  
        79         80         91         90        200        201        212        211  
        80         81         92         91        201        202        213        212  
        81         82         93         92        202        203        214        213  
        82         83         94         93        203        204        215        214  
        83         84         95         94        204        205        216        215  
        84         85         96         95        205        206        217        216  
        85         86         97         96        206        207        218        217  
        86         87         98         97        207        208        219        218  
        87         88         99         98        208        209        220        219  
        89         90        101        100        210        211        222        221  
        90         91        102        101        211        212        223        222  
        91         92        103        102        212        213        224        223  
        92         93        104        103        213        214        225        224  
        93         94        105        104        214        215        226        225  
        94         95        106        105        215        216        227        226  
        95         96        107        106        216        217        228        227  
        96         97        108        107        217        218        229        228  
        97         98        109        108        218        219        230        229  
        98         99        110        109        219        220        231        230  
       100        101        112        111        221        222        233        232  
       101        102        113        112        222        223        234        233  
       102        103        114        113        223        224        235        234  
       103        104        115        114        224        225        236        235  
       104        105        116        115        225        226        237        236  
       105        106        117        116        226        227        238        237  
       106        107        118        117        227        228        239        238  
       107        108        119        118        228        229        240        239  
       108        109        120        119        229        230        241        240  
       109        110        121        120        230        231        242        241  
       122        123        134        133        243        244        255        254  
       123        124        135        134        244        245        256        255  
       124        125        136        135        245        246        257        256  
       125        126        137        136        246        247        258        257  
       126        127        138        137        247        248        259        258  
       127        128        139        138        248        249        260        259  
       128        129        140        139        249        250        261        260  
       129        130        141        140        250        251        262        261  
       130        131        142        141        251        252        263        262  
       131        132        143        142        252        253        264        263  
       133        134        145        144        254        255        266        265  
       134        135        146        145        255        256        267        266  
       135        136        147        146        256        257        268        267  
       136        137        148        147        257        258        269        268  
       137        138        149        148        258        259        270        269  
       138        139        150        149        259        260        271        270  
       139        140        151        150        260        261        272        271  
       140        141        152        151        261        262        273        272  
       141        142        153        152        262        263        274        273  
       142        143        154        153        263        264        275        274  
       144        145        156        155        265        266        277        276  
       145        146        157        156        266        267        278        277  
       146        147        158        157        267        268        279        278  
       147        148        159        158        268        269        280        279  
       148        149        160        159        269        270        281        280  
       149        150        161        160        270        271        282        281  
       150        151        162        161        271        272        283        282  
       151        152        163        162        272        273        284        283  
       152        153        164        163        273        274        285        284  
       153        154        165        164        274        275        286        285  
       155        156        167        166        276        277        288        287  
       156        157        168        167        277        278        289        288  
       157        158        169        168        278        279        290        289  
       158        159        170        169        279        280        291        290  
       159        160        171        170        280        281        292        291  
       160        161        172        171        281        282        293        292  
       161        162        173        172        282        283        294        293  
       162        163        174        173        283        284        295        294  
       163        164        175        174        284        285        296        295  
       164        165        176        175        285        286        297        296  
       166        167        178        177        287        288        299        298  
       167        168        179        178        288        289        300        299  
       168        169        180        179        289        290        301        300  
       169        170        181        180        290        291        302        301  
       170        171        182        181        291        292        303        302  
       171        172        183        182        292        293        304        303  
       172        173        184        183        293        294        305        304  
       173        174        185        184        294        295        306        305  
       174        175        186        185        295        296        307        306  
       175        176        187        186        296        297        308        307  
       177        178        189        188        298        299        310        309  
       178        179        190        189        299        300        311        310  
       179        180        191        190        300        301        312        311  
       180        181        192        191        301        302        313        312  
       181        182        193        192        302        303        314        313  
       182        183        194        193        303        304        315        314  
       183        184        195        194        304        305        316        315  
       184        185        196        195        305        306        317        316  
       185        186        197        196        306        307        318        317  
       186        187        198        197        307        308        319        318  
       188        189        200        199        309        310        321        320  
       189        190        201        200        310        311        322        321  
       190        191        202        201        311        312        323        322  
       191        192        203        202        312        313        324        323  
       192        193        204        203        313        314        325        324  
       193        194        205        204        314        315        326        325  
       194        195        206        205        315        316        327        326  
       195        196        207        206        316        317        328        327  
       196        197        208        207        317        318        329        328  
       197        198        209        208        318        319        330        329  
       199        200        211        210        320        321        332        331  
       200        201        212        211        321        322        333        332  
       201        202        213        212        322        323        334        333  
       202        203        214        213        323        324        335        334  
       203        204        215        214        324        325        336        335  
       204        205        216        215        325        326        337        336  
       205        206        217        216        326        327        338        337  
       206        207        218        217        327        328        339        338  
       207        208        219        218        328        329        340        339  
       208        209        220        219        329        330        341        340  
       210        211        222        221        331        332        343        342  
       211        212        223        222        332        333        344        343  
       212        213        224        223        333        334        345        344  
       213        214        225        224        334        335        346        345  
       214        215        226        225        335        336        347        346  
       215        216        227        226        336        337        348        347  
       216        217        228        227        337        338        349        348  
       217        218        229        228        338        339        350        349  
       218        219        230        229        339        340        351        350  
       219        220        231        230        340        341        352        351  
       221        222        233        232        342        343        354        353  
       222        223        234        233        343        344        355        354  
       223        224        235        234        344        345        356        355  
       224        225        236        235        345        346        357        356  
       225        226        237        236        346        347        358        357  
       226        227        238        237        347        348        359        358  
       227        228        239        238        348        349        360        359  
       228        229        240        239        349        350        361        360  
       229        230        241        240        350        351        362        361  
       230        231        242        241        351        352        363        362  
       243        244        255        254        364        365        376        375  
       244        245        256        255        365        366        377        376  
       245        246        257        256        366        367        378        377  
       246        247        258        257        367        368        379        378  
       247        248        259        258        368        369        380        379  
       248        249        260        259        369        370        381        380  
       249        250        261        260        370        371        382        381  
       250        251        262        261        371        372        383        382  
       251        252        263        262        372        373        384        383  
       252        253        264        263        373        374        385        384  
       254        255        266        265        375        376        387        386  
       255        256        267        266        376        377        388        387  
       256        257        268        267        377        378        389        388  
       257        258        269        268        378        379        390        389  
       258        259        270        269        379        380        391        390  
       259        260        271        270        380        381        392        391  
       260        261        272        271        381        382        393        392  
       261        262        273        272        382        383        394        393  
       262        263        274        273        383        384        395        394  
       263        264        275        274        384        385        396        395  
       265        266        277        276        386        387        398        397  
       266        267        278        277        387        388        399        398  
       267        268        279        278        388        389        400        399  
       268        269        280        279        389        390        401        400  
       269        270        281        280        390        391        402        401  
       270        271        282        281        391        392        403        402  
       271        272        283        282        392        393        404        403  
       272        273        284        283        393        394        405        404  
       273        274        285        284        394        395        406        405  
       274        275        286        285        395        396        407        406  
       276        277        288        287        397        398        409        408  
       277        278        289        288        398        399        410        409  
       278        279        290        289        399        400        411        410  
       279        280        291        290        400        401        412        411  
       280        281        292        291        401        402        413        412  
       281        282        293        292        402        403        414        413  
       282        283        294        293        403        404        415        414  
       283        284        295        294        404        405        416        415  
       284        285        296        295        405        406        417        416  
       285        286        297        296        406        407        418        417  
       287        288        299        298        408        409        420        419  
       288        289        300        299        409        410        421        420  
       289        290        301        300        410        411        422        421  
       290        291        302        301        411        412        423        422  
       291        292        303        302        412        413        424        423  
       292        293        304        303        413        414        425        424  
       293        294        305        304        414        415        426        425  
       294        295        306        305        415        416        427        426  
       295        296        307        306        416        417        428        427  
       296        297        308        307        417        418        429        428  
       298        299        310        309        419        420        431        430  
       299        300        311        310        420        421        432        431  
       300        301        312        311        421        422        433        432  
       301        302        313        312        422        423        434        433  
       302        303        314        313        423        424        435        434  
       303        304        315        314        424        425        436        435  
       304        305        316        315        425        426        437        436  
       305        306        317        316        426        427        438        437  
       306        307        318        317        427        428        439        438  
       307        308        319        318        428        429        440        439  
       309        310        321        320        430        431        442        441  
       310        311        322        321        431        432        443        442  
       311        312        323        322        432        433        444        443  
       312        313        324        323        433        434        445        444  
       313        314        325        324        434        435        446        445  
       314        315        326        325        435        436        447        446  
       315        316        327        326        436        437        448        447  
       316        317        328        327        437        438        449        448  
       317        318        329        328        438        439        450        449  
       318        319        330        329        439        440        451        450  
       320        321        332        331        441        442        453        452  
       321        322        333        332        442        443        454        453  
       322        323        334        333        443        444        455        454  
       323        324        335        334        444        445        456        455  
       324        325        336        335        445        446        457        456  
       325        326        337        336        446        447        458        457  
       326        327        338        337        447        448        459        458  
       327        328        339        338        448        449        460        459  
       328        329        340        339        449        450        461        460  
       329        330        341        340        450        451        462        461  
       331        332        343        342        452        453        464        463  
       332        333        344        343        453        454        465        464  
       333        334        345        344        454        455        466        465  
       334        335        346        345        455        456        467        466  
       335        336        347        346        456        457        468        467  
       336        337        348        347        457        458        469        468  
       337        338        349        348        458        459        470        469  
       338        339        350        349        459        460        471        470  
       339        340        351        350        460        461        472        471  
       340        341        352        351        461        462        473        472  
       342        343        354        353        463        464        475        474  
       343        344        355        354        464        465        476        475  
       344        345        356        355        465        466        477        476  
       345        346        357        356        466        467        478        477  
       346        347        358        357        467        468        479        478  
       347        348        359        358        468        469        480        479  
       348        349        360        359        469        470        481        480  
       349        350        361        360        470        471        482        481  
       350        351        362        361        471        472        483        482  
       351        352        363        362        472        473        484        483  
       364        365        376        375        485        486        497        496  
       365        366        377        376        486        487        498        497  
       366        367        378        377        487        488        499        498  
       367        368        379        378        488        489        500        499  
       368        369        380        379        489        490        501        500  
       369        370        381        380        490        491        502        501  
       370        371        382        381        491        492        503        502  
       371        372        383        382        492        493        504        503  
       372        373        384        383        493        494        505        504  
       373        374        385        384        494        495        506        505  
       375        376        387        386        496        497        508        507  
       376        377        388        387        497        498        509        508  
       377        378        389        388        498        499        510        509  
       378        379        390        389        499        500        511        510  
       379        380        391        390        500        501        512        511  
       380        381        392        391        501        502        513        512  
       381        382        393        392        502        503        514        513  
       382        383        394        393        503        504        515        514  
       383        384        395        394        504        505        516        515  
       384        385        396        395        505        506        517        516  
       386        387        398        397        507        508        519        518  
       387        388        399        398        508        509        520        519  
       388        389        400        399        509        510        521        520  
       389        390        401        400        510        511        522        521  
       390        391        402        401        511        512        523        522  
       391        392        403        402        512        513        524        523  
       392        393        404        403        513        514        525        524  
       393        394        405        404        514        515        526        525  
       394        395        406        405        515        516        527        526  
       395        396        407        406        516        517        528        527  
       397        398        409        408        518        519        530        529  
       398        399        410        409        519        520        531        530  
       399        400        411        410        520        521        532        531  
       400        401        412        411        521        522        533        532  
       401        402        413        412        522        523        534        533  
       402        403        414        413        523        524        535        534  
       403        404        415        414        524        525        536        535  
       404        405        416        415        525        526        537        536  
       405        406        417        416        526        527        538        537  
       406        407        418        417        527        528        539        538  
       408        409        420        419        529        530        541        540  
       409        410        421        420        530        531        542        541  
       410        411        422        421        531        532        543        542  
       411        412        423        422        532        533        544        543  
       412        413        424        423        533        534        545        544  
       413        414        425        424        534        535        546        545  
       414        415        426        425        535        536        547        546  
       415        416        427        426        536        537        548        547  
       416        417        428        427        537        538        549        548  
       417        418        429        428        538        539        550        549  
       419        420        431        430        540        541        552        551  
       420        421        432        431        541        542        553        552  
       421        422        433        432        542        543        554        553  
       422        423        434        433        543        544        555        554  
       423        424        435        434        544        545        556        555  
       424        425        436        435        545        546        557        556  
       425        426        437        436        546        547        558        557  
       426        427        438        437        547        548        559        558  
       427        428        439        438        548        549        560        559  
       428        429        440        439        549        550        561        560  
       430        431        442        441        551        552        563        562  
       431        432        443        442        552        553        564        563  
       432        433        444        443        553        554        565        564  
       433        434        445        444        554        555        566        565  
       434        435        446        445        555        556        567        566  
       435        436        447        446        556        557        568        567  
       436        437        448        447        557        558        569        568  
       437        438        449        448        558        559        570        569  
       438        439        450        449        559        560        571        570  
       439        440        451        450        560        561        572        571  
       441        442        453        452        562        563        574        573  
       442        443        454        453        563        564        575        574  
       443        444        455        454        564        565        576        575  
       444        445        456        455        565        566        577        576  
       445        446        457        456        566        567        578        577  
       446        447        458        457        567        568        579        578  
       447        448        459        458        568        569        580        579  
       448        449        460        459        569        570        581        580  
       449        450        461        460        570        571        582        581  
       450        451        462        461        571        572        583        582  
       452        453        464        463        573        574        585        584  
       453        454        465        464        574        575        586        585  
       454        455        466        465        575        576        587        586  
       455        456        467        466        576        577        588        587  
       456        457        468        467        577        578        589        588  
       457        458        469        468        578        579        590        589  
       458        459        470        469        579        580        591        590  
       459        460        471        470        580        581        592        591  
       460        461        472        471        581        582        593        592  
       461        462        473        472        582        583        594        593  
       463        464        475        474        584        585        596        595  
       464        465        476        475        585        586        597        596  
       465        466        477        476        586        587        598        597  
       466        467        478        477        587        588        599        598  
       467        468        479        478        588        589        600        599  
       468        469        480        479        589        590        601        600  
       469        470        481        480        590        591        602        601  
       470        471        482        481        591        592        603        602  
       471        472        483        482        592        593        604        603  
       472        473        484        483        593        594        605        604  
       485        486        497        496        606        607        618        617  
       486        487        498        497        607        608        619        618  
       487        488        499        498        608        609        620        619  
       488        489        500        499        609        610        621        620  
       489        490        501        500        610        611        622        621  
       490        491        502        501        611        612        623        622  
       491        492        503        502        612        613        624        623  
       492        493        504        503        613        614        625        624  
       493        494        505        504        614        615        626        625  
       494        495        506        505        615        616        627        626  
       496        497        508        507        617        618        629        628  
       497        498        509        508        618        619        630        629  
       498        499        510        509        619        620        631        630  
       499        500        511        510        620        621        632        631  
       500        501        512        511        621        622        633        632  
       501        502        513        512        622        623        634        633  
       502        503        514        513        623        624        635        634  
       503        504        515        514        624        625        636        635  
       504        505        516        515        625        626        637        636  
       505        506        517        516        626        627        638        637  
       507        508        519        518        628        629        640        639  
       508        509        520        519        629        630        641        640  
       509        510        521        520        630        631        642        641  
       510        511        522        521        631        632        643        642  
       511        512        523        522        632        633        644        643  
       512        513        524        523        633        634        645        644  
       513        514        525        524        634        635        646        645  
       514        515        526        525        635        636        647        646  
       515        516        527        526        636        637        648        647  
       516        517        528        527        637        638        649        648  
       518        519        530        529        639        640        651        650  
       519        520        531        530        640        641        652        651  
       520        521        532        531        641        642        653        652  
       521        522        533        532        642        643        654        653  
       522        523        534        533        643        644        655        654  
       523        524        535        534        644        645        656        655  
       524        525        536        535        645        646        657        656  
       525        526        537        536        646        647        658        657  
       526        527        538        537        647        648        659        658  
       527        528        539        538        648        649        660        659  
       529        530        541        540        650        651        662        661  
       530        531        542        541        651        652        663        662  
       531        532        543        542        652        653        664        663  
       532        533        544        543        653        654        665        664  
       533        534        545        544        654        655        666        665  
       534        535        546        545        655        656        667        666  
       535        536        547        546        656        657        668        667  
       536        537        548        547        657        658        669        668  
       537        538        549        548        658        659        670        669  
       538        539        550        549        659        660        671        670  
       540        541        552        551        661        662        673        672  
       541        542        553        552        662        663        674        673  
       542        543        554        553        663        664        675        674  
       543        544        555        554        664        665        676        675  
       544        545        556        555        665        666        677        676  
       545        546        557        556        666        667        678        677  
       546        547        558        557        667        668        679        678  
       547        548        559        558        668        669        680        679  
       548        549        560        559        669        670        681        680  
       549        550        561        560        670        671        682        681  
       551        552        563        562        672        673        684        683  
       552        553        564        563        673        674        685        684  
       553        554        565        564        674        675        686        685  
       554        555        566        565        675        676        687        686  
       555        556        567        566        676        677        688        687  
       556        557        568        567        677        678        689        688  
       557        558        569        568        678        679        690        689  
       558        559        570        569        679        680        691        690  
       559        560        571        570        680        681        692        691  
       560        561        572        571        681        682        693        692  
       562        563        574        573        683        684        695        694  
       563        564        575        574        684        685        696        695  
       564        565        576        575        685        686        697        696  
       565        566        577        576        686        687        698        697  
       566        567        578        577        687        688        699        698  
       567        568        579        578        688        689        700        699  
       568        569        580        579        689        690        701        700  
       569        570        581        580        690        691        702        701  
       570        571        582        581        691        692        703        702  
       571        572        583        582        692        693        704        703  
       573        574        585        584        694        695        706        705  
       574        575        586        585        695        696        707        706  
       575        576        587        586        696        697        708        707  
       576        577        588        587        697        698        709        708  
       577        578        589        588        698        699        710        709  
       578        579        590        589        699        700        711        710  
       579        580        591        590        700        701        712        711  
       580        581        592        591        701        702        713        712  
       581        582        593        592        702        703        714        713  
       582        583        594        593        703        704        715        714  
       584        585        596        595        705        706        717        716  
       585        586        597        596        706        707        718        717  
       586        587        598        597        707        708        719        718  
       587        588        599        598        708        709        720        719  
       588        589        600        599        709        710        721        720  
       589        590        601        600        710        711        722        721  
       590        591        602        601        711        712        723        722  
       591        592        603        602        712        713        724        723  
       592        593        604        603        713        714        725        724  
       593        594        605        604        714        715        726        725  
       606        607        618        617        727        728        739        738  
       607        608        619        618        728        729        740        739  
       608        609        620        619        729        730        741        740  
       609        610        621        620        730        731        742        741  
       610        611        622        621        731        732        743        742  
       611        612        623        622        732        733        744        743  
       612        613        624        623        733        734        745        744  
       613        614        625        624        734        735        746        745  
       614        615        626        625        735        736        747        746  
       615        616        627        626        736        737        748        747  
       617        618        629        628        738        739        750        749  
       618        619        630        629        739        740        751        750  
       619        620        631        630        740        741        752        751  
       620        621        632        631        741        742        753        752  
       621        622        633        632        742        743        754        753  
       622        623        634        633        743        744        755        754  
       623        624        635        634        744        745        756        755  
       624        625        636        635        745        746        757        756  
       625        626        637        636        746        747        758        757  
       626        627        638        637        747        748        759        758  
       628        629        640        639        749        750        761        760  
       629        630        641        640        750        751        762        761  
       630        631        642        641        751        752        763        762  
       631        632        643        642        752        753        764        763  
       632        633        644        643        753        754        765        764  
       633        634        645        644        754        755        766        765  
       634        635        646        645        755        756        767        766  
       635        636        647        646        756        757        768        767  
       636        637        648        647        757        758        769        768  
       637        638        649        648        758        759        770        769  
       639        640        651        650        760        761        772        771  
       640        641        652        651        761        762        773        772  
       641        642        653        652        762        763        774        773  
       642        643        654        653        763        764        775        774  
       643        644        655        654        764        765        776        775  
       644        645        656        655        765        766        777        776  
       645        646        657        656        766        767        778        777  
       646        647        658        657        767        768        779        778  
       647        648        659        658        768        769        780        779  
       648        649        660        659        769        770        781        780  
       650        651        662        661        771        772        783        782  
       651        652        663        662        772        773        784        783  
       652        653        664        663        773        774        785        784  
       653        654        665        664        774        775        786        785  
       654        655        666        665        775        776        787        786  
       655        656        667        666        776        777        788        787  
       656        657        668        667        777        778        789        788  
       657        658        669        668        778        779        790        789  
       658        659        670        669        779        780        791        790  
       659        660        671        670        780        781        792        791  
       661        662        673        672        782        783        794        793  
       662        663        674        673        783        784        795        794  
       663        664        675        674        784        785        796        795  
       664        665        676        675        785        786        797        796  
       665        666        677        676        786        787        798        797  
       666        667        678        677        787        788        799        798  
       667        668        679        678        788        789        800        799  
       668        669        680        679        789        790        801        800  
       669        670        681        680        790        791        802        801  
       670        671        682        681        791        792        803        802  
       672        673        684        683        793        794        805        804  
       673        674        685        684        794        795        806        805  
       674        675        686        685        795        796        807        806  
       675        676        687        686        796        797        808        807  
       676        677        688        687        797        798        809        808  
       677        678        689        688        798        799        810        809  
       678        679        690        689        799        800        811        810  
       679        680        691        690        800        801        812        811  
       680        681        692        691        801        802        813        812  
       681        682        693        692        802        803        814        813  
       683        684        695        694        804        805        816        815  
       684        685        696        695        805        806        817        816  
       685        686        697        696        806        807        818        817  
       686        687        698        697        807        808        819        818  
       687        688        699        698        808        809        820        819  
       688        689        700        699        809        810        821        820  
       689        690        701        700        810        811        822        821  
       690        691        702        701        811        812        823        822  
       691        692        703        702        812        813        824        823  
       692        693        704        703        813        814        825        824  
       694        695        706        705        815        816        827        826  
       695        696        707        706        816        817        828        827  
       696        697        708        707        817        818        829        828  
       697        698        709        708        818        819        830        829  
       698        699        710        709        819        820        831        830  
       699        700        711        710        820        821        832        831  
       700        701        712        711        821        822        833        832  
       701        702        713        712        822        823        834        833  
       702        703        714        713        823        824        835        834  
       703        704        715        714        824        825        836        835  
       705        706        717        716        826        827        838        837  
       706        707        718        717        827        828        839        838  
       707        708        719        718        828        829        840        839  
       708        709        720        719        829        830        841        840  
       709        710        721        720        830        831        842        841  
       710        711        722        721        831        832        843        842  
       711        712        723        722        832        833        844        843  
       712        713        724        723        833        834        845        844  
       713        714        725        724        834        835        846        845  
       714        715        726        725        835        836        847        846  
       727        728        739        738        848        849        860        859  
       728        729        740        739        849        850        861        860  
       729        730        741        740        850        851        862        861  
       730        731        742        741        851        852        863        862  
       731        732        743        742        852        853        864        863  
       732        733        744        743        853        854        865        864  
       733        734        745        744        854        855        866        865  
       734        735        746        745        855        856        867        866  
       735        736        747        746        856        857        868        867  
       736        737        748        747        857        858        869        868  
       738        739        750        749        859        860        871        870  
       739        740        751        750        860        861        872        871  
       740        741        752        751        861        862        873        872  
       741        742        753        752        862        863        874        873  
       742        743        754        753        863        864        875        874  
       743        744        755        754        864        865        876        875  
       744        745        756        755        865        866        877        876  
       745        746        757        756        866        867        878        877  
       746        747        758        757        867        868        879        878  
       747        748        759        758        868        869        880        879  
       749        750        761        760        870        871        882        881  
       750        751        762        761        871        872        883        882  
       751        752        763        762        872        873        884        883  
       752        753        764        763        873        874        885        884  
       753        754        765        764        874        875        886        885  
       754        755        766        765        875        876        887        886  
       755        756        767        766        876        877        888        887  
       756        757        768        767        877        878        889        888  
       757        758        769        768        878        879        890        889  
       758        759        770        769        879        880        891        890  
       760        761        772        771        881        882        893        892  
       761        762        773        772        882        883        894        893  
       762        763        774        773        883        884        895        894  
       763        764        775        774        884        885        896        895  
       764        765        776        775        885        886        897        896  
       765        766        777        776        886        887        898        897  
       766        767        778        777        887        888        899        898  
       767        768        779        778        888        889        900        899  
       768        769        780        779        889        890        901        900  
       769        770        781        780        890        891        902        901  
       771        772        783        782        892        893        904        903  
       772        773        784        783        893        894        905        904  
       773        774        785        784        894        895        906        905  
       774        775        786        785        895        896        907        906  
       775        776        787        786        896        897        908        907  
       776        777        788        787        897        898        909        908  
       777        778        789        788        898        899        910        909  
       778        779        790        789        899        900        911        910  
       779        780        791        790        900        901        912        911  
       780        781        792        791        901        902        913        912  
       782        783        794        793        903        904        915        914  
       783        784        795        794        904        905        916        915  
       784        785        796        795        905        906        917        916  
       785        786        797        796        906        907        918        917  
       786        787        798        797        907        908        919        918  
       787        788        799        798        908        909        920        919  
       788        789        800        799        909        910        921        920  
       789        790        801        800        910        911        922        921  
       790        791        802        801        911        912        923        922  
       791        792        803        802        912        913        924        923  
       793        794        805        804        914        915        926        925  
       794        795        806        805        915        916        927        926  
       795        796        807        806        916        917        928        927  
       796        797        808        807        917        918        929        928  
       797        798        809        808        918        919        930        929  
       798        799        810        809        919        920        931        930  
       799        800        811        810        920        921        932        931  
       800        801        812        811        921        922        933        932  
       801        802        813        812        922        923        934        933  
       802        803        814        813        923        924        935        934  
       804        805        816        815        925        926        937        936  
       805        806        817        816        926        927        938        937  
       806        807        818        817        927        928        939        938  
       807        808        819        818        928        929        940        939  
       808        809        820        819        929        930        941        940  
       809        810        821        820        930        931        942        941  
       810        811        822        821        931        932        943        942  
       811        812        823        822        932        933        944        943  
       812        813        824        823        933        934        945        944  
       813        814        825        824        934        935        946        945  
       815        816        827        826        936        937        948        947  
       816        817        828        827        937        938        949        948  
       817        818        829        828        938        939        950        949  
       818        819        830        829        939        940        951        950  
       819        820        831        830        940        941        952        951  
       820        821        832        831        941        942        953        952  
       821        822        833        832        942        943        954        953  
       822        823        834        833        943        944        955        954  
       823        824        835        834        944        945        956        955  
       824        825        836        835        945        946        957        956  
       826        827        838        837        947        948        959        958  
       827        828        839        838        948        949        960        959  
       828        829        840        839        949        950        961        960  
       829        830        841        840        950        951        962        961  
       830        831        842        841        951        952        963        962  
       831        832        843        842        952        953        964        963  
       832        833        844        843        953        954        965        964  
       833        834        845        844        954        955        966        965  
       834        835        846        845        955        956        967        966  
       835        836        847        846        956        957        968        967  
       848        849        860        859        969        970        981        980  
       849        850        861        860        970        971        982        981  
       850        851        862        861        971        972        983        982  
       851        852        863        862        972        973        984        983  
       852        853        864        863        973        974        985        984  
       853        854        865        864        974        975        986        985  
       854        855        866        865        975        976        987        986  
       855        856        867        866        976        977        988        987  
       856        857        868        867        977        978        989        988  
       857        858        869        868        978        979        990        989  
       859        860        871        870        980        981        992        991  
       860        861        872        871        981        982        993        992  
       861        862        873        872        982        983        994        993  
       862        863        874        873        983        984        995        994  
       863        864        875        874        984        985        996        995  
       864        865        876        875        985        986        997        996  
       865        866        877        876        986        987        998        997  
       866        867        878        877        987        988        999        998  
       867        868        879        878        988        989       1000        999  
       868        869        880        879        989        990       1001       1000  
       870        871        882        881        991        992       1003       1002  
       871        872        883        882        992        993       1004       1003  
       872        873        884        883        993        994       1005       1004  
       873        874        885        884        994        995       1006       1005  
       874        875        886        885        995        996       1007       1006  
       875        876        887        886        996        997       1008       1007  
       876        877        888        887        997        998       1009       1008  
       877        878        889        888        998        999       1010       1009  
       878        879        890        889        999       1000       1011       1010  
       879        880        891        890       1000       1001       1012       1011  
       881        882        893        892       1002       1003       1014       1013  
       882        883        894        893       1003       1004       1015       1014  
       883        884        895        894       1004       1005       1016       1015  
       884        885        896        895       1005       1006       1017       1016  
       885        886        897        896       1006       1007       1018       1017  
       886        887        898        897       1007       1008       1019       1018  
       887        888        899        898       1008       1009       1020       1019  
       888        889        900        899       1009       1010       1021       1020  
       889        890        901        900       1010       1011       1022       1021  
       890        891        902        901       1011       1012       1023       1022  
       892        893        904        903       1013       1014       1025       1024  
       893        894        905        904       1014       1015       1026       1025  
       894        895        906        905       1015       1016       1027       1026  
       895        896        907        906       1016       1017       1028       1027  
       896        897        908        907       1017       1018       1029       1028  
       897        898        909        908       1018       1019       1030       1029  
       898        899        910        909       1019       1020       1031       1030  
       899        900        911        910       1020       1021       1032       1031  
       900        901        912        911       1021       1022       1033       1032  
       901        902        913        912       1022       1023       1034       1033  
       903        904        915        914       1024       1025       1036       1035  
       904        905        916        915       1025       1026       1037       1036  
       905        906        917        916       1026       1027       1038       1037  
       906        907        918        917       1027       1028       1039       1038  
       907        908        919        918       1028       1029       1040       1039  
       908        909        920        919       1029       1030       1041       1040  
       909        910        921        920       1030       1031       1042       1041  
       910        911        922        921       1031       1032       1043       1042  
       911        912        923        922       1032       1033       1044       1043  
       912        913        924        923       1033       1034       1045       1044  
       914        915        926        925       1035       1036       1047       1046  
       915        916        927        926       1036       1037       1048       1047  
       916        917        928        927       1037       1038       1049       1048  
       917        918        929        928       1038       1039       1050       1049  
       918        919        930        929       1039       1040       1051       1050  
       919        920        931        930       1040       1041       1052       1051  
       920        921        932        931       1041       1042       1053       1052  
       921        922        933        932       1042       1043       1054       1053  
       922        923        934        933       1043       1044       1055       1054  
       923        924        935        934       1044       1045       1056       1055  
       925        926        937        936       1046       1047       1058       1057  
       926        927        938        937       1047       1048       1059       1058  
       927        928        939        938       1048       1049       1060       1059  
       928        929        940        939       1049       1050       1061       1060  
       929        930        941        940       1050       1051       1062       1061  
       930        931        942        941       1051       1052       1063       1062  
       931        932        943        942       1052       1053       1064       1063  
       932        933        944        943       1053       1054       1065       1064  
       933        934        945        944       1054       1055       1066       1065  
       934        935        946        945       1055       1056       1067       1066  
       936        937        948        947       1057       1058       1069       1068  
       937        938        949        948       1058       1059       1070       1069  
       938        939        950        949       1059       1060       1071       1070  
       939        940        951        950       1060       1061       1072       1071  
       940        941        952        951       1061       1062       1073       1072  
       941        942        953        952       1062       1063       1074       1073  
       942        943        954        953       1063       1064       1075       1074  
       943        944        955        954       1064       1065       1076       1075  
       944        945        956        955       1065       1066       1077       1076  
       945        946        957        956       1066       1067       1078       1077  
       947        948        959        958       1068       1069       1080       1079  
       948        949        960        959       1069       1070       1081       1080  
       949        950        961        960       1070       1071       1082       1081  
       950        951        962        961       1071       1072       1083       1082  
       951        952        963        962       1072       1073       1084       1083  
       952        953        964        963       1073       1074       1085       1084  
       953        954        965        964       1074       1075       1086       1085  
       954        955        966        965       1075       1076       1087       1086  
       955        956        967        966       1076       1077       1088       1087  
       956        957        968        967       1077       1078       1089       1088  
       969        970        981        980       1090       1091       1102       1101  
       970        971        982        981       1091       1092       1103       1102  
       971        972        983        982       1092       1093       1104       1103  
       972        973        984        983       1093       1094       1105       1104  
       973        974        985        984       1094       1095       1106       1105  
       974        975        986        985       1095       1096       1107       1106  
       975        976        987        986       1096       1097       1108       1107  
       976        977        988        987       1097       1098       1109       1108  
       977        978        989        988       1098       1099       1110       1109  
       978        979        990        989       1099       1100       1111       1110  
       980        981        992        991       1101       1102       1113       1112  
       981        982        993        992       1102       1103       1114       1113  
       982        983        994        993       1103       1104       1115       1114  
       983        984        995        994       1104       1105       1116       1115  
       984        985        996        995       1105       1106       1117       1116  
       985        986        997        996       1106       1107       1118       1117  
       986        987        998        997       1107       1108       1119       1118  
       987        988        999        998       1108       1109       1120       1119  
       988        989       1000        999       1109       1110       1121       1120  
       989        990       1001       1000       1110       1111       1122       1121  
       991        992       1003       1002       1112       1113       1124       1123  
       992        993       1004       1003       1113       1114       1125       1124  
       993        994       1005       1004       1114       1115       1126       1125  
       994        995       1006       1005       1115       1116       1127       1126  
       995        996       1007       1006       1116       1117       1128       1127  
       996        997       1008       1007       1117       1118       1129       1128  
       997        998       1009       1008       1118       1119       1130       1129  
       998        999       1010       1009       1119       1120       1131       1130  
       999       1000       1011       1010       1120       1121       1132       1131  
      1000       1001       1012       1011       1121       1122       1133       1132  
      1002       1003       1014       1013       1123       1124       1135       1134  
      1003       1004       1015       1014       1124       1125       1136       1135  
      1004       1005       1016       1015       1125       1126       1137       1136  
      1005       1006       1017       1016       1126       1127       1138       1137  
      1006       1007       1018       1017       1127       1128       1139       1138  
      1007       1008       1019       1018       1128       1129       1140       1139  
      1008       1009       1020       1019       1129       1130       1141       1140  
      1009       1010       1021       1020       1130       1131       1142       1141  
      1010       1011       1022       1021       1131       1132       1143       1142  
      1011       1012       1023       1022       1132       1133       1144       1143  
      1013       1014       1025       1024       1134       1135       1146       1145  
      1014       1015       1026       1025       1135       1136       1147       1146  
      1015       1016       1027       1026       1136       1137       1148       1147  
      1016       1017       1028       1027       1137       1138       1149       1148  
      1017       1018       1029       1028       1138       1139       1150       1149  
      1018       1019       1030       1029       1139       1140       1151       1150  
      1019       1020       1031       1030       1140       1141       1152       1151  
      1020       1021       1032       1031       1141       1142       1153       1152  
      1021       1022       1033       1032       1142       1143       1154       1153  
      1022       1023       1034       1033       1143       1144       1155       1154  
      1024       1025       1036       1035       1145       1146       1157       1156  
      1025       1026       1037       1036       1146       1147       1158       1157  
      1026       1027       1038       1037       1147       1148       1159       1158  
      1027       1028       1039       1038       1148       1149       1160       1159  
      1028       1029       1040       1039       1149       1150       1161       1160  
      1029       1030       1041       1040       1150       1151       1162       1161  
      1030       1031       1042       1041       1151       1152       1163       1162  
      1031       1032       1043       1042       1152       1153       1164       1163  
      1032       1033       1044       1043       1153       1154       1165       1164  
      1033       1034       1045       1044       1154       1155       1166       1165  
      1035       1036       1047       1046       1156       1157       1168       1167  
      1036       1037       1048       1047       1157       1158       1169       1168  
      1037       1038       1049       1048       1158       1159       1170       1169  
      1038       1039       1050       1049       1159       1160       1171       1170  
      1039       1040       1051       1050       1160       1161       1172       1171  
      1040       1041       1052       1051       1161       1162       1173       1172  
      1041       1042       1053       1052       1162       1163       1174       1173  
      1042       1043       1054       1053       1163       1164       1175       1174  
      1043       1044       1055       1054       1164       1165       1176       1175  
      1044       1045       1056       1055       1165       1166       1177       1176  
      1046       1047       1058       1057       1167       1168       1179       1178  
      1047       1048       1059       1058       1168       1169       1180       1179  
      1048       1049       1060       1059       1169       1170       1181       1180  
      1049       1050       1061       1060       1170       1171       1182       1181  
      1050       1051       1062       1061       1171       1172       1183       1182  
      1051       1052       1063       1062       1172       1173       1184       1183  
      1052       1053       1064       1063       1173       1174       1185       1184  
      1053       1054       1065       1064       1174       1175       1186       1185  
      1054       1055       1066       1065       1175       1176       1187       1186  
      1055       1056       1067       1066       1176       1177       1188       1187  
      1057       1058       1069       1068       1178       1179       1190       1189  
      1058       1059       1070       1069       1179       1180       1191       1190  
      1059       1060       1071       1070       1180       1181       1192       1191  
      1060       1061       1072       1071       1181       1182       1193       1192  
      1061       1062       1073       1072       1182       1183       1194       1193  
      1062       1063       1074       1073       1183       1184       1195       1194  
      1063       1064       1075       1074       1184       1185       1196       1195  
      1064       1065       1076       1075       1185       1186       1197       1196  
      1065       1066       1077       1076       1186       1187       1198       1197  
      1066       1067       1078       1077       1187       1188       1199       1198  
      1068       1069       1080       1079       1189       1190       1201       1200  
      1069       1070       1081       1080       1190       1191       1202       1201  
      1070       1071       1082       1081       1191       1192       1203       1202  
      1071       1072       1083       1082       1192       1193       1204       1203  
      1072       1073       1084       1083       1193       1194       1205       1204  
      1073       1074       1085       1084       1194       1195       1206       1205  
      1074       1075       1086       1085       1195       1196       1207       1206  
      1075       1076       1087       1086       1196       1197       1208       1207  
      1076       1077       1088       1087       1197       1198       1209       1208  
      1077       1078       1089       1088       1198       1199       1210       1209  
      1090       1091       1102       1101       1211       1212       1223       1222  
      1091       1092       1103       1102       1212       1213       1224       1223  
      1092       1093       1104       1103       1213       1214       1225       1224  
      1093       1094       1105       1104       1214       1215       1226       1225  
      1094       1095       1106       1105       1215       1216       1227       1226  
      1095       1096       1107       1106       1216       1217       1228       1227  
      1096       1097       1108       1107       1217       1218       1229       1228  
      1097       1098       1109       1108       1218       1219       1230       1229  
      1098       1099       1110       1109       1219       1220       1231       1230  
      1099       1100       1111       1110       1220       1221       1232       1231  
      1101       1102       1113       1112       1222       1223       1234       1233  
      1102       1103       1114       1113       1223       1224       1235       1234  
      1103       1104       1115       1114       1224       1225       1236       1235  
      1104       1105       1116       1115       1225       1226       1237       1236  
      1105       1106       1117       1116       1226       1227       1238       1237  
      1106       1107       1118       1117       1227       1228       1239       1238  
      1107       1108       1119       1118       1228       1229       1240       1239  
      1108       1109       1120       1119       1229       1230       1241       1240  
      1109       1110       1121       1120       1230       1231       1242       1241  
      1110       1111       1122       1121       1231       1232       1243       1242  
      1112       1113       1124       1123       1233       1234       1245       1244  
      1113       1114       1125       1124       1234       1235       1246       1245  
      1114       1115       1126       1125       1235       1236       1247       1246  
      1115       1116       1127       1126       1236       1237       1248       1247  
      1116       1117       1128       1127       1237       1238       1249       1248  
      1117       1118       1129       1128       1238       1239       1250       1249  
      1118       1119       1130       1129       1239       1240       1251       1250  
      1119       1120       1131       1130       1240       1241       1252       1251  
      1120       1121       1132       1131       1241       1242       1253       1252  
      1121       1122       1133       1132       1242       1243       1254       1253  
      1123       1124       1135       1134       1244       1245       1256       1255  
      1124       1125       1136       1135       1245       1246       1257       1256  
      1125       1126       1137       1136       1246       1247       1258       1257  
      1126       1127       1138       1137       1247       1248       1259       1258  
      1127       1128       1139       1138       1248       1249       1260       1259  
      1128       1129       1140       1139       1249       1250       1261       1260  
      1129       1130       1141       1140       1250       1251       1262       1261  
      1130       1131       1142       1141       1251       1252       1263       1262  
      1131       1132       1143       1142       1252       1253       1264       1263  
      1132       1133       1144       1143       1253       1254       1265       1264  
      1134       1135       1146       1145       1255       1256       1267       1266  
      1135       1136       1147       1146       1256       1257       1268       1267  
      1136       1137       1148       1147       1257       1258       1269       1268  
      1137       1138       1149       1148       1258       1259       1270       1269  
      1138       1139       1150       1149       1259       1260       1271       1270  
      1139       1140       1151       1150       1260       1261       1272       1271  
      1140       1141       1152       1151       1261       1262       1273       1272  
      1141       1142       1153       1152       1262       1263       1274       1273  
      1142       1143       1154       1153       1263       1264       1275       1274  
      1143       1144       1155       1154       1264       1265       1276       1275  
      1145       1146       1157       1156       1266       1267       1278       1277  
      1146       1147       1158       1157       1267       1268       1279       1278  
      1147       1148       1159       1158       1268       1269       1280       1279  
      1148       1149       1160       1159       1269       1270       1281       1280  
      1149       1150       1161       1160       1270       1271       1282       1281  
      1150       1151       1162       1161       1271       1272       1283       1282  
      1151       1152       1163       1162       1272       1273       1284       1283  
      1152       1153       1164       1163       1273       1274       1285       1284  
      1153       1154       1165       1164       1274       1275       1286       1285  
      1154       1155       1166       1165       1275       1276       1287       1286  
      1156       1157       1168       1167       1277       1278       1289       1288  
      1157       1158       1169       1168       1278       1279       1290       1289  
      1158       1159       1170       1169       1279       1280       1291       1290  
      1159       1160       1171       1170       1280       1281       1292       1291  
      1160       1161       1172       1171       1281       1282       1293       1292  
      1161       1162       1173       1172       1282       1283       1294       1293  
      1162       1163       1174       1173       1283       1284       1295       1294  
      1163       1164       1175       1174       1284       1285       1296       1295  
      1164       1165       1176       1175       1285       1286       1297       1296  
      1165       1166       1177       1176       1286       1287       1298       1297  
      1167       1168       1179       1178       1288       1289       1300       1299  
      1168       1169       1180       1179       1289       1290       1301       1300  
      1169       1170       1181       1180       1290       1291       1302       1301  
      1170       1171       1182       1181       1291       1292       1303       1302  
      1171       1172       1183       1182       1292       1293       1304       1303  
      1172       1173       1184       1183       1293       1294       1305       1304  
      1173       1174       1185       1184       1294       1295       1306       1305  
      1174       1175       1186       1185       1295       1296       1307       1306  
      1175       1176       1187       1186       1296       1297       1308       1307  
      1176       1177       1188       1187       1297       1298       1309       1308  
      1178       1179       1190       1189       1299       1300       1311       1310  
      1179       1180       1191       1190       1300       1301       1312       1311  
      1180       1181       1192       1191       1301       1302       1313       1312  
      1181       1182       1193       1192       1302       1303       1314       1313  
      1182       1183       1194       1193       1303       1304       1315       1314  
      1183       1184       1195       1194       1304       1305       1316       1315  
      1184       1185       1196       1195       1305       1306       1317       1316  
      1185       1186       1197       1196       1306       1307       1318       1317  
      1186       1187       1198       1197       1307       1308       1319       1318  
      1187       1188       1199       1198       1308       1309       1320       1319  
      1189       1190       1201       1200       1310       1311       1322       1321  
      1190       1191       1202       1201       1311       1312       1323       1322  
      1191       1192       1203       1202       1312       1313       1324       1323  
      1192       1193       1204       1203       1313       1314       1325       1324  
      1193       1194       1205       1204       1314       1315       1326       1325  
      1194       1195       1206       1205       1315       1316       1327       1326  
      1195       1196       1207       1206       1316       1317       1328       1327  
      1196       1197       1208       1207       1317       1318       1329       1328  
      1197       1198       1209       1208       1318       1319       1330       1329  
      1198       1199       1210       1209       1319       1320       1331       1330  
      1211       1212       1223       1222       1332       1333       1344       1343  
      1212       1213       1224       1223       1333       1334       1345       1344  
      1213       1214       1225       1224       1334       1335       1346       1345  
      1214       1215       1226       1225       1335       1336       1347       1346  
      1215       1216       1227       1226       1336       1337       1348       1347  
      1216       1217       1228       1227       1337       1338       1349       1348  
      1217       1218       1229       1228       1338       1339       1350       1349  
      1218       1219       1230       1229       1339       1340       1351       1350  
      1219       1220       1231       1230       1340       1341       1352       1351  
      1220       1221       1232       1231       1341       1342       1353       1352  
      1222       1223       1234       1233       1343       1344       1355       1354  
      1223       1224       1235       1234       1344       1345       1356       1355  
      1224       1225       1236       1235       1345       1346       1357       1356  
      1225       1226       1237       1236       1346       1347       1358       1357  
      1226       1227       1238       1237       1347       1348       1359       1358  
      1227       1228       1239       1238       1348       1349       1360       1359  
      1228       1229       1240       1239       1349       1350       1361       1360  
      1229       1230       1241       1240       1350       1351       1362       1361  
      1230       1231       1242       1241       1351       1352       1363       1362  
      1231       1232       1243       1242       1352       1353       1364       1363  
      1233       1234       1245       1244       1354       1355       1366       1365  
      1234       1235       1246       1245       1355       1356       1367       1366  
      1235       1236       1247       1246       1356       1357       1368       1367  
      1236       1237       1248       1247       1357       1358       1369       1368  
      1237       1238       1249       1248       1358       1359       1370       1369  
      1238       1239       1250       1249       1359       1360       1371       1370  
      1239       1240       1251       1250       1360       1361       1372       1371  
      1240       1241       1252       1251       1361       1362       1373       1372  
      1241       1242       1253       1252       1362       1363       1374       1373  
      1242       1243       1254       1253       1363       1364       1375       1374  
      1244       1245       1256       1255       1365       1366       1377       1376  
      1245       1246       1257       1256       1366       1367       1378       1377  
      1246       1247       1258       1257       1367       1368       1379       1378  
      1247       1248       1259       1258       1368       1369       1380       1379  
      1248       1249       1260       1259       1369       1370       1381       1380  
      1249       1250       1261       1260       1370       1371       1382       1381  
      1250       1251       1262       1261       1371       1372       1383       1382  
      1251       1252       1263       1262       1372       1373       1384       1383  
      1252       1253       1264       1263       1373       1374       1385       1384  
      1253       1254       1265       1264       1374       1375       1386       1385  
      1255       1256       1267       1266       1376       1377       1388       1387  
      1256       1257       1268       1267       1377       1378       1389       1388  
      1257       1258       1269       1268       1378       1379       1390       1389  
      1258       1259       1270       1269       1379       1380       1391       1390  
      1259       1260       1271       1270       1380       1381       1392       1391  
      1260       1261       1272       1271       1381       1382       1393       1392  
      1261       1262       1273       1272       1382       1383       1394       1393  
      1262       1263       1274       1273       1383       1384       1395       1394  
      1263       1264       1275       1274       1384       1385       1396       1395  
      1264       1265       1276       1275       1385       1386       1397       1396  
      1266       1267       1278       1277       1387       1388       1399       1398  
      1267       1268       1279       1278       1388       1389       1400       1399  
      1268       1269       1280       1279       1389       1390       1401       1400  
      1269       1270       1281       1280       1390       1391       1402       1401  
      1270       1271       1282       1281       1391       1392       1403       1402  
      1271       1272       1283       1282       1392       1393       1404       1403  
      1272       1273       1284       1283       1393       1394       1405       1404  
      1273       1274       1285       1284       1394       1395       1406       1405  
      1274       1275       1286       1285       1395       1396       1407       1406  
      1275       1276       1287       1286       1396       1397       1408       1407  
      1277       1278       1289       1288       1398       1399       1410       1409  
      1278       1279       1290       1289       1399       1400       1411       1410  
      1279       1280       1291       1290       1400       1401       1412       1411  
      1280       1281       1292       1291       1401       1402       1413       1412  
      1281       1282       1293       1292       1402       1403       1414       1413  
      1282       1283       1294       1293       1403       1404       1415       1414  
      1283       1284       1295       1294       1404       1405       1416       1415  
      1284       1285       1296       1295       1405       1406       1417       1416  
      1285       1286       1297       1296       1406       1407       1418       1417  
      1286       1287       1298       1297       1407       1408       1419       1418  
      1288       1289       1300       1299       1409       1410       1421       1420  
      1289       1290       1301       1300       1410       1411       1422       1421  
      1290       1291       1302       1301       1411       1412       1423       1422  
      1291       1292       1303       1302       1412       1413       1424       1423  
      1292       1293       1304       1303       1413       1414       1425       1424  
      1293       1294       1305       1304       1414       1415       1426       1425  
      1294       1295       1306       1305       1415       1416       1427       1426  
      1295       1296       1307       1306       1416       1417       1428       1427  
      1296       1297       1308       1307       1417       1418       1429       1428  
      1297       1298       1309       1308       1418       1419       1430       1429  
      1299       1300       1311       1310       1420       1421       1432       1431  
      1300       1301       1312       1311       1421       1422       1433       1432  
      1301       1302       1313       1312       1422       1423       1434       1433  
      1302       1303       1314       1313       1423       1424       1435       1434  
      1303       1304       1315       1314       1424       1425       1436       1435  
      1304       1305       1316       1315       1425       1426       1437       1436  
      1305       1306       1317       1316       1426       1427       1438       1437  
      1306       1307       1318       1317       1427       1428       1439       1438  
      1307       1308       1319       1318       1428       1429       1440       1439  
      1308       1309       1320       1319       1429       1430       1441       1440  
      1310       1311       1322       1321       1431       1432       1443       1442  
      1311       1312       1323       1322       1432       1433       1444       1443  
      1312       1313       1324       1323       1433       1434       1445       1444  
      1313       1314       1325       1324       1434       1435       1446       1445  
      1314       1315       1326       1325       1435       1436       1447       1446  
      1315       1316       1327       1326       1436       1437       1448       1447  
      1316       1317       1328       1327       1437       1438       1449       1448  
      1317       1318       1329       1328       1438       1439       1450       1449  
      1318       1319       1330       1329       1439       1440       1451       1450  
      1319       1320       1331       1330       1440       1441       1452       1451  
      1332       1333       1344       1343       1453       1454       1465       1464  
      1333       1334       1345       1344       1454       1455       1466       1465  
      1334       1335       1346       1345       1455       1456       1467       1466  
      1335       1336       1347       1346       1456       1457       1468       1467  
      1336       1337       1348       1347       1457       1458       1469       1468  
      1337       1338       1349       1348       1458       1459       1470       1469  
      1338       1339       1350       1349       1459       1460       1471       1470  
      1339       1340       1351       1350       1460       1461       1472       1471  
      1340       1341       1352       1351       1461       1462       1473       1472  
      1341       1342       1353       1352       1462       1463       1474       1473  
      1343       1344       1355       1354       1464       1465       1476       1475  
      1344       1345       1356       1355       1465       1466       1477       1476  
      1345       1346       1357       1356       1466       1467       1478       1477  
      1346       1347       1358       1357       1467       1468       1479       1478  
      1347       1348       1359       1358       1468       1469       1480       1479  
      1348       1349       1360       1359       1469       1470       1481       1480  
      1349       1350       1361       1360       1470       1471       1482       1481  
      1350       1351       1362       1361       1471       1472       1483       1482  
      1351       1352       1363       1362       1472       1473       1484       1483  
      1352       1353       1364       1363       1473       1474       1485       1484  
      1354       1355       1366       1365       1475       1476       1487       1486  
      1355       1356       1367       1366       1476       1477       1488       1487  
      1356       1357       1368       1367       1477       1478       1489       1488  
      1357       1358       1369       1368       1478       1479       1490       1489  
      1358       1359       1370       1369       1479       1480       1491       1490  
      1359       1360       1371       1370       1480       1481       1492       1491  
      1360       1361       1372       1371       1481       1482       1493       1492  
      1361       1362       1373       1372       1482       1483       1494       1493  
      1362       1363       1374       1373       1483       1484       1495       1494  
      1363       1364       1375       1374       1484       1485       1496       1495  
      1365       1366       1377       1376       1486       1487       1498       1497  
      1366       1367       1378       1377       1487       1488       1499       1498  
      1367       1368       1379       1378       1488       1489       1500       1499  
      1368       1369       1380       1379       1489       1490       1501       1500  
      1369       1370       1381       1380       1490       1491       1502       1501  
      1370       1371       1382       1381       1491       1492       1503       1502  
      1371       1372       1383       1382       1492       1493       1504       1503  
      1372       1373       1384       1383       1493       1494       1505       1504  
      1373       1374       1385       1384       1494       1495       1506       1505  
      1374       1375       1386       1385       1495       1496       1507       1506  
      1376       1377       1388       1387       1497       1498       1509       1508  
      1377       1378       1389       1388       1498       1499       1510       1509  
      1378       1379       1390       1389       1499       1500       1511       1510  
      1379       1380       1391       1390       1500       1501       1512       1511  
      1380       1381       1392       1391       1501       1502       1513       1512  
      1381       1382       1393       1392       1502       1503       1514       1513  
      1382       1383       1394       1393       1503       1504       1515       1514  
      1383       1384       1395       1394       1504       1505       1516       1515  
      1384       1385       1396       1395       1505       1506       1517       1516  
      1385       1386       1397       1396       1506       1507       1518       1517  
      1387       1388       1399       1398       1508       1509       1520       1519  
      1388       1389       1400       1399       1509       1510       1521       1520  
      1389       1390       1401       1400       1510       1511       1522       1521  
      1390       1391       1402       1401       1511       1512       1523       1522  
      1391       1392       1403       1402       1512       1513       1524       1523  
      1392       1393       1404       1403       1513       1514       1525       1524  
      1393       1394       1405       1404       1514       1515       1526       1525  
      1394       1395       1406       1405       1515       1516       1527       1526  
      1395       1396       1407       1406       1516       1517       1528       1527  
      1396       1397       1408       1407       1517       1518       1529       1528  
      1398       1399       1410       1409       1519       1520       1531       1530  
      1399       1400       1411       1410       1520       1521       1532       1531  
      1400       1401       1412       1411       1521       1522       1533       1532  
      1401       1402       1413       1412       1522       1523       1534       1533  
      1402       1403       1414       1413       1523       1524       1535       1534  
      1403       1404       1415       1414       1524       1525       1536       1535  
      1404       1405       1416       1415       1525       1526       1537       1536  
      1405       1406       1417       1416       1526       1527       1538       1537  
      1406       1407       1418       1417       1527       1528       1539       1538  
      1407       1408       1419       1418       1528       1529       1540       1539  
      1409       1410       1421       1420       1530       1531       1542       1541  
      1410       1411       1422       1421       1531       1532       1543       1542  
      1411       1412       1423       1422       1532       1533       1544       1543  
      1412       1413       1424       1423       1533       1534       1545       1544  
      1413       1414       1425       1424       1534       1535       1546       1545  
      1414       1415       1426       1425       1535       1536       1547       1546  
      1415       1416       1427       1426       1536       1537       1548       1547  
      1416       1417       1428       1427       1537       1538       1549       1548  
      1417       1418       1429       1428       1538       1539       1550       1549  
      1418       1419       1430       1429       1539       1540       1551       1550  
      1420       1421       1432       1431       1541       1542       1553       1552  
      1421       1422       1433       1432       1542       1543       1554       1553  
      1422       1423       1434       1433       1543       1544       1555       1554  
      1423       1424       1435       1434       1544       1545       1556       1555  
      1424       1425       1436       1435       1545       1546       1557       1556  
      1425       1426       1437       1436       1546       1547       1558       1557  
      1426       1427       1438       1437       1547       1548       1559       1558  
      1427       1428       1439       1438       1548       1549       1560       1559  
      1428       1429       1440       1439       1549       1550       1561       1560  
      1429       1430       1441       1440       1550       1551       1562       1561  
      1431       1432       1443       1442       1552       1553       1564       1563  
      1432       1433       1444       1443       1553       1554       1565       1564  
      1433       1434       1445       1444       1554       1555       1566       1565  
      1434       1435       1446       1445       1555       1556       1567       1566  
      1435       1436       1447       1446       1556       1557       1568       1567  
      1436       1437       1448       1447       1557       1558       1569       1568  
      1437       1438       1449       1448       1558       1559       1570       1569  
      1438       1439       1450       1449       1559       1560       1571       1570  
      1439       1440       1451       1450       1560       1561       1572       1571  
      1440       1441       1452       1451       1561       1562       1573       1572  
      1453       1454       1465       1464       1574       1575       1586       1585  
      1454       1455       1466       1465       1575       1576       1587       1586  
      1455       1456       1467       1466       1576       1577       1588       1587  
      1456       1457       1468       1467       1577       1578       1589       1588  
      1457       1458       1469       1468       1578       1579       1590       1589  
      1458       1459       1470       1469       1579       1580       1591       1590  
      1459       1460       1471       1470       1580       1581       1592       1591  
      1460       1461       1472       1471       1581       1582       1593       1592  
      1461       1462       1473       1472       1582       1583       1594       1593  
      1462       1463       1474       1473       1583       1584       1595       1594  
      1464       1465       1476       1475       1585       1586       1597       1596  
      1465       1466       1477       1476       1586       1587       1598       1597  
      1466       1467       1478       1477       1587       1588       1599       1598  
      1467       1468       1479       1478       1588       1589       1600       1599  
      1468       1469       1480       1479       1589       1590       1601       1600  
      1469       1470       1481       1480       1590       1591       1602       1601  
      1470       1471       1482       1481       1591       1592       1603       1602  
      1471       1472       1483       1482       1592       1593       1604       1603  
      1472       1473       1484       1483       1593       1594       1605       1604  
      1473       1474       1485       1484       1594       1595       1606       1605  
      1475       1476       1487       1486       1596       1597       1608       1607  
      1476       1477       1488       1487       1597       1598       1609       1608  
      1477       1478       1489       1488       1598       1599       1610       1609  
      1478       1479       1490       1489       1599       1600       1611       1610  
      1479       1480       1491       1490       1600       1601       1612       1611  
      1480       1481       1492       1491       1601       1602       1613       1612  
      1481       1482       1493       1492       1602       1603       1614       1613  
      1482       1483       1494       1493       1603       1604       1615       1614  
      1483       1484       1495       1494       1604       1605       1616       1615  
      1484       1485       1496       1495       1605       1606       1617       1616  
      1486       1487       1498       1497       1607       1608       1619       1618  
      1487       1488       1499       1498       1608       1609       1620       1619  
      1488       1489       1500       1499       1609       1610       1621       1620  
      1489       1490       1501       1500       1610       1611       1622       1621  
      1490       1491       1502       1501       1611       1612       1623       1622  
      1491       1492       1503       1502       1612       1613       1624       1623  
      1492       1493       1504       1503       1613       1614       1625       1624  
      1493       1494       1505       1504       1614       1615       1626       1625  
      1494       1495       1506       1505       1615       1616       1627       1626  
      1495       1496       1507       1506       1616       1617       1628       1627  
      1497       1498       1509       1508       1618       1619       1630       1629  
      1498       1499       1510       1509       1619       1620       1631       1630  
      1499       1500       1511       1510       1620       1621       1632       1631  
      1500       1501       1512       1511       1621       1622       1633       1632  
      1501       1502       1513       1512       1622       1623       1634       1633  
      1502       1503       1514       1513       1623       1624       1635       1634  
      1503       1504       1515       1514       1624       1625       1636       1635  
      1504       1505       1516       1515       1625       1626       1637       1636  
      1505       1506       1517       1516       1626       1627       1638       1637  
      1506       1507       1518       1517       1627       1628       1639       1638  
      1508       1509       1520       1519       1629       1630       1641       1640  
      1509       1510       1521       1520       1630       1631       1642       1641  
      1510       1511       1522       1521       1631       1632       1643       1642  
      1511       1512       1523       1522       1632       1633       1644       1643  
      1512       1513       1524       1523       1633       1634       1645       1644  
      1513       1514       1525       1524       1634       1635       1646       1645  
      1514       1515       1526       1525       1635       1636       1647       1646  
      1515       1516       1527       1526       1636       1637       1648       1647  
      1516       1517       1528       1527       1637       1638       1649       1648  
      1517       1518       1529       1528       1638       1639       1650       1649  
      1519       1520       1531       1530       1640       1641       1652       1651  
      1520       1521       1532       1531       1641       1642       1653       1652  
      1521       1522       1533       1532       1642       1643       1654       1653  
      1522       1523       1534       1533       1643       1644       1655       1654  
      1523       1524       1535       1534       1644       1645       1656       1655  
      1524       1525       1536       1535       1645       1646       1657       1656  
      1525       1526       1537       1536       1646       1647       1658       1657  
      1526       1527       1538       1537       1647       1648       1659       1658  
      1527       1528       1539       1538       1648       1649       1660       1659  
      1528       1529       1540       1539       1649       1650       1661       1660  
      1530       1531       1542       1541       1651       1652       1663       1662  
      1531       1532       1543       1542       1652       1653       1664       1663  
      1532       1533       1544       1543       1653       1654       1665       1664  
      1533       1534       1545       1544       1654       1655       1666       1665  
      1534       1535       1546       1545       1655       1656       1667       1666  
      1535       1536       1547       1546       1656       1657       1668       1667  
      1536       1537       1548       1547       1657       1658       1669       1668  
      1537       1538       1549       1548       1658       1659       1670       1669  
      1538       1539       1550       1549       1659       1660       1671       1670  
      1539       1540       1551       1550       1660       1661       1672       1671  
      1541       1542       1553       1552       1662       1663       1674       1673  
      1542       1543       1554       1553       1663       1664       1675       1674  
      1543       1544       1555       1554       1664       1665       1676       1675  
      1544       1545       1556       1555       1665       1666       1677       1676  
      1545       1546       1557       1556       1666       1667       1678       1677  
      1546       1547       1558       1557       1667       1668       1679       1678  
      1547       1548       1559       1558       1668       1669       1680       1679  
      1548       1549       1560       1559       1669       1670       1681       1680  
      1549       1550       1561       1560       1670       1671       1682       1681  
      1550       1551       1562       1561       1671       1672       1683       1682  
      1552       1553       1564       1563       1673       1674       1685       1684  
      1553       1554       1565       1564       1674       1675       1686       1685  
      1554       1555       1566       1565       1675       1676       1687       1686  
      1555       1556       1567       1566       1676       1677       1688       1687  
      1556       1557       1568       1567       1677       1678       1689       1688  
      1557       1558       1569       1568       1678       1679       1690       1689  
      1558       1559       1570       1569       1679       1680       1691       1690  
      1559       1560       1571       1570       1680       1681       1692       1691  
      1560       1561       1572       1571       1681       1682       1693       1692  
      1561       1562       1573       1572       1682       1683       1694       1693  
      1574       1575       1586       1585       1695       1696       1707       1706  
      1575       1576       1587       1586       1696       1697       1708       1707  
      1576       1577       1588       1587       1697       1698       1709       1708  
      1577       1578       1589       1588       1698       1699       1710       1709  
      1578       1579       1590       1589       1699       1700       1711       1710  
      1579       1580       1591       1590       1700       1701       1712       1711  
      1580       1581       1592       1591       1701       1702       1713       1712  
      1581       1582       1593       1592       1702       1703       1714       1713  
      1582       1583       1594       1593       1703       1704       1715       1714  
      1583       1584       1595       1594       1704       1705       1716       1715  
      1585       1586       1597       1596       1706       1707       1718       1717  
      1586       1587       1598       1597       1707       1708       1719       1718  
      1587       1588       1599       1598       1708       1709       1720       1719  
      1588       1589       1600       1599       1709       1710       1721       1720  
      1589       1590       1601       1600       1710       1711       1722       1721  
      1590       1591       1602       1601       1711       1712       1723       1722  
      1591       1592       1603       1602       1712       1713       1724       1723  
      1592       1593       1604       1603       1713       1714       1725       1724  
      1593       1594       1605       1604       1714       1715       1726       1725  
      1594       1595       1606       1605       1715       1716       1727       1726  
      1596       1597       1608       1607       1717       1718       1729       1728  
      1597       1598       1609       1608       1718       1719       1730       1729  
      1598       1599       1610       1609       1719       1720       1731       1730  
      1599       1600       1611       1610       1720       1721       1732       1731  
      1600       1601       1612       1611       1721       1722       1733       1732  
      1601       1602       1613       1612       1722       1723       1734       1733  
      1602       1603       1614       1613       1723       1724       1735       1734  
      1603       1604       1615       1614       1724       1725       1736       1735  
      1604       1605       1616       1615       1725       1726       1737       1736  
      1605       1606       1617       1616       1726       1727       1738       1737  
      1607       1608       1619       1618       1728       1729       1740       1739  
      1608       1609       1620       1619       1729       1730       1741       1740  
      1609       1610       1621       1620       1730       1731       1742       1741  
      1610       1611       1622       1621       1731       1732       1743       1742  
      1611       1612       1623       1622       1732       1733       1744       1743  
      1612       1613       1624       1623       1733       1734       1745       1744  
      1613       1614       1625       1624       1734       1735       1746       1745  
      1614       1615       1626       1625       1735       1736       1747       1746  
      1615       1616       1627       1626       1736       1737       1748       1747  
      1616       1617       1628       1627       1737       1738       1749       1748  
      1618       1619       1630       1629       1739       1740       1751       1750  
      1619       1620       1631       1630       1740       1741       1752       1751  
      1620       1621       1632       1631       1741       1742       1753       1752  
      1621       1622       1633       1632       1742       1743       1754       1753  
      1622       1623       1634       1633       1743       1744       1755       1754  
      1623       1624       1635       1634       1744       1745       1756       1755  
      1624       1625       1636       1635       1745       1746       1757       1756  
      1625       1626       1637       1636       1746       1747       1758       1757  
      1626       1627       1638       1637       1747       1748       1759       1758  
      1627       1628       1639       1638       1748       1749       1760       1759  
      1629       1630       1641       1640       1750       1751       1762       1761  
      1630       1631       1642       1641       1751       1752       1763       1762  
      1631       1632       1643       1642       1752       1753       1764       1763  
      1632       1633       1644       1643       1753       1754       1765       1764  
      1633       1634       1645       1644       1754       1755       1766       1765  
      1634       1635       1646       1645       1755       1756       1767       1766  
      1635       1636       1647       1646       1756       1757       1768       1767  
      1636       1637       1648       1647       1757       1758       1769       1768  
      1637       1638       1649       1648       1758       1759       1770       1769  
      1638       1639       1650       1649       1759       1760       1771       1770  
      1640       1641       1652       1651       1761       1762       1773       1772  
      1641       1642       1653       1652       1762       1763       1774       1773  
      1642       1643       1654       1653       1763       1764       1775       1774  
      1643       1644       1655       1654       1764       1765       1776       1775  
      1644       1645       1656       1655       1765       1766       1777       1776  
      1645       1646       1657       1656       1766       1767       1778       1777  
      1646       1647       1658       1657       1767       1768       1779       1778  
      1647       1648       1659       1658       1768       1769       1780       1779  
      1648       1649       1660       1659       1769       1770       1781       1780  
      1649       1650       1661       1660       1770       1771       1782       1781  
      1651       1652       1663       1662       1772       1773       1784       1783  
      1652       1653       1664       1663       1773       1774       1785       1784  
      1653       1654       1665       1664       1774       1775       1786       1785  
      1654       1655       1666       1665       1775       1776       1787       1786  
      1655       1656       1667       1666       1776       1777       1788       1787  
      1656       1657       1668       1667       1777       1778       1789       1788  
      1657       1658       1669       1668       1778       1779       1790       1789  
      1658       1659       1670       1669       1779       1780       1791       1790  
      1659       1660       1671       1670       1780       1781       1792       1791  
      1660       1661       1672       1671       1781       1782       1793       1792  
      1662       1663       1674       1673       1783       1784       1795       1794  
      1663       1664       1675       1674       1784       1785       1796       1795  
      1664       1665       1676       1675       1785       1786       1797       1796  
      1665       1666       1677       1676       1786       1787       1798       1797  
      1666       1667       1678       1677       1787       1788       1799       1798  
      1667       1668       1679       1678       1788       1789       1800       1799  
      1668       1669       1680       1679       1789       1790       1801       1800  
      1669       1670       1681       1680       1790       1791       1802       1801  
      1670       1671       1682       1681       1791       1792       1803       1802  
      1671       1672       1683       1682       1792       1793       1804       1803  
      1673       1674       1685       1684       1794       1795       1806       1805  
      1674       1675       1686       1685       1795       1796       1807       1806  
      1675       1676       1687       1686       1796       1797       1808       1807  
      1676       1677       1688       1687       1797       1798       1809       1808  
      1677       1678       1689       1688       1798       1799       1810       1809  
      1678       1679       1690       1689       1799       1800       1811       1810  
      1679       1680       1691       1690       1800       1801       1812       1811  
      1680       1681       1692       1691       1801       1802       1813       1812  
      1681       1682       1693       1692       1802       1803       1814       1813  
      1682       1683       1694       1693       1803       1804       1815       1814  
      1695       1696       1707       1706       1816       1817       1828       1827  
      1696       1697       1708       1707       1817       1818       1829       1828  
      1697       1698       1709       1708       1818       1819       1830       1829  
      1698       1699       1710       1709       1819       1820       1831       1830  
      1699       1700       1711       1710       1820       1821       1832       1831  
      1700       1701       1712       1711       1821       1822       1833       1832  
      1701       1702       1713       1712       1822       1823       1834       1833  
      1702       1703       1714       1713       1823       1824       1835       1834  
      1703       1704       1715       1714       1824       1825       1836       1835  
      1704       1705       1716       1715       1825       1826       1837       1836  
      1706       1707       1718       1717       1827       1828       1839       1838  
      1707       1708       1719       1718       1828       1829       1840       1839  
      1708       1709       1720       1719       1829       1830       1841       1840  
      1709       1710       1721       1720       1830       1831       1842       1841  
      1710       1711       1722       1721       1831       1832       1843       1842  
      1711       1712       1723       1722       1832       1833       1844       1843  
      1712       1713       1724       1723       1833       1834       1845       1844  
      1713       1714       1725       1724       1834       1835       1846       1845  
      1714       1715       1726       1725       1835       1836       1847       1846  
      1715       1716       1727       1726       1836       1837       1848       1847  
      1717       1718       1729       1728       1838       1839       1850       1849  
      1718       1719       1730       1729       1839       1840       1851       1850  
      1719       1720       1731       1730       1840       1841       1852       1851  
      1720       1721       1732       1731       1841       1842       1853       1852  
      1721       1722       1733       1732       1842       1843       1854       1853  
      1722       1723       1734       1733       1843       1844       1855       1854  
      1723       1724       1735       1734       1844       1845       1856       1855  
      1724       1725       1736       1735       1845       1846       1857       1856  
      1725       1726       1737       1736       1846       1847       1858       1857  
      1726       1727       1738       1737       1847       1848       1859       1858  
      1728       1729       1740       1739       1849       1850       1861       1860  
      1729       1730       1741       1740       1850       1851       1862       1861  
      1730       1731       1742       1741       1851       1852       1863       1862  
      1731       1732       1743       1742       1852       1853       1864       1863  
      1732       1733       1744       1743       1853       1854       1865       1864  
      1733       1734       1745       1744       1854       1855       1866       1865  
      1734       1735       1746       1745       1855       1856       1867       1866  
      1735       1736       1747       1746       1856       1857       1868       1867  
      1736       1737       1748       1747       1857       1858       1869       1868  
      1737       1738       1749       1748       1858       1859       1870       1869  
      1739       1740       1751       1750       1860       1861       1872       1871  
      1740       1741       1752       1751       1861       1862       1873       1872  
      1741       1742       1753       1752       1862       1863       1874       1873  
      1742       1743       1754       1753       1863       1864       1875       1874  
      1743       1744       1755       1754       1864       1865       1876       1875  
      1744       1745       1756       1755       1865       1866       1877       1876  
      1745       1746       1757       1756       1866       1867       1878       1877  
      1746       1747       1758       1757       1867       1868       1879       1878  
      1747       1748       1759       1758       1868       1869       1880       1879  
      1748       1749       1760       1759       1869       1870       1881       1880  
      1750       1751       1762       1761       1871       1872       1883       1882  
      1751       1752       1763       1762       1872       1873       1884       1883  
      1752       1753       1764       1763       1873       1874       1885       1884  
      1753       1754       1765       1764       1874       1875       1886       1885  
      1754       1755       1766       1765       1875       1876       1887       1886  
      1755       1756       1767       1766       1876       1877       1888       1887  
      1756       1757       1768       1767       1877       1878       1889       1888  
      1757       1758       1769       1768       1878       1879       1890       1889  
      1758       1759       1770       1769       1879       1880       1891       1890  
      1759       1760       1771       1770       1880       1881       1892       1891  
      1761       1762       1773       1772       1882       1883       1894       1893  
      1762       1763       1774       1773       1883       1884       1895       1894  
      1763       1764       1775       1774       1884       1885       1896       1895  
      1764       1765       1776       1775       1885       1886       1897       1896  
      1765       1766       1777       1776       1886       1887       1898       1897  
      1766       1767       1778       1777       1887       1888       1899       1898  
      1767       1768       1779       1778       1888       1889       1900       1899  
      1768       1769       1780       1779       1889       1890       1901       1900  
      1769       1770       1781       1780       1890       1891       1902       1901  
      1770       1771       1782       1781       1891       1892       1903       1902  
      1772       1773       1784       1783       1893       1894       1905       1904  
      1773       1774       1785       1784       1894       1895       1906       1905  
      1774       1775       1786       1785       1895       1896       1907       1906  
      1775       1776       1787       1786       1896       1897       1908       1907  
      1776       1777       1788       1787       1897       1898       1909       1908  
      1777       1778       1789       1788       1898       1899       1910       1909  
      1778       1779       1790       1789       1899       1900       1911       1910  
      1779       1780       1791       1790       1900       1901       1912       1911  
      1780       1781       1792       1791       1901       1902       1913       1912  
      1781       1782       1793       1792       1902       1903       1914       1913  
      1783       1784       1795       1794       1904       1905       1916       1915  
      1784       1785       1796       1795       1905       1906       1917       1916  
      1785       1786       1797       1796       1906       1907       1918       1917  
      1786       1787       1798       1797       1907       1908       1919       1918  
      1787       1788       1799       1798       1908       1909       1920       1919  
      1788       1789       1800       1799       1909       1910       1921       1920  
      1789       1790       1801       1800       1910       1911       1922       1921  
      1790       1791       1802       1801       1911       1912       1923       1922  
      1791       1792       1803       1802       1912       1913       1924       1923  
      1792       1793       1804       1803       1913       1914       1925       1924  
      1794       1795       1806       1805       1915       1916       1927       1926  
      1795       1796       1807       1806       1916       1917       1928       1927  
      1796       1797       1808       1807       1917       1918       1929       1928  
      1797       1798       1809       1808       1918       1919       1930       1929  
      1798       1799       1810       1809       1919       1920       1931       1930  
      1799       1800       1811       1810       1920       1921       1932       1931  
      1800       1801       1812       1811       1921       1922       1933       1932  
      1801       1802       1813       1812       1922       1923       1934       1933  
      1802       1803       1814       1813       1923       1924       1935       1934  
      1803       1804       1815       1814       1924       1925       1936       1935  
      1816       1817       1828       1827       1937       1938       1949       1948  
      1817       1818       1829       1828       1938       1939       1950       1949  
      1818       1819       1830       1829       1939       1940       1951       1950  
      1819       1820       1831       1830       1940       1941       1952       1951  
      1820       1821       1832       1831       1941       1942       1953       1952  
      1821       1822       1833       1832       1942       1943       1954       1953  
      1822       1823       1834       1833       1943       1944       1955       1954  
      1823       1824       1835       1834       1944       1945       1956       1955  
      1824       1825       1836       1835       1945       1946       1957       1956  
      1825       1826       1837       1836       1946       1947       1958       1957  
      1827       1828       1839       1838       1948       1949       1960       1959  
      1828       1829       1840       1839       1949       1950       1961       1960  
      1829       1830       1841       1840       1950       1951       1962       1961  
      1830       1831       1842       1841       1951       1952       1963       1962  
      1831       1832       1843       1842       1952       1953       1964       1963  
      1832       1833       1844       1843       1953       1954       1965       1964  
      1833       1834       1845       1844       1954       1955       1966       1965  
      1834       1835       1846       1845       1955       1956       1967       1966  
      1835       1836       1847       1846       1956       1957       1968       1967  
      1836       1837       1848       1847       1957       1958       1969       1968  
      1838       1839       1850       1849       1959       1960       1971       1970  
      1839       1840       1851       1850       1960       1961       1972       1971  
      1840       1841       1852       1851       1961       1962       1973       1972  
      1841       1842       1853       1852       1962       1963       1974       1973  
      1842       1843       1854       1853       1963       1964       1975       1974  
      1843       1844       1855       1854       1964       1965       1976       1975  
      1844       1845       1856       1855       1965       1966       1977       1976  
      1845       1846       1857       1856       1966       1967       1978       1977  
      1846       1847       1858       1857       1967       1968       1979       1978  
      1847       1848       1859       1858       1968       1969       1980       1979  
      1849       1850       1861       1860       1970       1971       1982       1981  
      1850       1851       1862       1861       1971       1972       1983       1982  
      1851       1852       1863       1862       1972       1973       1984       1983  
      1852       1853       1864       1863       1973       1974       1985       1984  
      1853       1854       1865       1864       1974       1975       1986       1985  
      1854       1855       1866       1865       1975       1976       1987       1986  
      1855       1856       1867       1866       1976       1977       1988       1987  
      1856       1857       1868       1867       1977       1978       1989       1988  
      1857       1858       1869       1868       1978       1979       1990       1989  
      1858       1859       1870       1869       1979       1980       1991       1990  
      1860       1861       1872       1871       1981       1982       1993       1992  
      1861       1862       1873       1872       1982       1983       1994       1993  
      1862       1863       1874       1873       1983       1984       1995       1994  
      1863       1864       1875       1874       1984       1985       1996       1995  
      1864       1865       1876       1875       1985       1986       1997       1996  
      1865       1866       1877       1876       1986       1987       1998       1997  
      1866       1867       1878       1877       1987       1988       1999       1998  
      1867       1868       1879       1878       1988       1989       2000       1999  
      1868       1869       1880       1879       1989       1990       2001       2000  
      1869       1870       1881       1880       1990       1991       2002       2001  
      1871       1872       1883       1882       1992       1993       2004       2003  
      1872       1873       1884       1883       1993       1994       2005       2004  
      1873       1874       1885       1884       1994       1995       2006       2005  
      1874       1875       1886       1885       1995       1996       2007       2006  
      1875       1876       1887       1886       1996       1997       2008       2007  
      1876       1877       1888       1887       1997       1998       2009       2008  
      1877       1878       1889       1888       1998       1999       2010       2009  
      1878       1879       1890       1889       1999       2000       2011       2010  
      1879       1880       1891       1890       2000       2001       2012       2011  
      1880       1881       1892       1891       2001       2002       2013       2012  
      1882       1883       1894       1893       2003       2004       2015       2014  
      1883       1884       1895       1894       2004       2005       2016       2015  
      1884       1885       1896       1895       2005       2006       2017       2016  
      1885       1886       1897       1896       2006       2007       2018       2017  
      1886       1887       1898       1897       2007       2008       2019       2018  
      1887       1888       1899       1898       2008       2009       2020       2019  
      1888       1889       1900       1899       2009       2010       2021       2020  
      1889       1890       1901       1900       2010       2011       2022       2021  
      1890       1891       1902       1901       2011       2012       2023       2022  
      1891       1892       1903       1902       2012       2013       2024       2023  
      1893       1894       1905       1904       2014       2015       2026       2025  
      1894       1895       1906       1905       2015       2016       2027       2026  
      1895       1896       1907       1906       2016       2017       2028       2027  
      1896       1897       1908       1907       2017       2018       2029       2028  
      1897       1898       1909       1908       2018       2019       2030       2029  
      1898       1899       1910       1909       2019       2020       2031       2030  
      1899       1900       1911       1910       2020       2021       2032       2031  
      1900       1901       1912       1911       2021       2022       2033       2032  
      1901       1902       1913       1912       2022       2023       2034       2033  
      1902       1903       1914       1913       2023       2024       2035       2034  
      1904       1905       1916       1915       2025       2026       2037       2036  
      1905       1906       1917       1916       2026       2027       2038       2037  
      1906       1907       1918       1917       2027       2028       2039       2038  
      1907       1908       1919       1918       2028       2029       2040       2039  
      1908       1909       1920       1919       2029       2030       2041       2040  
      1909       1910       1921       1920       2030       2031       2042       2041  
      1910       1911       1922       1921       2031       2032       2043       2042  
      1911       1912       1923       1922       2032       2033       2044       2043  
      1912       1913       1924       1923       2033       2034       2045       2044  
      1913       1914       1925       1924       2034       2035       2046       2045  
      1915       1916       1927       1926       2036       2037       2048       2047  
      1916       1917       1928       1927       2037       2038       2049       2048  
      1917       1918       1929       1928       2038       2039       2050       2049  
      1918       1919       1930       1929       2039       2040       2051       2050  
      1919       1920       1931       1930       2040       2041       2052       2051  
      1920       1921       1932       1931       2041       2042       2053       2052  
      1921       1922       1933       1932       2042       2043       2054       2053  
      1922       1923       1934       1933       2043       2044       2055       2054  
      1923       1924       1935       1934       2044       2045       2056       2055  
      1924       1925       1936       1935       2045       2046       2057       2056  
      1937       1938       1949       1948       2058       2059       2070       2069  
      1938       1939       1950       1949       2059       2060       2071       2070  
      1939       1940       1951       1950       2060       2061       2072       2071  
      1940       1941       1952       1951       2061       2062       2073       2072  
      1941       1942       1953       1952       2062       2063       2074       2073  
      1942       1943       1954       1953       2063       2064       2075       2074  
      1943       1944       1955       1954       2064       2065       2076       2075  
      1944       1945       1956       1955       2065       2066       2077       2076  
      1945       1946       1957       1956       2066       2067       2078       2077  
      1946       1947       1958       1957       2067       2068       2079       2078  
      1948       1949       1960       1959       2069       2070       2081       2080  
      1949       1950       1961       1960       2070       2071       2082       2081  
      1950       1951       1962       1961       2071       2072       2083       2082  
      1951       1952       1963       1962       2072       2073       2084       2083  
      1952       1953       1964       1963       2073       2074       2085       2084  
      1953       1954       1965       1964       2074       2075       2086       2085  
      1954       1955       1966       1965       2075       2076       2087       2086  
      1955       1956       1967       1966       2076       2077       2088       2087  
      1956       1957       1968       1967       2077       2078       2089       2088  
      1957       1958       1969       1968       2078       2079       2090       2089  
      1959       1960       1971       1970       2080       2081       2092       2091  
      1960       1961       1972       1971       2081       2082       2093       2092  
      1961       1962       1973       1972       2082       2083       2094       2093  
      1962       1963       1974       1973       2083       2084       2095       2094  
      1963       1964       1975       1974       2084       2085       2096       2095  
      1964       1965       1976       1975       2085       2086       2097       2096  
      1965       1966       1977       1976       2086       2087       2098       2097  
      1966       1967       1978       1977       2087       2088       2099       2098  
      1967       1968       1979       1978       2088       2089       2100       2099  
      1968       1969       1980       1979       2089       2090       2101       2100  
      1970       1971       1982       1981       2091       2092       2103       2102  
      1971       1972       1983       1982       2092       2093       2104       2103  
      1972       1973       1984       1983       2093       2094       2105       2104  
      1973       1974       1985       1984       2094       2095       2106       2105  
      1974       1975       1986       1985       2095       2096       2107       2106  
      1975       1976       1987       1986       2096       2097       2108       2107  
      1976       1977       1988       1987       2097       2098       2109       2108  
      1977       1978       1989       1988       2098       2099       2110       2109  
      1978       1979       1990       1989       2099       2100       2111       2110  
      1979       1980       1991       1990       2100       2101       2112       2111  
      1981       1982       1993       1992       2102       2103       2114       2113  
      1982       1983       1994       1993       2103       2104       2115       2114  
      1983       1984       1995       1994       2104       2105       2116       2115  
      1984       1985       1996       1995       2105       2106       2117       2116  
      1985       1986       1997       1996       2106       2107       2118       2117  
      1986       1987       1998       1997       2107       2108       2119       2118  
      1987       1988       1999       1998       2108       2109       2120       2119  
      1988       1989       2000       1999       2109       2110       2121       2120  
      1989       1990       2001       2000       2110       2111       2122       2121  
      1990       1991       2002       2001       2111       2112       2123       2122  
      1992       1993       2004       2003       2113       2114       2125       2124  
      1993       1994       2005       2004       2114       2115       2126       2125  
      1994       1995       2006       2005       2115       2116       2127       2126  
      1995       1996       2007       2006       2116       2117       2128       2127  
      1996       1997       2008       2007       2117       2118       2129       2128  
      1997       1998       2009       2008       2118       2119       2130       2129  
      1998       1999       2010       2009       2119       2120       2131       2130  
      1999       2000       2011       2010       2120       2121       2132       2131  
      2000       2001       2012       2011       2121       2122       2133       2132  
      2001       2002       2013       2012       2122       2123       2134       2133  
      2003       2004       2015       2014       2124       2125       2136       2135  
      2004       2005       2016       2015       2125       2126       2137       2136  
      2005       2006       2017       2016       2126       2127       2138       2137  
      2006       2007       2018       2017       2127       2128       2139       2138  
      2007       2008       2019       2018       2128       2129       2140       2139  
      2008       2009       2020       2019       2129       2130       2141       2140  
      2009       2010       2021       2020       2130       2131       2142       2141  
      2010       2011       2022       2021       2131       2132       2143       2142  
      2011       2012       2023       2022       2132       2133       2144       2143  
      2012       2013       2024       2023       2133       2134       2145       2144  
      2014       2015       2026       2025       2135       2136       2147       2146  
      2015       2016       2027       2026       2136       2137       2148       2147  
      2016       2017       2028       2027       2137       2138       2149       2148  
      2017       2018       2029       2028       2138       2139       2150       2149  
      2018       2019       2030       2029       2139       2140       2151       2150  
      2019       2020       2031       2030       2140       2141       2152       2151  
      2020       2021       2032       2031       2141       2142       2153       2152  
      2021       2022       2033       2032       2142       2143       2154       2153  
      2022       2023       2034       2033       2143       2144       2155       2154  
      2023       2024       2035       2034       2144       2145       2156       2155  
      2025       2026       2037       2036       2146       2147       2158       2157  
      2026       2027       2038       2037       2147       2148       2159       2158  
      2027       2028       2039       2038       2148       2149       2160       2159  
      2028       2029       2040       2039       2149       2150       2161       2160  
      2029       2030       2041       2040       2150       2151       2162       2161  
      2030       2031       2042       2041       2151       2152       2163       2162  
      2031       2032       2043       2042       2152       2153       2164       2163  
      2032       2033       2044       2043       2153       2154       2165       2164  
      2033       2034       2045       2044       2154       2155       2166       2165  
      2034       2035       2046       2045       2155       2156       2167       2166  
      2036       2037       2048       2047       2157       2158       2169       2168  
      2037       2038       2049       2048       2158       2159       2170       2169  
      2038       2039       2050       2049       2159       2160       2171       2170  
      2039       2040       2051       2050       2160       2161       2172       2171  
      2040       2041       2052       2051       2161       2162       2173       2172  
      2041       2042       2053       2052       2162       2163       2174       2173  
      2042       2043       2054       2053       2163       2164       2175       2174  
      2043       2044       2055       2054       2164       2165       2176       2175  
      2044       2045       2056       2055       2165       2166       2177       2176  
      2045       2046       2057       2056       2166       2167       2178       2177  
      2058       2059       2070       2069       2179       2180       2191       2190  
      2059       2060       2071       2070       2180       2181       2192       2191  
      2060       2061       2072       2071       2181       2182       2193       2192  
      2061       2062       2073       2072       2182       2183       2194       2193  
      2062       2063       2074       2073       2183       2184       2195       2194  
      2063       2064       2075       2074       2184       2185       2196       2195  
      2064       2065       2076       2075       2185       2186       2197       2196  
      2065       2066       2077       2076       2186       2187       2198       2197  
      2066       2067       2078       2077       2187       2188       2199       2198  
      2067       2068       2079       2078       2188       2189       2200       2199  
      2069       2070       2081       2080       2190       2191       2202       2201  
      2070       2071       2082       2081       2191       2192       2203       2202  
      2071       2072       2083       2082       2192       2193       2204       2203  
      2072       2073       2084       2083       2193       2194       2205       2204  
      2073       2074       2085       2084       2194       2195       2206       2205  
      2074       2075       2086       2085       2195       2196       2207       2206  
      2075       2076       2087       2086       2196       2197       2208       2207  
      2076       2077       2088       2087       2197       2198       2209       2208  
      2077       2078       2089       2088       2198       2199       2210       2209  
      2078       2079       2090       2089       2199       2200       2211       2210  
      2080       2081       2092       2091       2201       2202       2213       2212  
      2081       2082       2093       2092       2202       2203       2214       2213  
      2082       2083       2094       2093       2203       2204       2215       2214  
      2083       2084       2095       2094       2204       2205       2216       2215  
      2084       2085       2096       2095       2205       2206       2217       2216  
      2085       2086       2097       2096       2206       2207       2218       2217  
      2086       2087       2098       2097       2207       2208       2219       2218  
      2087       2088       2099       2098       2208       2209       2220       2219  
      2088       2089       2100       2099       2209       2210       2221       2220  
      2089       2090       2101       2100       2210       2211       2222       2221  
      2091       2092       2103       2102       2212       2213       2224       2223  
      2092       2093       2104       2103       2213       2214       2225       2224  
      2093       2094       2105       2104       2214       2215       2226       2225  
      2094       2095       2106       2105       2215       2216       2227       2226  
      2095       2096       2107       2106       2216       2217       2228       2227  
      2096       2097       2108       2107       2217       2218       2229       2228  
      2097       2098       2109       2108       2218       2219       2230       2229  
      2098       2099       2110       2109       2219       2220       2231       2230  
      2099       2100       2111       2110       2220       2221       2232       2231  
      2100       2101       2112       2111       2221       2222       2233       2232  
      2102       2103       2114       2113       2223       2224       2235       2234  
      2103       2104       2115       2114       2224       2225       2236       2235  
      2104       2105       2116       2115       2225       2226       2237       2236  
      2105       2106       2117       2116       2226       2227       2238       2237  
      2106       2107       2118       2117       2227       2228       2239       2238  
      2107       2108       2119       2118       2228       2229       2240       2239  
      2108       2109       2120       2119       2229       2230       2241       2240  
      2109       2110       2121       2120       2230       2231       2242       2241  
      2110       2111       2122       2121       2231       2232       2243       2242  
      2111       2112       2123       2122       2232       2233       2244       2243  
      2113       2114       2125       2124       2234       2235       2246       2245  
      2114       2115       2126       2125       2235       2236       2247       2246  
      2115       2116       2127       2126       2236       2237       2248       2247  
      2116       2117       2128       2127       2237       2238       2249       2248  
      2117       2118       2129       2128       2238       2239       2250       2249  
      2118       2119       2130       2129       2239       2240       2251       2250  
      2119       2120       2131       2130       2240       2241       2252       2251  
      2120       2121       2132       2131       2241       2242       2253       2252  
      2121       2122       2133       2132       2242       2243       2254       2253  
      2122       2123       2134       2133       2243       2244       2255       2254  
      2124       2125       2136       2135       2245       2246       2257       2256  
      2125       2126       2137       2136       2246       2247       2258       2257  
      2126       2127       2138       2137       2247       2248       2259       2258  
      2127       2128       2139       2138       2248       2249       2260       2259  
      2128       2129       2140       2139       2249       2250       2261       2260  
      2129       2130       2141       2140       2250       2251       2262       2261  
      2130       2131       2142       2141       2251       2252       2263       2262  
      2131       2132       2143       2142       2252       2253       2264       2263  
      2132       2133       2144       2143       2253       2254       2265       2264  
      2133       2134       2145       2144       2254       2255       2266       2265  
      2135       2136       2147       2146       2256       2257       2268       2267  
      2136       2137       2148       2147       2257       2258       2269       2268  
      2137       2138       2149       2148       2258       2259       2270       2269  
      2138       2139       2150       2149       2259       2260       2271       2270  
      2139       2140       2151       2150       2260       2261       2272       2271  
      2140       2141       2152       2151       2261       2262       2273       2272  
      2141       2142       2153       2152       2262       2263       2274       2273  
      2142       2143       2154       2153       2263       2264       2275       2274  
      2143       2144       2155       2154       2264       2265       2276       2275  
      2144       2145       2156       2155       2265       2266       2277       2276  
      2146       2147       2158       2157       2267       2268       2279       2278  
      2147       2148       2159       2158       2268       2269       2280       2279  
      2148       2149       2160       2159       2269       2270       2281       2280  
      2149       2150       2161       2160       2270       2271       2282       2281  
      2150       2151       2162       2161       2271       2272       2283       2282  
      2151       2152       2163       2162       2272       2273       2284       2283  
      2152       2153       2164       2163       2273       2274       2285       2284  
      2153       2154       2165       2164       2274       2275       2286       2285  
      2154       2155       2166       2165       2275       2276       2287       2286  
      2155       2156       2167       2166       2276       2277       2288       2287  
      2157       2158       2169       2168       2278       2279       2290       2289  
      2158       2159       2170       2169       2279       2280       2291       2290  
      2159       2160       2171       2170       2280       2281       2292       2291  
      2160       2161       2172       2171       2281       2282       2293       2292  
      2161       2162       2173       2172       2282       2283       2294       2293  
      2162       2163       2174       2173       2283       2284       2295       2294  
      2163       2164       2175       2174       2284       2285       2296       2295  
      2164       2165       2176       2175       2285       2286       2297       2296  
      2165       2166       2177       2176       2286       2287       2298       2297  
      2166       2167       2178       2177       2287       2288       2299       2298  
      2179       2180       2191       2190       2300       2301       2312       2311  
      2180       2181       2192       2191       2301       2302       2313       2312  
      2181       2182       2193       2192       2302       2303       2314       2313  
      2182       2183       2194       2193       2303       2304       2315       2314  
      2183       2184       2195       2194       2304       2305       2316       2315  
      2184       2185       2196       2195       2305       2306       2317       2316  
      2185       2186       2197       2196       2306       2307       2318       2317  
      2186       2187       2198       2197       2307       2308       2319       2318  
      2187       2188       2199       2198       2308       2309       2320       2319  
      2188       2189       2200       2199       2309       2310       2321       2320  
      2190       2191       2202       2201       2311       2312       2323       2322  
      2191       2192       2203       2202       2312       2313       2324       2323  
      2192       2193       2204       2203       2313       2314       2325       2324  
      2193       2194       2205       2204       2314       2315       2326       2325  
      2194       2195       2206       2205       2315       2316       2327       2326  
      2195       2196       2207       2206       2316       2317       2328       2327  
      2196       2197       2208       2207       2317       2318       2329       2328  
      2197       2198       2209       2208       2318       2319       2330       2329  
      2198       2199       2210       2209       2319       2320       2331       2330  
      2199       2200       2211       2210       2320       2321       2332       2331  
      2201       2202       2213       2212       2322       2323       2334       2333  
      2202       2203       2214       2213       2323       2324       2335       2334  
      2203       2204       2215       2214       2324       2325       2336       2335  
      2204       2205       2216       2215       2325       2326       2337       2336  
      2205       2206       2217       2216       2326       2327       2338       2337  
      2206       2207       2218       2217       2327       2328       2339       2338  
      2207       2208       2219       2218       2328       2329       2340       2339  
      2208       2209       2220       2219       2329       2330       2341       2340  
      2209       2210       2221       2220       2330       2331       2342       2341  
      2210       2211       2222       2221       2331       2332       2343       2342  
      2212       2213       2224       2223       2333       2334       2345       2344  
      2213       2214       2225       2224       2334       2335       2346       2345  
      2214       2215       2226       2225       2335       2336       2347       2346  
      2215       2216       2227       2226       2336       2337       2348       2347  
      2216       2217       2228       2227       2337       2338       2349       2348  
      2217       2218       2229       2228       2338       2339       2350       2349  
      2218       2219       2230       2229       2339       2340       2351       2350  
      2219       2220       2231       2230       2340       2341       2352       2351  
      2220       2221       2232       2231       2341       2342       2353       2352  
      2221       2222       2233       2232       2342       2343       2354       2353  
      2223       2224       2235       2234       2344       2345       2356       2355  
      2224       2225       2236       2235       2345       2346       2357       2356  
      2225       2226       2237       2236       2346       2347       2358       2357  
      2226       2227       2238       2237       2347       2348       2359       2358  
      2227       2228       2239       2238       2348       2349       2360       2359  
      2228       2229       2240       2239       2349       2350       2361       2360  
      2229       2230       2241       2240       2350       2351       2362       2361  
      2230       2231       2242       2241       2351       2352       2363       2362  
      2231       2232       2243       2242       2352       2353       2364       2363  
      2232       2233       2244       2243       2353       2354       2365       2364  
      2234       2235       2246       2245       2355       2356       2367       2366  
      2235       2236       2247       2246       2356       2357       2368       2367  
      2236       2237       2248       2247       2357       2358       2369       2368  
      2237       2238       2249       2248       2358       2359       2370       2369  
      2238       2239       2250       2249       2359       2360       2371       2370  
      2239       2240       2251       2250       2360       2361       2372       2371  
      2240       2241       2252       2251       2361       2362       2373       2372  
      2241       2242       2253       2252       2362       2363       2374       2373  
      2242       2243       2254       2253       2363       2364       2375       2374  
      2243       2244       2255       2254       2364       2365       2376       2375  
      2245       2246       2257       2256       2366       2367       2378       2377  
      2246       2247       2258       2257       2367       2368       2379       2378  
      2247       2248       2259       2258       2368       2369       2380       2379  
      2248       2249       2260       2259       2369       2370       2381       2380  
      2249       2250       2261       2260       2370       2371       2382       2381  
      2250       2251       2262       2261       2371       2372       2383       2382  
      2251       2252       2263       2262       2372       2373       2384       2383  
      2252       2253       2264       2263       2373       2374       2385       2384  
      2253       2254       2265       2264       2374       2375       2386       2385  
      2254       2255       2266       2265       2375       2376       2387       2386  
      2256       2257       2268       2267       2377       2378       2389       2388  
      2257       2258       2269       2268       2378       2379       2390       2389  
      2258       2259       2270       2269       2379       2380       2391       2390  
      2259       2260       2271       2270       2380       2381       2392       2391  
      2260       2261       2272       2271       2381       2382       2393       2392  
      2261       2262       2273       2272       2382       2383       2394       2393  
      2262       2263       2274       2273       2383       2384       2395       2394  
      2263       2264       2275       2274       2384       2385       2396       2395  
      2264       2265       2276       2275       2385       2386       2397       2396  
      2265       2266       2277       2276       2386       2387       2398       2397  
      2267       2268       2279       2278       2388       2389       2400       2399  
      2268       2269       2280       2279       2389       2390       2401       2400  
      2269       2270       2281       2280       2390       2391       2402       2401  
      2270       2271       2282       2281       2391       2392       2403       2402  
      2271       2272       2283       2282       2392       2393       2404       2403  
      2272       2273       2284       2283       2393       2394       2405       2404  
      2273       2274       2285       2284       2394       2395       2406       2405  
      2274       2275       2286       2285       2395       2396       2407       2406  
      2275       2276       2287       2286       2396       2397       2408       2407  
      2276       2277       2288       2287       2397       2398       2409       2408  
      2278       2279       2290       2289       2399       2400       2411       2410  
      2279       2280       2291       2290       2400       2401       2412       2411  
      2280       2281       2292       2291       2401       2402       2413       2412  
      2281       2282       2293       2292       2402       2403       2414       2413  
      2282       2283       2294       2293       2403       2404       2415       2414  
      2283       2284       2295       2294       2404       2405       2416       2415  
      2284       2285       2296       2295       2405       2406       2417       2416  
      2285       2286       2297       2296       2406       2407       2418       2417  
      2286       2287       2298       2297       2407       2408       2419       2418  
      2287       2288       2299       2298       2408       2409       2420       2419  
      2300       2301       2312       2311       2421       2422       2433       2432  
      2301       2302       2313       2312       2422       2423       2434       2433  
      2302       2303       2314       2313       2423       2424       2435       2434  
      2303       2304       2315       2314       2424       2425       2436       2435  
      2304       2305       2316       2315       2425       2426       2437       2436  
      2305       2306       2317       2316       2426       2427       2438       2437  
      2306       2307       2318       2317       2427       2428       2439       2438  
      2307       2308       2319       2318       2428       2429       2440       2439  
      2308       2309       2320       2319       2429       2430       2441       2440  
      2309       2310       2321       2320       2430       2431       2442       2441  
      2311       2312       2323       2322       2432       2433       2444       2443  
      2312       2313       2324       2323       2433       2434       2445       2444  
      2313       2314       2325       2324       2434       2435       2446       2445  
      2314       2315       2326       2325       2435       2436       2447       2446  
      2315       2316       2327       2326       2436       2437       2448       2447  
      2316       2317       2328       2327       2437       2438       2449       2448  
      2317       2318       2329       2328       2438       2439       2450       2449  
      2318       2319       2330       2329       2439       2440       2451       2450  
      2319       2320       2331       2330       2440       2441       2452       2451  
      2320       2321       2332       2331       2441       2442       2453       2452  
      2322       2323       2334       2333       2443       2444       2455       2454  
      2323       2324       2335       2334       2444       2445       2456       2455  
      2324       2325       2336       2335       2445       2446       2457       2456  
      2325       2326       2337       2336       2446       2447       2458       2457  
      2326       2327       2338       2337       2447       2448       2459       2458  
      2327       2328       2339       2338       2448       2449       2460       2459  
      2328       2329       2340       2339       2449       2450       2461       2460  
      2329       2330       2341       2340       2450       2451       2462       2461  
      2330       2331       2342       2341       2451       2452       2463       2462  
      2331       2332       2343       2342       2452       2453       2464       2463  
      2333       2334       2345       2344       2454       2455       2466       2465  
      2334       2335       2346       2345       2455       2456       2467       2466  
      2335       2336       2347       2346       2456       2457       2468       2467  
      2336       2337       2348       2347       2457       2458       2469       2468  
      2337       2338       2349       2348       2458       2459       2470       2469  
      2338       2339       2350       2349       2459       2460       2471       2470  
      2339       2340       2351       2350       2460       2461       2472       2471  
      2340       2341       2352       2351       2461       2462       2473       2472  
      2341       2342       2353       2352       2462       2463       2474       2473  
      2342       2343       2354       2353       2463       2464       2475       2474  
      2344       2345       2356       2355       2465       2466       2477       2476  
      2345       2346       2357       2356       2466       2467       2478       2477  
      2346       2347       2358       2357       2467       2468       2479       2478  
      2347       2348       2359       2358       2468       2469       2480       2479  
      2348       2349       2360       2359       2469       2470       2481       2480  
      2349       2350       2361       2360       2470       2471       2482       2481  
      2350       2351       2362       2361       2471       2472       2483       2482  
      2351       2352       2363       2362       2472       2473       2484       2483  
      2352       2353       2364       2363       2473       2474       2485       2484  
      2353       2354       2365       2364       2474       2475       2486       2485  
      2355       2356       2367       2366       2476       2477       2488       2487  
      2356       2357       2368       2367       2477       2478       2489       2488  
      2357       2358       2369       2368       2478       2479       2490       2489  
      2358       2359       2370       2369       2479       2480       2491       2490  
      2359       2360       2371       2370       2480       2481       2492       2491  
      2360       2361       2372       2371       2481       2482       2493       2492  
      2361       2362       2373       2372       2482       2483       2494       2493  
      2362       2363       2374       2373       2483       2484       2495       2494  
      2363       2364       2375       2374       2484       2485       2496       2495  
      2364       2365       2376       2375       2485       2486       2497       2496  
      2366       2367       2378       2377       2487       2488       2499       2498  
      2367       2368       2379       2378       2488       2489       2500       2499  
      2368       2369       2380       2379       2489       2490       2501       2500  
      2369       2370       2381       2380       2490       2491       2502       2501  
      2370       2371       2382       2381       2491       2492       2503       2502  
      2371       2372       2383       2382       2492       2493       2504       2503  
      2372       2373       2384       2383       2493       2494       2505       2504  
      2373       2374       2385       2384       2494       2495       2506       2505  
      2374       2375       2386       2385       2495       2496       2507       2506  
      2375       2376       2387       2386       2496       2497       2508       2507  
      2377       2378       2389       2388       2498       2499       2510       2509  
      2378       2379       2390       2389       2499       2500       2511       2510  
      2379       2380       2391       2390       2500       2501       2512       2511  
      2380       2381       2392       2391       2501       2502       2513       2512  
      2381       2382       2393       2392       2502       2503       2514       2513  
      2382       2383       2394       2393       2503       2504       2515       2514  
      2383       2384       2395       2394       2504       2505       2516       2515  
      2384       2385       2396       2395       2505       2506       2517       2516  
      2385       2386       2397       2396       2506       2507       2518       2517  
      2386       2387       2398       2397       2507       2508       2519       2518  
      2388       2389       2400       2399       2509       2510       2521       2520  
      2389       2390       2401       2400       2510       2511       2522       2521  
      2390       2391       2402       2401       2511       2512       2523       2522  
      2391       2392       2403       2402       2512       2513       2524       2523  
      2392       2393       2404       2403       2513       2514       2525       2524  
      2393       2394       2405       2404       2514       2515       2526       2525  
      2394       2395       2406       2405       2515       2516       2527       2526  
      2395       2396       2407       2406       2516       2517       2528       2527  
      2396       2397       2408       2407       2517       2518       2529       2528  
      2397       2398       2409       2408       2518       2519       2530       2529  
      2399       2400       2411       2410       2520       2521       2532       2531  
      2400       2401       2412       2411       2521       2522       2533       2532  
      2401       2402       2413       2412       2522       2523       2534       2533  
      2402       2403       2414       2413       2523       2524       2535       2534  
      2403       2404       2415       2414       2524       2525       2536       2535  
      2404       2405       2416       2415       2525       2526       2537       2536  
      2405       2406       2417       2416       2526       2527       2538       2537  
      2406       2407       2418       2417       2527       2528       2539       2538  
      2407       2408       2419       2418       2528       2529       2540       2539  
      2408       2409       2420       2419       2529       2530       2541       2540  
      2421       2422       2433       2432       2542       2543       2554       2553  
      2422       2423       2434       2433       2543       2544       2555       2554  
      2423       2424       2435       2434       2544       2545       2556       2555  
      2424       2425       2436       2435       2545       2546       2557       2556  
      2425       2426       2437       2436       2546       2547       2558       2557  
      2426       2427       2438       2437       2547       2548       2559       2558  
      2427       2428       2439       2438       2548       2549       2560       2559  
      2428       2429       2440       2439       2549       2550       2561       2560  
      2429       2430       2441       2440       2550       2551       2562       2561  
      2430       2431       2442       2441       2551       2552       2563       2562  
      2432       2433       2444       2443       2553       2554       2565       2564  
      2433       2434       2445       2444       2554       2555       2566       2565  
      2434       2435       2446       2445       2555       2556       2567       2566  
      2435       2436       2447       2446       2556       2557       2568       2567  
      2436       2437       2448       2447       2557       2558       2569       2568  
      2437       2438       2449       2448       2558       2559       2570       2569  
      2438       2439       2450       2449       2559       2560       2571       2570  
      2439       2440       2451       2450       2560       2561       2572       2571  
      2440       2441       2452       2451       2561       2562       2573       2572  
      2441       2442       2453       2452       2562       2563       2574       2573  
      2443       2444       2455       2454       2564       2565       2576       2575  
      2444       2445       2456       2455       2565       2566       2577       2576  
      2445       2446       2457       2456       2566       2567       2578       2577  
      2446       2447       2458       2457       2567       2568       2579       2578  
      2447       2448       2459       2458       2568       2569       2580       2579  
      2448       2449       2460       2459       2569       2570       2581       2580  
      2449       2450       2461       2460       2570       2571       2582       2581  
      2450       2451       2462       2461       2571       2572       2583       2582  
      2451       2452       2463       2462       2572       2573       2584       2583  
      2452       2453       2464       2463       2573       2574       2585       2584  
      2454       2455       2466       2465       2575       2576       2587       2586  
      2455       2456       2467       2466       2576       2577       2588       2587  
      2456       2457       2468       2467       2577       2578       2589       2588  
      2457       2458       2469       2468       2578       2579       2590       2589  
      2458       2459       2470       2469       2579       2580       2591       2590  
      2459       2460       2471       2470       2580       2581       2592       2591  
      2460       2461       2472       2471       2581       2582       2593       2592  
      2461       2462       2473       2472       2582       2583       2594       2593  
      2462       2463       2474       2473       2583       2584       2595       2594  
      2463       2464       2475       2474       2584       2585       2596       2595  
      2465       2466       2477       2476       2586       2587       2598       2597  
      2466       2467       2478       2477       2587       2588       2599       2598  
      2467       2468       2479       2478       2588       2589       2600       2599  
      2468       2469       2480       2479       2589       2590       2601       2600  
      2469       2470       2481       2480       2590       2591       2602       2601  
      2470       2471       2482       2481       2591       2592       2603       2602  
      2471       2472       2483       2482       2592       2593       2604       2603  
      2472       2473       2484       2483       2593       2594       2605       2604  
      2473       2474       2485       2484       2594       2595       2606       2605  
      2474       2475       2486       2485       2595       2596       2607       2606  
      2476       2477       2488       2487       2597       2598       2609       2608  
      2477       2478       2489       2488       2598       2599       2610       2609  
      2478       2479       2490       2489       2599       2600       2611       2610  
      2479       2480       2491       2490       2600       2601       2612       2611  
      2480       2481       2492       2491       2601       2602       2613       2612  
      2481       2482       2493       2492       2602       2603       2614       2613  
      2482       2483       2494       2493       2603       2604       2615       2614  
      2483       2484       2495       2494       2604       2605       2616       2615  
      2484       2485       2496       2495       2605       2606       2617       2616  
      2485       2486       2497       2496       2606       2607       2618       2617  
      2487       2488       2499       2498       2608       2609       2620       2619  
      2488       2489       2500       2499       2609       2610       2621       2620  
      2489       2490       2501       2500       2610       2611       2622       2621  
      2490       2491       2502       2501       2611       2612       2623       2622  
      2491       2492       2503       2502       2612       2613       2624       2623  
      2492       2493       2504       2503       2613       2614       2625       2624  
      2493       2494       2505       2504       2614       2615       2626       2625  
      2494       2495       2506       2505       2615       2616       2627       2626  
      2495       2496       2507       2506       2616       2617       2628       2627  
      2496       2497       2508       2507       2617       2618       2629       2628  
      2498       2499       2510       2509       2619       2620       2631       2630  
      2499       2500       2511       2510       2620       2621       2632       2631  
      2500       2501       2512       2511       2621       2622       2633       2632  
      2501       2502       2513       2512       2622       2623       2634       2633  
      2502       2503       2514       2513       2623       2624       2635       2634  
      2503       2504       2515       2514       2624       2625       2636       2635  
      2504       2505       2516       2515       2625       2626       2637       2636  
      2505       2506       2517       2516       2626       2627       2638       2637  
      2506       2507       2518       2517       2627       2628       2639       2638  
      2507       2508       2519       2518       2628       2629       2640       2639  
      2509       2510       2521       2520       2630       2631       2642       2641  
      2510       2511       2522       2521       2631       2632       2643       2642  
      2511       2512       2523       2522       2632       2633       2644       2643  
      2512       2513       2524       2523       2633       2634       2645       2644  
      2513       2514       2525       2524       2634       2635       2646       2645  
      2514       2515       2526       2525       2635       2636       2647       2646  
      2515       2516       2527       2526       2636       2637       2648       2647  
      2516       2517       2528       2527       2637       2638       2649       2648  
      2517       2518       2529       2528       2638       2639       2650       2649  
      2518       2519       2530       2529       2639       2640       2651       2650  
      2520       2521       2532       2531       2641       2642       2653       2652  
      2521       2522       2533       2532       2642       2643       2654       2653  
      2522       2523       2534       2533       2643       2644       2655       2654  
      2523       2524       2535       2534       2644       2645       2656       2655  
      2524       2525       2536       2535       2645       2646       2657       2656  
      2525       2526       2537       2536       2646       2647       2658       2657  
      2526       2527       2538       2537       2647       2648       2659       2658  
      2527       2528       2539       2538       2648       2649       2660       2659  
      2528       2529       2540       2539       2649       2650       2661       2660  
      2529       2530       2541       2540       2650       2651       2662       2661  
      2542       2543       2554       2553       2663       2664       2675       2674  
      2543       2544       2555       2554       2664       2665       2676       2675  
      2544       2545       2556       2555       2665       2666       2677       2676  
      2545       2546       2557       2556       2666       2667       2678       2677  
      2546       2547       2558       2557       2667       2668       2679       2678  
      2547       2548       2559       2558       2668       2669       2680       2679  
      2548       2549       2560       2559       2669       2670       2681       2680  
      2549       2550       2561       2560       2670       2671       2682       2681  
      2550       2551       2562       2561       2671       2672       2683       2682  
      2551       2552       2563       2562       2672       2673       2684       2683  
      2553       2554       2565       2564       2674       2675       2686       2685  
      2554       2555       2566       2565       2675       2676       2687       2686  
      2555       2556       2567       2566       2676       2677       2688       2687  
      2556       2557       2568       2567       2677       2678       2689       2688  
      2557       2558       2569       2568       2678       2679       2690       2689  
      2558       2559       2570       2569       2679       2680       2691       2690  
      2559       2560       2571       2570       2680       2681       2692       2691  
      2560       2561       2572       2571       2681       2682       2693       2692  
      2561       2562       2573       2572       2682       2683       2694       2693  
      2562       2563       2574       2573       2683       2684       2695       2694  
      2564       2565       2576       2575       2685       2686       2697       2696  
      2565       2566       2577       2576       2686       2687       2698       2697  
      2566       2567       2578       2577       2687       2688       2699       2698  
      2567       2568       2579       2578       2688       2689       2700       2699  
      2568       2569       2580       2579       2689       2690       2701       2700  
      2569       2570       2581       2580       2690       2691       2702       2701  
      2570       2571       2582       2581       2691       2692       2703       2702  
      2571       2572       2583       2582       2692       2693       2704       2703  
      2572       2573       2584       2583       2693       2694       2705       2704  
      2573       2574       2585       2584       2694       2695       2706       2705  
      2575       2576       2587       2586       2696       2697       2708       2707  
      2576       2577       2588       2587       2697       2698       2709       2708  
      2577       2578       2589       2588       2698       2699       2710       2709  
      2578       2579       2590       2589       2699       2700       2711       2710  
      2579       2580       2591       2590       2700       2701       2712       2711  
      2580       2581       2592       2591       2701       2702       2713       2712  
      2581       2582       2593       2592       2702       2703       2714       2713  
      2582       2583       2594       2593       2703       2704       2715       2714  
      2583       2584       2595       2594       2704       2705       2716       2715  
      2584       2585       2596       2595       2705       2706       2717       2716  
      2586       2587       2598       2597       2707       2708       2719       2718  
      2587       2588       2599       2598       2708       2709       2720       2719  
      2588       2589       2600       2599       2709       2710       2721       2720  
      2589       2590       2601       2600       2710       2711       2722       2721  
      2590       2591       2602       2601       2711       2712       2723       2722  
      2591       2592       2603       2602       2712       2713       2724       2723  
      2592       2593       2604       2603       2713       2714       2725       2724  
      2593       2594       2605       2604       2714       2715       2726       2725  
      2594       2595       2606       2605       2715       2716       2727       2726  
      2595       2596       2607       2606       2716       2717       2728       2727  
      2597       2598       2609       2608       2718       2719       2730       2729  
      2598       2599       2610       2609       2719       2720       2731       2730  
      2599       2600       2611       2610       2720       2721       2732       2731  
      2600       2601       2612       2611       2721       2722       2733       2732  
      2601       2602       2613       2612       2722       2723       2734       2733  
      2602       2603       2614       2613       2723       2724       2735       2734  
      2603       2604       2615       2614       2724       2725       2736       2735  
      2604       2605       2616       2615       2725       2726       2737       2736  
      2605       2606       2617       2616       2726       2727       2738       2737  
      2606       2607       2618       2617       2727       2728       2739       2738  
      2608       2609       2620       2619       2729       2730       2741       2740  
      2609       2610       2621       2620       2730       2731       2742       2741  
      2610       2611       2622       2621       2731       2732       2743       2742  
      2611       2612       2623       2622       2732       2733       2744       2743  
      2612       2613       2624       2623       2733       2734       2745       2744  
      2613       2614       2625       2624       2734       2735       2746       2745  
      2614       2615       2626       2625       2735       2736       2747       2746  
      2615       2616       2627       2626       2736       2737       2748       2747  
      2616       2617       2628       2627       2737       2738       2749       2748  
      2617       2618       2629       2628       2738       2739       2750       2749  
      2619       2620       2631       2630       2740       2741       2752       2751  
      2620       2621       2632       2631       2741       2742       2753       2752  
      2621       2622       2633       2632       2742       2743       2754       2753  
      2622       2623       2634       2633       2743       2744       2755       2754  
      2623       2624       2635       2634       2744       2745       2756       2755  
      2624       2625       2636       2635       2745       2746       2757       2756  
      2625       2626       2637       2636       2746       2747       2758       2757  
      2626       2627       2638       2637       2747       2748       2759       2758  
      2627       2628       2639       2638       2748       2749       2760       2759  
      2628       2629       2640       2639       2749       2750       2761       2760  
      2630       2631       2642       2641       2751       2752       2763       2762  
      2631       2632       2643       2642       2752       2753       2764       2763  
      2632       2633       2644       2643       2753       2754       2765       2764  
      2633       2634       2645       2644       2754       2755       2766       2765  
      2634       2635       2646       2645       2755       2756       2767       2766  
      2635       2636       2647       2646       2756       2757       2768       2767  
      2636       2637       2648       2647       2757       2758       2769       2768  
      2637       2638       2649       2648       2758       2759       2770       2769  
      2638       2639       2650       2649       2759       2760       2771       2770  
      2639       2640       2651       2650       2760       2761       2772       2771  
      2641       2642       2653       2652       2762       2763       2774       2773  
      2642       2643       2654       2653       2763       2764       2775       2774  
      2643       2644       2655       2654       2764       2765       2776       2775  
      2644       2645       2656       2655       2765       2766       2777       2776  
      2645       2646       2657       2656       2766       2767       2778       2777  
      2646       2647       2658       2657       2767       2768       2779       2778  
      2647       2648       2659       2658       2768       2769       2780       2779  
      2648       2649       2660       2659       2769       2770       2781       2780  
      2649       2650       2661       2660       2770       2771       2782       2781  
      2650       2651       2662       2661       2771       2772       2783       2782  
      2663       2664       2675       2674       2784       2785       2796       2795  
      2664       2665       2676       2675       2785       2786       2797       2796  
      2665       2666       2677       2676       2786       2787       2798       2797  
      2666       2667       2678       2677       2787       2788       2799       2798  
      2667       2668       2679       2678       2788       2789       2800       2799  
      2668       2669       2680       2679       2789       2790       2801       2800  
      2669       2670       2681       2680       2790       2791       2802       2801  
      2670       2671       2682       2681       2791       2792       2803       2802  
      2671       2672       2683       2682       2792       2793       2804       2803  
      2672       2673       2684       2683       2793       2794       2805       2804  
      2674       2675       2686       2685       2795       2796       2807       2806  
      2675       2676       2687       2686       2796       2797       2808       2807  
      2676       2677       2688       2687       2797       2798       2809       2808  
      2677       2678       2689       2688       2798       2799       2810       2809  
      2678       2679       2690       2689       2799       2800       2811       2810  
      2679       2680       2691       2690       2800       2801       2812       2811  
      2680       2681       2692       2691       2801       2802       2813       2812  
      2681       2682       2693       2692       2802       2803       2814       2813  
      2682       2683       2694       2693       2803       2804       2815       2814  
      2683       2684       2695       2694       2804       2805       2816       2815  
      2685       2686       2697       2696       2806       2807       2818       2817  
      2686       2687       2698       2697       2807       2808       2819       2818  
      2687       2688       2699       2698       2808       2809       2820       2819  
      2688       2689       2700       2699       2809       2810       2821       2820  
      2689       2690       2701       2700       2810       2811       2822       2821  
      2690       2691       2702       2701       2811       2812       2823       2822  
      2691       2692       2703       2702       2812       2813       2824       2823  
      2692       2693       2704       2703       2813       2814       2825       2824  
      2693       2694       2705       2704       2814       2815       2826       2825  
      2694       2695       2706       2705       2815       2816       2827       2826  
      2696       2697       2708       2707       2817       2818       2829       2828  
      2697       2698       2709       2708       2818       2819       2830       2829  
      2698       2699       2710       2709       2819       2820       2831       2830  
      2699       2700       2711       2710       2820       2821       2832       2831  
      2700       2701       2712       2711       2821       2822       2833       2832  
      2701       2702       2713       2712       2822       2823       2834       2833  
      2702       2703       2714       2713       2823       2824       2835       2834  
      2703       2704       2715       2714       2824       2825       2836       2835  
      2704       2705       2716       2715       2825       2826       2837       2836  
      2705       2706       2717       2716       2826       2827       2838       2837  
      2707       2708       2719       2718       2828       2829       2840       2839  
      2708       2709       2720       2719       2829       2830       2841       2840  
      2709       2710       2721       2720       2830       2831       2842       2841  
      2710       2711       2722       2721       2831       2832       2843       2842  
      2711       2712       2723       2722       2832       2833       2844       2843  
      2712       2713       2724       2723       2833       2834       2845       2844  
      2713       2714       2725       2724       2834       2835       2846       2845  
      2714       2715       2726       2725       2835       2836       2847       2846  
      2715       2716       2727       2726       2836       2837       2848       2847  
      2716       2717       2728       2727       2837       2838       2849       2848  
      2718       2719       2730       2729       2839       2840       2851       2850  
      2719       2720       2731       2730       2840       2841       2852       2851  
      2720       2721       2732       2731       2841       2842       2853       2852  
      2721       2722       2733       2732       2842       2843       2854       2853  
      2722       2723       2734       2733       2843       2844       2855       2854  
      2723       2724       2735       2734       2844       2845       2856       2855  
      2724       2725       2736       2735       2845       2846       2857       2856  
      2725       2726       2737       2736       2846       2847       2858       2857  
      2726       2727       2738       2737       2847       2848       2859       2858  
      2727       2728       2739       2738       2848       2849       2860       2859  
      2729       2730       2741       2740       2850       2851       2862       2861  
      2730       2731       2742       2741       2851       2852       2863       2862  
      2731       2732       2743       2742       2852       2853       2864       2863  
      2732       2733       2744       2743       2853       2854       2865       2864  
      2733       2734       2745       2744       2854       2855       2866       2865  
      2734       2735       2746       2745       2855       2856       2867       2866  
      2735       2736       2747       2746       2856       2857       2868       2867  
      2736       2737       2748       2747       2857       2858       2869       2868  
      2737       2738       2749       2748       2858       2859       2870       2869  
      2738       2739       2750       2749       2859       2860       2871       2870  
      2740       2741       2752       2751       2861       2862       2873       2872  
      2741       2742       2753       2752       2862       2863       2874       2873  
      2742       2743       2754       2753       2863       2864       2875       2874  
      2743       2744       2755       2754       2864       2865       2876       2875  
      2744       2745       2756       2755       2865       2866       2877       2876  
      2745       2746       2757       2756       2866       2867       2878       2877  
      2746       2747       2758       2757       2867       2868       2879       2878  
      2747       2748       2759       2758       2868       2869       2880       2879  
      2748       2749       2760       2759       2869       2870       2881       2880  
      2749       2750       2761       2760       2870       2871       2882       2881  
      2751       2752       2763       2762       2872       2873       2884       2883  
      2752       2753       2764       2763       2873       2874       2885       2884  
      2753       2754       2765       2764       2874       2875       2886       2885  
      2754       2755       2766       2765       2875       2876       2887       2886  
      2755       2756       2767       2766       2876       2877       2888       2887  
      2756       2757       2768       2767       2877       2878       2889       2888  
      2757       2758       2769       2768       2878       2879       2890       2889  
      2758       2759       2770       2769       2879       2880       2891       2890  
      2759       2760       2771       2770       2880       2881       2892       2891  
      2760       2761       2772       2771       2881       2882       2893       2892  
      2762       2763       2774       2773       2883       2884       2895       2894  
      2763       2764       2775       2774       2884       2885       2896       2895  
      2764       2765       2776       2775       2885       2886       2897       2896  
      2765       2766       2777       2776       2886       2887       2898       2897  
      2766       2767       2778       2777       2887       2888       2899       2898  
      2767       2768       2779       2778       2888       2889       2900       2899  
      2768       2769       2780       2779       2889       2890       2901       2900  
      2769       2770       2781       2780       2890       2891       2902       2901  
      2770       2771       2782       2781       2891       2892       2903       2902  
      2771       2772       2783       2782       2892       2893       2904       2903  
      2784       2785       2796       2795       2905       2906       2917       2916  
      2785       2786       2797       2796       2906       2907       2918       2917  
      2786       2787       2798       2797       2907       2908       2919       2918  
      2787       2788       2799       2798       2908       2909       2920       2919  
      2788       2789       2800       2799       2909       2910       2921       2920  
      2789       2790       2801       2800       2910       2911       2922       2921  
      2790       2791       2802       2801       2911       2912       2923       2922  
      2791       2792       2803       2802       2912       2913       2924       2923  
      2792       2793       2804       2803       2913       2914       2925       2924  
      2793       2794       2805       2804       2914       2915       2926       2925  
      2795       2796       2807       2806       2916       2917       2928       2927  
      2796       2797       2808       2807       2917       2918       2929       2928  
      2797       2798       2809       2808       2918       2919       2930       2929  
      2798       2799       2810       2809       2919       2920       2931       2930  
      2799       2800       2811       2810       2920       2921       2932       2931  
      2800       2801       2812       2811       2921       2922       2933       2932  
      2801       2802       2813       2812       2922       2923       2934       2933  
      2802       2803       2814       2813       2923       2924       2935       2934  
      2803       2804       2815       2814       2924       2925       2936       2935  
      2804       2805       2816       2815       2925       2926       2937       2936  
      2806       2807       2818       2817       2927       2928       2939       2938  
      2807       2808       2819       2818       2928       2929       2940       2939  
      2808       2809       2820       2819       2929       2930       2941       2940  
      2809       2810       2821       2820       2930       2931       2942       2941  
      2810       2811       2822       2821       2931       2932       2943       2942  
      2811       2812       2823       2822       2932       2933       2944       2943  
      2812       2813       2824       2823       2933       2934       2945       2944  
      2813       2814       2825       2824       2934       2935       2946       2945  
      2814       2815       2826       2825       2935       2936       2947       2946  
      2815       2816       2827       2826       2936       2937       2948       2947  
      2817       2818       2829       2828       2938       2939       2950       2949  
      2818       2819       2830       2829       2939       2940       2951       2950  
      2819       2820       2831       2830       2940       2941       2952       2951  
      2820       2821       2832       2831       2941       2942       2953       2952  
      2821       2822       2833       2832       2942       2943       2954       2953  
      2822       2823       2834       2833       2943       2944       2955       2954  
      2823       2824       2835       2834       2944       2945       2956       2955  
      2824       2825       2836       2835       2945       2946       2957       2956  
      2825       2826       2837       2836       2946       2947       2958       2957  
      2826       2827       2838       2837       2947       2948       2959       2958  
      2828       2829       2840       2839       2949       2950       2961       2960  
      2829       2830       2841       2840       2950       2951       2962       2961  
      2830       2831       2842       2841       2951       2952       2963       2962  
      2831       2832       2843       2842       2952       2953       2964       2963  
      2832       2833       2844       2843       2953       2954       2965       2964  
      2833       2834       2845       2844       2954       2955       2966       2965  
      2834       2835       2846       2845       2955       2956       2967       2966  
      2835       2836       2847       2846       2956       2957       2968       2967  
      2836       2837       2848       2847       2957       2958       2969       2968  
      2837       2838       2849       2848       2958       2959       2970       2969  
      2839       2840       2851       2850       2960       2961       2972       2971  
      2840       2841       2852       2851       2961       2962       2973       2972  
      2841       2842       2853       2852       2962       2963       2974       2973  
      2842       2843       2854       2853       2963       2964       2975       2974  
      2843       2844       2855       2854       2964       2965       2976       2975  
      2844       2845       2856       2855       2965       2966       2977       2976  
      2845       2846       2857       2856       2966       2967       2978       2977  
      2846       2847       2858       2857       2967       2968       2979       2978  
      2847       2848       2859       2858       2968       2969       2980       2979  
      2848       2849       2860       2859       2969       2970       2981       2980  
      2850       2851       2862       2861       2971       2972       2983       2982  
      2851       2852       2863       2862       2972       2973       2984       2983  
      2852       2853       2864       2863       2973       2974       2985       2984  
      2853       2854       2865       2864       2974       2975       2986       2985  
      2854       2855       2866       2865       2975       2976       2987       2986  
      2855       2856       2867       2866       2976       2977       2988       2987  
      2856       2857       2868       2867       2977       2978       2989       2988  
      2857       2858       2869       2868       2978       2979       2990       2989  
      2858       2859       2870       2869       2979       2980       2991       2990  
      2859       2860       2871       2870       2980       2981       2992       2991  
      2861       2862       2873       2872       2982       2983       2994       2993  
      2862       2863       2874       2873       2983       2984       2995       2994  
      2863       2864       2875       2874       2984       2985       2996       2995  
      2864       2865       2876       2875       2985       2986       2997       2996  
      2865       2866       2877       2876       2986       2987       2998       2997  
      2866       2867       2878       2877       2987       2988       2999       2998  
      2867       2868       2879       2878       2988       2989       3000       2999  
      2868       2869       2880       2879       2989       2990       3001       3000  
      2869       2870       2881       2880       2990       2991       3002       3001  
      2870       2871       2882       2881       2991       2992       3003       3002  
      2872       2873       2884       2883       2993       2994       3005       3004  
      2873       2874       2885       2884       2994       2995       3006       3005  
      2874       2875       2886       2885       2995       2996       3007       3006  
      2875       2876       2887       2886       2996       2997       3008       3007  
      2876       2877       2888       2887       2997       2998       3009       3008  
      2877       2878       2889       2888       2998       2999       3010       3009  
      2878       2879       2890       2889       2999       3000       3011       3010  
      2879       2880       2891       2890       3000       3001       3012       3011  
      2880       2881       2892       2891       3001       3002       3013       3012  
      2881       2882       2893       2892       3002       3003       3014       3013  
      2883       2884       2895       2894       3004       3005       3016       3015  
      2884       2885       2896       2895       3005       3006       3017       3016  
      2885       2886       2897       2896       3006       3007       3018       3017  
      2886       2887       2898       2897       3007       3008       3019       3018  
      2887       2888       2899       2898       3008       3009       3020       3019  
      2888       2889       2900       2899       3009       3010       3021       3020  
      2889       2890       2901       2900       3010       3011       3022       3021  
      2890       2891       2902       2901       3011       3012       3023       3022  
      2891       2892       2903       2902       3012       3013       3024       3023  
      2892       2893       2904       2903       3013       3014       3025       3024  
      2905       2906       2917       2916       3026       3027       3038       3037  
      2906       2907       2918       2917       3027       3028       3039       3038  
      2907       2908       2919       2918       3028       3029       3040       3039  
      2908       2909       2920       2919       3029       3030       3041       3040  
      2909       2910       2921       2920       3030       3031       3042       3041  
      2910       2911       2922       2921       3031       3032       3043       3042  
      2911       2912       2923       2922       3032       3033       3044       3043  
      2912       2913       2924       2923       3033       3034       3045       3044  
      2913       2914       2925       2924       3034       3035       3046       3045  
      2914       2915       2926       2925       3035       3036       3047       3046  
      2916       2917       2928       2927       3037       3038       3049       3048  
      2917       2918       2929       2928       3038       3039       3050       3049  
      2918       2919       2930       2929       3039       3040       3051       3050  
      2919       2920       2931       2930       3040       3041       3052       3051  
      2920       2921       2932       2931       3041       3042       3053       3052  
      2921       2922       2933       2932       3042       3043       3054       3053  
      2922       2923       2934       2933       3043       3044       3055       3054  
      2923       2924       2935       2934       3044       3045       3056       3055  
      2924       2925       2936       2935       3045       3046       3057       3056  
      2925       2926       2937       2936       3046       3047       3058       3057  
      2927       2928       2939       2938       3048       3049       3060       3059  
      2928       2929       2940       2939       3049       3050       3061       3060  
      2929       2930       2941       2940       3050       3051       3062       3061  
      2930       2931       2942       2941       3051       3052       3063       3062  
      2931       2932       2943       2942       3052       3053       3064       3063  
      2932       2933       2944       2943       3053       3054       3065       3064  
      2933       2934       2945       2944       3054       3055       3066       3065  
      2934       2935       2946       2945       3055       3056       3067       3066  
      2935       2936       2947       2946       3056       3057       3068       3067  
      2936       2937       2948       2947       3057       3058       3069       3068  
      2938       2939       2950       2949       3059       3060       3071       3070  
      2939       2940       2951       2950       3060       3061       3072       3071  
      2940       2941       2952       2951       3061       3062       3073       3072  
      2941       2942       2953       2952       3062       3063       3074       3073  
      2942       2943       2954       2953       3063       3064       3075       3074  
      2943       2944       2955       2954       3064       3065       3076       3075  
      2944       2945       2956       2955       3065       3066       3077       3076  
      2945       2946       2957       2956       3066       3067       3078       3077  
      2946       2947       2958       2957       3067       3068       3079       3078  
      2947       2948       2959       2958       3068       3069       3080       3079  
      2949       2950       2961       2960       3070       3071       3082       3081  
      2950       2951       2962       2961       3071       3072       3083       3082  
      2951       2952       2963       2962       3072       3073       3084       3083  
      2952       2953       2964       2963       3073       3074       3085       3084  
      2953       2954       2965       2964       3074       3075       3086       3085  
      2954       2955       2966       2965       3075       3076       3087       3086  
      2955       2956       2967       2966       3076       3077       3088       3087  
      2956       2957       2968       2967       3077       3078       3089       3088  
      2957       2958       2969       2968       3078       3079       3090       3089  
      2958       2959       2970       2969       3079       3080       3091       3090  
      2960       2961       2972       2971       3081       3082       3093       3092  
      2961       2962       2973       2972       3082       3083       3094       3093  
      2962       2963       2974       2973       3083       3084       3095       3094  
      2963       2964       2975       2974       3084       3085       3096       3095  
      2964       2965       2976       2975       3085       3086       3097       3096  
      2965       2966       2977       2976       3086       3087       3098       3097  
      2966       2967       2978       2977       3087       3088       3099       3098  
      2967       2968       2979       2978       3088       3089       3100       3099  
      2968       2969       2980       2979       3089       3090       3101       3100  
      2969       2970       2981       2980       3090       3091       3102       3101  
      2971       2972       2983       2982       3092       3093       3104       3103  
      2972       2973       2984       2983       3093       3094       3105       3104  
      2973       2974       2985       2984       3094       3095       3106       3105  
      2974       2975       2986       2985       3095       3096       3107       3106  
      2975       2976       2987       2986       3096       3097       3108       3107  
      2976       2977       2988       2987       3097       3098       3109       3108  
      2977       2978       2989       2988       3098       3099       3110       3109  
      2978       2979       2990       2989       3099       3100       3111       3110  
      2979       2980       2991       2990       3100       3101       3112       3111  
      2980       2981       2992       2991       3101       3102       3113       3112  
      2982       2983       2994       2993       3103       3104       3115       3114  
      2983       2984       2995       2994       3104       3105       3116       3115  
      2984       2985       2996       2995       3105       3106       3117       3116  
      2985       2986       2997       2996       3106       3107       3118       3117  
      2986       2987       2998       2997       3107       3108       3119       3118  
      2987       2988       2999       2998       3108       3109       3120       3119  
      2988       2989       3000       2999       3109       3110       3121       3120  
      2989       2990       3001       3000       3110       3111       3122       3121  
      2990       2991       3002       3001       3111       3112       3123       3122  
      2991       2992       3003       3002       3112       3113       3124       3123  
      2993       2994       3005       3004       3114       3115       3126       3125  
      2994       2995       3006       3005       3115       3116       3127       3126  
      2995       2996       3007       3006       3116       3117       3128       3127  
      2996       2997       3008       3007       3117       3118       3129       3128  
      2997       2998       3009       3008       3118       3119       3130       3129  
      2998       2999       3010       3009       3119       3120       3131       3130  
      2999       3000       3011       3010       3120       3121       3132       3131  
      3000       3001       3012       3011       3121       3122       3133       3132  
      3001       3002       3013       3012       3122       3123       3134       3133  
      3002       3003       3014       3013       3123       3124       3135       3134  
      3004       3005       3016       3015       3125       3126       3137       3136  
      3005       3006       3017       3016       3126       3127       3138       3137  
      3006       3007       3018       3017       3127       3128       3139       3138  
      3007       3008       3019       3018       3128       3129       3140       3139  
      3008       3009       3020       3019       3129       3130       3141       3140  
      3009       3010       3021       3020       3130       3131       3142       3141  
      3010       3011       3022       3021       3131       3132       3143       3142  
      3011       3012       3023       3022       3132       3133       3144       3143  
      3012       3013       3024       3023       3133       3134       3145       3144  
      3013       3014       3025       3024       3134       3135       3146       3145  
      3026       3027       3038       3037       3147       3148       3159       3158  
      3027       3028       3039       3038       3148       3149       3160       3159  
      3028       3029       3040       3039       3149       3150       3161       3160  
      3029       3030       3041       3040       3150       3151       3162       3161  
      3030       3031       3042       3041       3151       3152       3163       3162  
      3031       3032       3043       3042       3152       3153       3164       3163  
      3032       3033       3044       3043       3153       3154       3165       3164  
      3033       3034       3045       3044       3154       3155       3166       3165  
      3034       3035       3046       3045       3155       3156       3167       3166  
      3035       3036       3047       3046       3156       3157       3168       3167  
      3037       3038       3049       3048       3158       3159       3170       3169  
      3038       3039       3050       3049       3159       3160       3171       3170  
      3039       3040       3051       3050       3160       3161       3172       3171  
      3040       3041       3052       3051       3161       3162       3173       3172  
      3041       3042       3053       3052       3162       3163       3174       3173  
      3042       3043       3054       3053       3163       3164       3175       3174  
      3043       3044       3055       3054       3164       3165       3176       3175  
      3044       3045       3056       3055       3165       3166       3177       3176  
      3045       3046       3057       3056       3166       3167       3178       3177  
      3046       3047       3058       3057       3167       3168       3179       3178  
      3048       3049       3060       3059       3169       3170       3181       3180  
      3049       3050       3061       3060       3170       3171       3182       3181  
      3050       3051       3062       3061       3171       3172       3183       3182  
      3051       3052       3063       3062       3172       3173       3184       3183  
      3052       3053       3064       3063       3173       3174       3185       3184  
      3053       3054       3065       3064       3174       3175       3186       3185  
      3054       3055       3066       3065       3175       3176       3187       3186  
      3055       3056       3067       3066       3176       3177       3188       3187  
      3056       3057       3068       3067       3177       3178       3189       3188  
      3057       3058       3069       3068       3178       3179       3190       3189  
      3059       3060       3071       3070       3180       3181       3192       3191  
      3060       3061       3072       3071       3181       3182       3193       3192  
      3061       3062       3073       3072       3182       3183       3194       3193  
      3062       3063       3074       3073       3183       3184       3195       3194  
      3063       3064       3075       3074       3184       3185       3196       3195  
      3064       3065       3076       3075       3185       3186       3197       3196  
      3065       3066       3077       3076       3186       3187       3198       3197  
      3066       3067       3078       3077       3187       3188       3199       3198  
      3067       3068       3079       3078       3188       3189       3200       3199  
      3068       3069       3080       3079       3189       3190       3201       3200  
      3070       3071       3082       3081       3191       3192       3203       3202  
      3071       3072       3083       3082       3192       3193       3204       3203  
      3072       3073       3084       3083       3193       3194       3205       3204  
      3073       3074       3085       3084       3194       3195       3206       3205  
      3074       3075       3086       3085       3195       3196       3207       3206  
      3075       3076       3087       3086       3196       3197       3208       3207  
      3076       3077       3088       3087       3197       3198       3209       3208  
      3077       3078       3089       3088       3198       3199       3210       3209  
      3078       3079       3090       3089       3199       3200       3211       3210  
      3079       3080       3091       3090       3200       3201       3212       3211  
      3081       3082       3093       3092       3202       3203       3214       3213  
      3082       3083       3094       3093       3203       3204       3215       3214  
      3083       3084       3095       3094       3204       3205       3216       3215  
      3084       3085       3096       3095       3205       3206       3217       3216  
      3085       3086       3097       3096       3206       3207       3218       3217  
      3086       3087       3098       3097       3207       3208       3219       3218  
      3087       3088       3099       3098       3208       3209       3220       3219  
      3088       3089       3100       3099       3209       3210       3221       3220  
      3089       3090       3101       3100       3210       3211       3222       3221  
      3090       3091       3102       3101       3211       3212       3223       3222  
      3092       3093       3104       3103       3213       3214       3225       3224  
      3093       3094       3105       3104       3214       3215       3226       3225  
      3094       3095       3106       3105       3215       3216       3227       3226  
      3095       3096       3107       3106       3216       3217       3228       3227  
      3096       3097       3108       3107       3217       3218       3229       3228  
      3097       3098       3109       3108       3218       3219       3230       3229  
      3098       3099       3110       3109       3219       3220       3231       3230  
      3099       3100       3111       3110       3220       3221       3232       3231  
      3100       3101       3112       3111       3221       3222       3233       3232  
      3101       3102       3113       3112       3222       3223       3234       3233  
      3103       3104       3115       3114       3224       3225       3236       3235  
      3104       3105       3116       3115       3225       3226       3237       3236  
      3105       3106       3117       3116       3226       3227       3238       3237  
      3106       3107       3118       3117       3227       3228       3239       3238  
      3107       3108       3119       3118       3228       3229       3240       3239  
      3108       3109       3120       3119       3229       3230       3241       3240  
      3109       3110       3121       3120       3230       3231       3242       3241  
      3110       3111       3122       3121       3231       3232       3243       3242  
      3111       3112       3123       3122       3232       3233       3244       3243  
      3112       3113       3124       3123       3233       3234       3245       3244  
      3114       3115       3126       3125       3235       3236       3247       3246  
      3115       3116       3127       3126       3236       3237       3248       3247  
      3116       3117       3128       3127       3237       3238       3249       3248  
      3117       3118       3129       3128       3238       3239       3250       3249  
      3118       3119       3130       3129       3239       3240       3251       3250  
      3119       3120       3131       3130       3240       3241       3252       3251  
      3120       3121       3132       3131       3241       3242       3253       3252  
      3121       3122       3133       3132       3242       3243       3254       3253  
      3122       3123       3134       3133       3243       3244       3255       3254  
      3123       3124       3135       3134       3244       3245       3256       3255  
      3125       3126       3137       3136       3246       3247       3258       3257  
      3126       3127       3138       3137       3247       3248       3259       3258  
      3127       3128       3139       3138       3248       3249       3260       3259  
      3128       3129       3140       3139       3249       3250       3261       3260  
      3129       3130       3141       3140       3250       3251       3262       3261  
      3130       3131       3142       3141       3251       3252       3263       3262  
      3131       3132       3143       3142       3252       3253       3264       3263  
      3132       3133       3144       3143       3253       3254       3265       3264  
      3133       3134       3145       3144       3254       3255       3266       3265  
      3134       3135       3146       3145       3255       3256       3267       3266  
      3147       3148       3159       3158       3268       3269       3280       3279  
      3148       3149       3160       3159       3269       3270       3281       3280  
      3149       3150       3161       3160       3270       3271       3282       3281  
      3150       3151       3162       3161       3271       3272       3283       3282  
      3151       3152       3163       3162       3272       3273       3284       3283  
      3152       3153       3164       3163       3273       3274       3285       3284  
      3153       3154       3165       3164       3274       3275       3286       3285  
      3154       3155       3166       3165       3275       3276       3287       3286  
      3155       3156       3167       3166       3276       3277       3288       3287  
      3156       3157       3168       3167       3277       3278       3289       3288  
      3158       3159       3170       3169       3279       3280       3291       3290  
      3159       3160       3171       3170       3280       3281       3292       3291  
      3160       3161       3172       3171       3281       3282       3293       3292  
      3161       3162       3173       3172       3282       3283       3294       3293  
      3162       3163       3174       3173       3283       3284       3295       3294  
      3163       3164       3175       3174       3284       3285       3296       3295  
      3164       3165       3176       3175       3285       3286       3297       3296  
      3165       3166       3177       3176       3286       3287       3298       3297  
      3166       3167       3178       3177       3287       3288       3299       3298  
      3167       3168       3179       3178       3288       3289       3300       3299  
      3169       3170       3181       3180       3290       3291       3302       3301  
      3170       3171       3182       3181       3291       3292       3303       3302  
      3171       3172       3183       3182       3292       3293       3304       3303  
      3172       3173       3184       3183       3293       3294       3305       3304  
      3173       3174       3185       3184       3294       3295       3306       3305  
      3174       3175       3186       3185       3295       3296       3307       3306  
      3175       3176       3187       3186       3296       3297       3308       3307  
      3176       3177       3188       3187       3297       3298       3309       3308  
      3177       3178       3189       3188       3298       3299       3310       3309  
      3178       3179       3190       3189       3299       3300       3311       3310  
      3180       3181       3192       3191       3301       3302       3313       3312  
      3181       3182       3193       3192       3302       3303       3314       3313  
      3182       3183       3194       3193       3303       3304       3315       3314  
      3183       3184       3195       3194       3304       3305       3316       3315  
      3184       3185       3196       3195       3305       3306       3317       3316  
      3185       3186       3197       3196       3306       3307       3318       3317  
      3186       3187       3198       3197       3307       3308       3319       3318  
      3187       3188       3199       3198       3308       3309       3320       3319  
      3188       3189       3200       3199       3309       3310       3321       3320  
      3189       3190       3201       3200       3310       3311       3322       3321  
      3191       3192       3203       3202       3312       3313       3324       3323  
      3192       3193       3204       3203       3313       3314       3325       3324  
      3193       3194       3205       3204       3314       3315       3326       3325  
      3194       3195       3206       3205       3315       3316       3327       3326  
      3195       3196       3207       3206       3316       3317       3328       3327  
      3196       3197       3208       3207       3317       3318       3329       3328  
      3197       3198       3209       3208       3318       3319       3330       3329  
      3198       3199       3210       3209       3319       3320       3331       3330  
      3199       3200       3211       3210       3320       3321       3332       3331  
      3200       3201       3212       3211       3321       3322       3333       3332  
      3202       3203       3214       3213       3323       3324       3335       3334  
      3203       3204       3215       3214       3324       3325       3336       3335  
      3204       3205       3216       3215       3325       3326       3337       3336  
      3205       3206       3217       3216       3326       3327       3338       3337  
      3206       3207       3218       3217       3327       3328       3339       3338  
      3207       3208       3219       3218       3328       3329       3340       3339  
      3208       3209       3220       3219       3329       3330       3341       3340  
      3209       3210       3221       3220       3330       3331       3342       3341  
      3210       3211       3222       3221       3331       3332       3343       3342  
      3211       3212       3223       3222       3332       3333       3344       3343  
      3213       3214       3225       3224       3334       3335       3346       3345  
      3214       3215       3226       3225       3335       3336       3347       3346  
      3215       3216       3227       3226       3336       3337       3348       3347  
      3216       3217       3228       3227       3337       3338       3349       3348  
      3217       3218       3229       3228       3338       3339       3350       3349  
      3218       3219       3230       3229       3339       3340       3351       3350  
      3219       3220       3231       3230       3340       3341       3352       3351  
      3220       3221       3232       3231       3341       3342       3353       3352  
      3221       3222       3233       3232       3342       3343       3354       3353  
      3222       3223       3234       3233       3343       3344       3355       3354  
      3224       3225       3236       3235       3345       3346       3357       3356  
      3225       3226       3237       3236       3346       3347       3358       3357  
      3226       3227       3238       3237       3347       3348       3359       3358  
      3227       3228       3239       3238       3348       3349       3360       3359  
      3228       3229       3240       3239       3349       3350       3361       3360  
      3229       3230       3241       3240       3350       3351       3362       3361  
      3230       3231       3242       3241       3351       3352       3363       3362  
      3231       3232       3243       3242       3352       3353       3364       3363  
      3232       3233       3244       3243       3353       3354       3365       3364  
      3233       3234       3245       3244       3354       3355       3366       3365  
      3235       3236       3247       3246       3356       3357       3368       3367  
      3236       3237       3248       3247       3357       3358       3369       3368  
      3237       3238       3249       3248       3358       3359       3370       3369  
      3238       3239       3250       3249       3359       3360       3371       3370  
      3239       3240       3251       3250       3360       3361       3372       3371  
      3240       3241       3252       3251       3361       3362       3373       3372  
      3241       3242       3253       3252       3362       3363       3374       3373  
      3242       3243       3254       3253       3363       3364       3375       3374  
      3243       3244       3255       3254       3364       3365       3376       3375  
      3244       3245       3256       3255       3365       3366       3377       3376  
      3246       3247       3258       3257       3367       3368       3379       3378  
      3247       3248       3259       3258       3368       3369       3380       3379  
      3248       3249       3260       3259       3369       3370       3381       3380  
      3249       3250       3261       3260       3370       3371       3382       3381  
      3250       3251       3262       3261       3371       3372       3383       3382  
      3251       3252       3263       3262       3372       3373       3384       3383  
      3252       3253       3264       3263       3373       3374       3385       3384  
      3253       3254       3265       3264       3374       3375       3386       3385  
      3254       3255       3266       3265       3375       3376       3387       3386  
      3255       3256       3267       3266       3376       3377       3388       3387  
      3268       3269       3280       3279       3389       3390       3401       3400  
      3269       3270       3281       3280       3390       3391       3402       3401  
      3270       3271       3282       3281       3391       3392       3403       3402  
      3271       3272       3283       3282       3392       3393       3404       3403  
      3272       3273       3284       3283       3393       3394       3405       3404  
      3273       3274       3285       3284       3394       3395       3406       3405  
      3274       3275       3286       3285       3395       3396       3407       3406  
      3275       3276       3287       3286       3396       3397       3408       3407  
      3276       3277       3288       3287       3397       3398       3409       3408  
      3277       3278       3289       3288       3398       3399       3410       3409  
      3279       3280       3291       3290       3400       3401       3412       3411  
      3280       3281       3292       3291       3401       3402       3413       3412  
      3281       3282       3293       3292       3402       3403       3414       3413  
      3282       3283       3294       3293       3403       3404       3415       3414  
      3283       3284       3295       3294       3404       3405       3416       3415  
      3284       3285       3296       3295       3405       3406       3417       3416  
      3285       3286       3297       3296       3406       3407       3418       3417  
      3286       3287       3298       3297       3407       3408       3419       3418  
      3287       3288       3299       3298       3408       3409       3420       3419  
      3288       3289       3300       3299       3409       3410       3421       3420  
      3290       3291       3302       3301       3411       3412       3423       3422  
      3291       3292       3303       3302       3412       3413       3424       3423  
      3292       3293       3304       3303       3413       3414       3425       3424  
      3293       3294       3305       3304       3414       3415       3426       3425  
      3294       3295       3306       3305       3415       3416       3427       3426  
      3295       3296       3307       3306       3416       3417       3428       3427  
      3296       3297       3308       3307       3417       3418       3429       3428  
      3297       3298       3309       3308       3418       3419       3430       3429  
      3298       3299       3310       3309       3419       3420       3431       3430  
      3299       3300       3311       3310       3420       3421       3432       3431  
      3301       3302       3313       3312       3422       3423       3434       3433  
      3302       3303       3314       3313       3423       3424       3435       3434  
      3303       3304       3315       3314       3424       3425       3436       3435  
      3304       3305       3316       3315       3425       3426       3437       3436  
      3305       3306       3317       3316       3426       3427       3438       3437  
      3306       3307       3318       3317       3427       3428       3439       3438  
      3307       3308       3319       3318       3428       3429       3440       3439  
      3308       3309       3320       3319       3429       3430       3441       3440  
      3309       3310       3321       3320       3430       3431       3442       3441  
      3310       3311       3322       3321       3431       3432       3443       3442  
      3312       3313       3324       3323       3433       3434       3445       3444  
      3313       3314       3325       3324       3434       3435       3446       3445  
      3314       3315       3326       3325       3435       3436       3447       3446  
      3315       3316       3327       3326       3436       3437       3448       3447  
      3316       3317       3328       3327       3437       3438       3449       3448  
      3317       3318       3329       3328       3438       3439       3450       3449  
      3318       3319       3330       3329       3439       3440       3451       3450  
      3319       3320       3331       3330       3440       3441       3452       3451  
      3320       3321       3332       3331       3441       3442       3453       3452  
      3321       3322       3333       3332       3442       3443       3454       3453  
      3323       3324       3335       3334       3444       3445       3456       3455  
      3324       3325       3336       3335       3445       3446       3457       3456  
      3325       3326       3337       3336       3446       3447       3458       3457  
      3326       3327       3338       3337       3447       3448       3459       3458  
      3327       3328       3339       3338       3448       3449       3460       3459  
      3328       3329       3340       3339       3449       3450       3461       3460  
      3329       3330       3341       3340       3450       3451       3462       3461  
      3330       3331       3342       3341       3451       3452       3463       3462  
      3331       3332       3343       3342       3452       3453       3464       3463  
      3332       3333       3344       3343       3453       3454       3465       3464  
      3334       3335       3346       3345       3455       3456       3467       3466  
      3335       3336       3347       3346       3456       3457       3468       3467  
      3336       3337       3348       3347       3457       3458       3469       3468  
      3337       3338       3349       3348       3458       3459       3470       3469  
      3338       3339       3350       3349       3459       3460       3471       3470  
      3339       3340       3351       3350       3460       3461       3472       3471  
      3340       3341       3352       3351       3461       3462       3473       3472  
      3341       3342       3353       3352       3462       3463       3474       3473  
      3342       3343       3354       3353       3463       3464       3475       3474  
      3343       3344       3355       3354       3464       3465       3476       3475  
      3345       3346       3357       3356       3466       3467       3478       3477  
      3346       3347       3358       3357       3467       3468       3479       3478  
      3347       3348       3359       3358       3468       3469       3480       3479  
      3348       3349       3360       3359       3469       3470       3481       3480  
      3349       3350       3361       3360       3470       3471       3482       3481  
      3350       3351       3362       3361       3471       3472       3483       3482  
      3351       3352       3363       3362       3472       3473       3484       3483  
      3352       3353       3364       3363       3473       3474       3485       3484  
      3353       3354       3365       3364       3474       3475       3486       3485  
      3354       3355       3366       3365       3475       3476       3487       3486  
      3356       3357       3368       3367       3477       3478       3489       3488  
      3357       3358       3369       3368       3478       3479       3490       3489  
      3358       3359       3370       3369       3479       3480       3491       3490  
      3359       3360       3371       3370       3480       3481       3492       3491  
      3360       3361       3372       3371       3481       3482       3493       3492  
      3361       3362       3373       3372       3482       3483       3494       3493  
      3362       3363       3374       3373       3483       3484       3495       3494  
      3363       3364       3375       3374       3484       3485       3496       3495  
      3364       3365       3376       3375       3485       3486       3497       3496  
      3365       3366       3377       3376       3486       3487       3498       3497  
      3367       3368       3379       3378       3488       3489       3500       3499  
      3368       3369       3380       3379       3489       3490       3501       3500  
      3369       3370       3381       3380       3490       3491       3502       3501  
      3370       3371       3382       3381       3491       3492       3503       3502  
      3371       3372       3383       3382       3492       3493       3504       3503  
      3372       3373       3384       3383       3493       3494       3505       3504  
      3373       3374       3385       3384       3494       3495       3506       3505  
      3374       3375       3386       3385       3495       3496       3507       3506  
      3375       3376       3387       3386       3496       3497       3508       3507  
      3376       3377       3388       3387       3497       3498       3509       3508  
      3389       3390       3401       3400       3510       3511       3522       3521  
      3390       3391       3402       3401       3511       3512       3523       3522  
      3391       3392       3403       3402       3512       3513       3524       3523  
      3392       3393       3404       3403       3513       3514       3525       3524  
      3393       3394       3405       3404       3514       3515       3526       3525  
      3394       3395       3406       3405       3515       3516       3527       3526  
      3395       3396       3407       3406       3516       3517       3528       3527  
      3396       3397       3408       3407       3517       3518       3529       3528  
      3397       3398       3409       3408       3518       3519       3530       3529  
      3398       3399       3410       3409       3519       3520       3531       3530  
      3400       3401       3412       3411       3521       3522       3533       3532  
      3401       3402       3413       3412       3522       3523       3534       3533  
      3402       3403       3414       3413       3523       3524       3535       3534  
      3403       3404       3415       3414       3524       3525       3536       3535  
      3404       3405       3416       3415       3525       3526       3537       3536  
      3405       3406       3417       3416       3526       3527       3538       3537  
      3406       3407       3418       3417       3527       3528       3539       3538  
      3407       3408       3419       3418       3528       3529       3540       3539  
      3408       3409       3420       3419       3529       3530       3541       3540  
      3409       3410       3421       3420       3530       3531       3542       3541  
      3411       3412       3423       3422       3532       3533       3544       3543  
      3412       3413       3424       3423       3533       3534       3545       3544  
      3413       3414       3425       3424       3534       3535       3546       3545  
      3414       3415       3426       3425       3535       3536       3547       3546  
      3415       3416       3427       3426       3536       3537       3548       3547  
      3416       3417       3428       3427       3537       3538       3549       3548  
      3417       3418       3429       3428       3538       3539       3550       3549  
      3418       3419       3430       3429       3539       3540       3551       3550  
      3419       3420       3431       3430       3540       3541       3552       3551  
      3420       3421       3432       3431       3541       3542       3553       3552  
      3422       3423       3434       3433       3543       3544       3555       3554  
      3423       3424       3435       3434       3544       3545       3556       3555  
      3424       3425       3436       3435       3545       3546       3557       3556  
      3425       3426       3437       3436       3546       3547       3558       3557  
      3426       3427       3438       3437       3547       3548       3559       3558  
      3427       3428       3439       3438       3548       3549       3560       3559  
      3428       3429       3440       3439       3549       3550       3561       3560  
      3429       3430       3441       3440       3550       3551       3562       3561  
      3430       3431       3442       3441       3551       3552       3563       3562  
      3431       3432       3443       3442       3552       3553       3564       3563  
      3433       3434       3445       3444       3554       3555       3566       3565  
      3434       3435       3446       3445       3555       3556       3567       3566  
      3435       3436       3447       3446       3556       3557       3568       3567  
      3436       3437       3448       3447       3557       3558       3569       3568  
      3437       3438       3449       3448       3558       3559       3570       3569  
      3438       3439       3450       3449       3559       3560       3571       3570  
      3439       3440       3451       3450       3560       3561       3572       3571  
      3440       3441       3452       3451       3561       3562       3573       3572  
      3441       3442       3453       3452       3562       3563       3574       3573  
      3442       3443       3454       3453       3563       3564       3575       3574  
      3444       3445       3456       3455       3565       3566       3577       3576  
      3445       3446       3457       3456       3566       3567       3578       3577  
      3446       3447       3458       3457       3567       3568       3579       3578  
      3447       3448       3459       3458       3568       3569       3580       3579  
      3448       3449       3460       3459       3569       3570       3581       3580  
      3449       3450       3461       3460       3570       3571       3582       3581  
      3450       3451       3462       3461       3571       3572       3583       3582  
      3451       3452       3463       3462       3572       3573       3584       3583  
      3452       3453       3464       3463       3573       3574       3585       3584  
      3453       3454       3465       3464       3574       3575       3586       3585  
      3455       3456       3467       3466       3576       3577       3588       3587  
      3456       3457       3468       3467       3577       3578       3589       3588  
      3457       3458       3469       3468       3578       3579       3590       3589  
      3458       3459       3470       3469       3579       3580       3591       3590  
      3459       3460       3471       3470       3580       3581       3592       3591  
      3460       3461       3472       3471       3581       3582       3593       3592  
      3461       3462       3473       3472       3582       3583       3594       3593  
      3462       3463       3474       3473       3583       3584       3595       3594  
      3463       3464       3475       3474       3584       3585       3596       3595  
      3464       3465       3476       3475       3585       3586       3597       3596  
      3466       3467       3478       3477       3587       3588       3599       3598  
      3467       3468       3479       3478       3588       3589       3600       3599  
      3468       3469       3480       3479       3589       3590       3601       3600  
      3469       3470       3481       3480       3590       3591       3602       3601  
      3470       3471       3482       3481       3591       3592       3603       3602  
      3471       3472       3483       3482       3592       3593       3604       3603  
      3472       3473       3484       3483       3593       3594       3605       3604  
      3473       3474       3485       3484       3594       3595       3606       3605  
      3474       3475       3486       3485       3595       3596       3607       3606  
      3475       3476       3487       3486       3596       3597       3608       3607  
      3477       3478       3489       3488       3598       3599       3610       3609  
      3478       3479       3490       3489       3599       3600       3611       3610  
      3479       3480       3491       3490       3600       3601       3612       3611  
      3480       3481       3492       3491       3601       3602       3613       3612  
      3481       3482       3493       3492       3602       3603       3614       3613  
      3482       3483       3494       3493       3603       3604       3615       3614  
      3483       3484       3495       3494       3604       3605       3616       3615  
      3484       3485       3496       3495       3605       3606       3617       3616  
      3485       3486       3497       3496       3606       3607       3618       3617  
      3486       3487       3498       3497       3607       3608       3619       3618  
      3488       3489       3500       3499       3609       3610       3621       3620  
      3489       3490       3501       3500       3610       3611       3622       3621  
      3490       3491       3502       3501       3611       3612       3623       3622  
      3491       3492       3503       3502       3612       3613       3624       3623  
      3492       3493       3504       3503       3613       3614       3625       3624  
      3493       3494       3505       3504       3614       3615       3626       3625  
      3494       3495       3506       3505       3615       3616       3627       3626  
      3495       3496       3507       3506       3616       3617       3628       3627  
      3496       3497       3508       3507       3617       3618       3629       3628  
      3497       3498       3509       3508       3618       3619       3630       3629  
      3510       3511       3522       3521       3631       3632       3643       3642  
      3511       3512       3523       3522       3632       3633       3644       3643  
      3512       3513       3524       3523       3633       3634       3645       3644  
      3513       3514       3525       3524       3634       3635       3646       3645  
      3514       3515       3526       3525       3635       3636       3647       3646  
      3515       3516       3527       3526       3636       3637       3648       3647  
      3516       3517       3528       3527       3637       3638       3649       3648  
      3517       3518       3529       3528       3638       3639       3650       3649  
      3518       3519       3530       3529       3639       3640       3651       3650  
      3519       3520       3531       3530       3640       3641       3652       3651  
      3521       3522       3533       3532       3642       3643       3654       3653  
      3522       3523       3534       3533       3643       3644       3655       3654  
      3523       3524       3535       3534       3644       3645       3656       3655  
      3524       3525       3536       3535       3645       3646       3657       3656  
      3525       3526       3537       3536       3646       3647       3658       3657  
      3526       3527       3538       3537       3647       3648       3659       3658  
      3527       3528       3539       3538       3648       3649       3660       3659  
      3528       3529       3540       3539       3649       3650       3661       3660  
      3529       3530       3541       3540       3650       3651       3662       3661  
      3530       3531       3542       3541       3651       3652       3663       3662  
      3532       3533       3544       3543       3653       3654       3665       3664  
      3533       3534       3545       3544       3654       3655       3666       3665  
      3534       3535       3546       3545       3655       3656       3667       3666  
      3535       3536       3547       3546       3656       3657       3668       3667  
      3536       3537       3548       3547       3657       3658       3669       3668  
      3537       3538       3549       3548       3658       3659       3670       3669  
      3538       3539       3550       3549       3659       3660       3671       3670  
      3539       3540       3551       3550       3660       3661       3672       3671  
      3540       3541       3552       3551       3661       3662       3673       3672  
      3541       3542       3553       3552       3662       3663       3674       3673  
      3543       3544       3555       3554       3664       3665       3676       3675  
      3544       3545       3556       3555       3665       3666       3677       3676  
      3545       3546       3557       3556       3666       3667       3678       3677  
      3546       3547       3558       3557       3667       3668       3679       3678  
      3547       3548       3559       3558       3668       3669       3680       3679  
      3548       3549       3560       3559       3669       3670       3681       3680  
      3549       3550       3561       3560       3670       3671       3682       3681  
      3550       3551       3562       3561       3671       3672       3683       3682  
      3551       3552       3563       3562       3672       3673       3684       3683  
      3552       3553       3564       3563       3673       3674       3685       3684  
      3554       3555       3566       3565       3675       3676       3687       3686  
      3555       3556       3567       3566       3676       3677       3688       3687  
      3556       3557       3568       3567       3677       3678       3689       3688  
      3557       3558       3569       3568       3678       3679       3690       3689  
      3558       3559       3570       3569       3679       3680       3691       3690  
      3559       3560       3571       3570       3680       3681       3692       3691  
      3560       3561       3572       3571       3681       3682       3693       3692  
      3561       3562       3573       3572       3682       3683       3694       3693  
      3562       3563       3574       3573       3683       3684       3695       3694  
      3563       3564       3575       3574       3684       3685       3696       3695  
      3565       3566       3577       3576       3686       3687       3698       3697  
      3566       3567       3578       3577       3687       3688       3699       3698  
      3567       3568       3579       3578       3688       3689       3700       3699  
      3568       3569       3580       3579       3689       3690       3701       3700  
      3569       3570       3581       3580       3690       3691       3702       3701  
      3570       3571       3582       3581       3691       3692       3703       3702  
      3571       3572       3583       3582       3692       3693       3704       3703  
      3572       3573       3584       3583       3693       3694       3705       3704  
      3573       3574       3585       3584       3694       3695       3706       3705  
      3574       3575       3586       3585       3695       3696       3707       3706  
      3576       3577       3588       3587       3697       3698       3709       3708  
      3577       3578       3589       3588       3698       3699       3710       3709  
      3578       3579       3590       3589       3699       3700       3711       3710  
      3579       3580       3591       3590       3700       3701       3712       3711  
      3580       3581       3592       3591       3701       3702       3713       3712  
      3581       3582       3593       3592       3702       3703       3714       3713  
      3582       3583       3594       3593       3703       3704       3715       3714  
      3583       3584       3595       3594       3704       3705       3716       3715  
      3584       3585       3596       3595       3705       3706       3717       3716  
      3585       3586       3597       3596       3706       3707       3718       3717  
      3587       3588       3599       3598       3708       3709       3720       3719  
      3588       3589       3600       3599       3709       3710       3721       3720  
      3589       3590       3601       3600       3710       3711       3722       3721  
      3590       3591       3602       3601       3711       3712       3723       3722  
      3591       3592       3603       3602       3712       3713       3724       3723  
      3592       3593       3604       3603       3713       3714       3725       3724  
      3593       3594       3605       3604       3714       3715       3726       3725  
      3594       3595       3606       3605       3715       3716       3727       3726  
      3595       3596       3607       3606       3716       3717       3728       3727  
      3596       3597       3608       3607       3717       3718       3729       3728  
      3598       3599       3610       3609       3719       3720       3731       3730  
      3599       3600       3611       3610       3720       3721       3732       3731  
      3600       3601       3612       3611       3721       3722       3733       3732  
      3601       3602       3613       3612       3722       3723       3734       3733  
      3602       3603       3614       3613       3723       3724       3735       3734  
      3603       3604       3615       3614       3724       3725       3736       3735  
      3604       3605       3616       3615       3725       3726       3737       3736  
      3605       3606       3617       3616       3726       3727       3738       3737  
      3606       3607       3618       3617       3727       3728       3739       3738  
      3607       3608       3619       3618       3728       3729       3740       3739  
      3609       3610       3621       3620       3730       3731       3742       3741  
      3610       3611       3622       3621       3731       3732       3743       3742  
      3611       3612       3623       3622       3732       3733       3744       3743  
      3612       3613       3624       3623       3733       3734       3745       3744  
      3613       3614       3625       3624       3734       3735       3746       3745  
      3614       3615       3626       3625       3735       3736       3747       3746  
      3615       3616       3627       3626       3736       3737       3748       3747  
      3616       3617       3628       3627       3737       3738       3749       3748  
      3617       3618       3629       3628       3738       3739       3750       3749  
      3618       3619       3630       3629       3739       3740       3751       3750  
      3631       3632       3643       3642       3752       3753       3764       3763  
      3632       3633       3644       3643       3753       3754       3765       3764  
      3633       3634       3645       3644       3754       3755       3766       3765  
      3634       3635       3646       3645       3755       3756       3767       3766  
      3635       3636       3647       3646       3756       3757       3768       3767  
      3636       3637       3648       3647       3757       3758       3769       3768  
      3637       3638       3649       3648       3758       3759       3770       3769  
      3638       3639       3650       3649       3759       3760       3771       3770  
      3639       3640       3651       3650       3760       3761       3772       3771  
      3640       3641       3652       3651       3761       3762       3773       3772  
      3642       3643       3654       3653       3763       3764       3775       3774  
      3643       3644       3655       3654       3764       3765       3776       3775  
      3644       3645       3656       3655       3765       3766       3777       3776  
      3645       3646       3657       3656       3766       3767       3778       3777  
      3646       3647       3658       3657       3767       3768       3779       3778  
      3647       3648       3659       3658       3768       3769       3780       3779  
      3648       3649       3660       3659       3769       3770       3781       3780  
      3649       3650       3661       3660       3770       3771       3782       3781  
      3650       3651       3662       3661       3771       3772       3783       3782  
      3651       3652       3663       3662       3772       3773       3784       3783  
      3653       3654       3665       3664       3774       3775       3786       3785  
      3654       3655       3666       3665       3775       3776       3787       3786  
      3655       3656       3667       3666       3776       3777       3788       3787  
      3656       3657       3668       3667       3777       3778       3789       3788  
      3657       3658       3669       3668       3778       3779       3790       3789  
      3658       3659       3670       3669       3779       3780       3791       3790  
      3659       3660       3671       3670       3780       3781       3792       3791  
      3660       3661       3672       3671       3781       3782       3793       3792  
      3661       3662       3673       3672       3782       3783       3794       3793  
      3662       3663       3674       3673       3783       3784       3795       3794  
      3664       3665       3676       3675       3785       3786       3797       3796  
      3665       3666       3677       3676       3786       3787       3798       3797  
      3666       3667       3678       3677       3787       3788       3799       3798  
      3667       3668       3679       3678       3788       3789       3800       3799  
      3668       3669       3680       3679       3789       3790       3801       3800  
      3669       3670       3681       3680       3790       3791       3802       3801  
      3670       3671       3682       3681       3791       3792       3803       3802  
      3671       3672       3683       3682       3792       3793       3804       3803  
      3672       3673       3684       3683       3793       3794       3805       3804  
      3673       3674       3685       3684       3794       3795       3806       3805  
      3675       3676       3687       3686       3796       3797       3808       3807  
      3676       3677       3688       3687       3797       3798       3809       3808  
      3677       3678       3689       3688       3798       3799       3810       3809  
      3678       3679       3690       3689       3799       3800       3811       3810  
      3679       3680       3691       3690       3800       3801       3812       3811  
      3680       3681       3692       3691       3801       3802       3813       3812  
      3681       3682       3693       3692       3802       3803       3814       3813  
      3682       3683       3694       3693       3803       3804       3815       3814  
      3683       3684       3695       3694       3804       3805       3816       3815  
      3684       3685       3696       3695       3805       3806       3817       3816  
      3686       3687       3698       3697       3807       3808       3819       3818  
      3687       3688       3699       3698       3808       3809       3820       3819  
      3688       3689       3700       3699       3809       3810       3821       3820  
      3689       3690       3701       3700       3810       3811       3822       3821  
      3690       3691       3702       3701       3811       3812       3823       3822  
      3691       3692       3703       3702       3812       3813       3824       3823  
      3692       3693       3704       3703       3813       3814       3825       3824  
      3693       3694       3705       3704       3814       3815       3826       3825  
      3694       3695       3706       3705       3815       3816       3827       3826  
      3695       3696       3707       3706       3816       3817       3828       3827  
      3697       3698       3709       3708       3818       3819       3830       3829  
      3698       3699       3710       3709       3819       3820       3831       3830  
      3699       3700       3711       3710       3820       3821       3832       3831  
      3700       3701       3712       3711       3821       3822       3833       3832  
      3701       3702       3713       3712       3822       3823       3834       3833  
      3702       3703       3714       3713       3823       3824       3835       3834  
      3703       3704       3715       3714       3824       3825       3836       3835  
      3704       3705       3716       3715       3825       3826       3837       3836  
      3705       3706       3717       3716       3826       3827       3838       3837  
      3706       3707       3718       3717       3827       3828       3839       3838  
      3708       3709       3720       3719       3829       3830       3841       3840  
      3709       3710       3721       3720       3830       3831       3842       3841  
      3710       3711       3722       3721       3831       3832       3843       3842  
      3711       3712       3723       3722       3832       3833       3844       3843  
      3712       3713       3724       3723       3833       3834       3845       3844  
      3713       3714       3725       3724       3834       3835       3846       3845  
      3714       3715       3726       3725       3835       3836       3847       3846  
      3715       3716       3727       3726       3836       3837       3848       3847  
      3716       3717       3728       3727       3837       3838       3849       3848  
      3717       3718       3729       3728       3838       3839       3850       3849  
      3719       3720       3731       3730       3840       3841       3852       3851  
      3720       3721       3732       3731       3841       3842       3853       3852  
      3721       3722       3733       3732       3842       3843       3854       3853  
      3722       3723       3734       3733       3843       3844       3855       3854  
      3723       3724       3735       3734       3844       3845       3856       3855  
      3724       3725       3736       3735       3845       3846       3857       3856  
      3725       3726       3737       3736       3846       3847       3858       3857  
      3726       3727       3738       3737       3847       3848       3859       3858  
      3727       3728       3739       3738       3848       3849       3860       3859  
      3728       3729       3740       3739       3849       3850       3861       3860  
      3730       3731       3742       3741       3851       3852       3863       3862  
      3731       3732       3743       3742       3852       3853       3864       3863  
      3732       3733       3744       3743       3853       3854       3865       3864  
      3733       3734       3745       3744       3854       3855       3866       3865  
      3734       3735       3746       3745       3855       3856       3867       3866  
      3735       3736       3747       3746       3856       3857       3868       3867  
      3736       3737       3748       3747       3857       3858       3869       3868  
      3737       3738       3749       3748       3858       3859       3870       3869  
      3738       3739       3750       3749       3859       3860       3871       3870  
      3739       3740       3751       3750       3860       3861       3872       3871  
      3752       3753       3764       3763       3873       3874       3885       3884  
      3753       3754       3765       3764       3874       3875       3886       3885  
      3754       3755       3766       3765       3875       3876       3887       3886  
      3755       3756       3767       3766       3876       3877       3888       3887  
      3756       3757       3768       3767       3877       3878       3889       3888  
      3757       3758       3769       3768       3878       3879       3890       3889  
      3758       3759       3770       3769       3879       3880       3891       3890  
      3759       3760       3771       3770       3880       3881       3892       3891  
      3760       3761       3772       3771       3881       3882       3893       3892  
      3761       3762       3773       3772       3882       3883       3894       3893  
      3763       3764       3775       3774       3884       3885       3896       3895  
      3764       3765       3776       3775       3885       3886       3897       3896  
      3765       3766       3777       3776       3886       3887       3898       3897  
      3766       3767       3778       3777       3887       3888       3899       3898  
      3767       3768       3779       3778       3888       3889       3900       3899  
      3768       3769       3780       3779       3889       3890       3901       3900  
      3769       3770       3781       3780       3890       3891       3902       3901  
      3770       3771       3782       3781       3891       3892       3903       3902  
      3771       3772       3783       3782       3892       3893       3904       3903  
      3772       3773       3784       3783       3893       3894       3905       3904  
      3774       3775       3786       3785       3895       3896       3907       3906  
      3775       3776       3787       3786       3896       3897       3908       3907  
      3776       3777       3788       3787       3897       3898       3909       3908  
      3777       3778       3789       3788       3898       3899       3910       3909  
      3778       3779       3790       3789       3899       3900       3911       3910  
      3779       3780       3791       3790       3900       3901       3912       3911  
      3780       3781       3792       3791       3901       3902       3913       3912  
      3781       3782       3793       3792       3902       3903       3914       3913  
      3782       3783       3794       3793       3903       3904       3915       3914  
      3783       3784       3795       3794       3904       3905       3916       3915  
      3785       3786       3797       3796       3906       3907       3918       3917  
      3786       3787       3798       3797       3907       3908       3919       3918  
      3787       3788       3799       3798       3908       3909       3920       3919  
      3788       3789       3800       3799       3909       3910       3921       3920  
      3789       3790       3801       3800       3910       3911       3922       3921  
      3790       3791       3802       3801       3911       3912       3923       3922  
      3791       3792       3803       3802       3912       3913       3924       3923  
      3792       3793       3804       3803       3913       3914       3925       3924  
      3793       3794       3805       3804       3914       3915       3926       3925  
      3794       3795       3806       3805       3915       3916       3927       3926  
      3796       3797       3808       3807       3917       3918       3929       3928  
      3797       3798       3809       3808       3918       3919       3930       3929  
      3798       3799       3810       3809       3919       3920       3931       3930  
      3799       3800       3811       3810       3920       3921       3932       3931  
      3800       3801       3812       3811       3921       3922       3933       3932  
      3801       3802       3813       3812       3922       3923       3934       3933  
      3802       3803       3814       3813       3923       3924       3935       3934  
      3803       3804       3815       3814       3924       3925       3936       3935  
      3804       3805       3816       3815       3925       3926       3937       3936  
      3805       3806       3817       3816       3926       3927       3938       3937  
      3807       3808       3819       3818       3928       3929       3940       3939  
      3808       3809       3820       3819       3929       3930       3941       3940  
      3809       3810       3821       3820       3930       3931       3942       3941  
      3810       3811       3822       3821       3931       3932       3943       3942  
      3811       3812       3823       3822       3932       3933       3944       3943  
      3812       3813       3824       3823       3933       3934       3945       3944  
      3813       3814       3825       3824       3934       3935       3946       3945  
      3814       3815       3826       3825       3935       3936       3947       3946  
      3815       3816       3827       3826       3936       3937       3948       3947  
      3816       3817       3828       3827       3937       3938       3949       3948  
      3818       3819       3830       3829       3939       3940       3951       3950  
      3819       3820       3831       3830       3940       3941       3952       3951  
      3820       3821       3832       3831       3941       3942       3953       3952  
      3821       3822       3833       3832       3942       3943       3954       3953  
      3822       3823       3834       3833       3943       3944       3955       3954  
      3823       3824       3835       3834       3944       3945       3956       3955  
      3824       3825       3836       3835       3945       3946       3957       3956  
      3825       3826       3837       3836       3946       3947       3958       3957  
      3826       3827       3838       3837       3947       3948       3959       3958  
      3827       3828       3839       3838       3948       3949       3960       3959  
      3829       3830       3841       3840       3950       3951       3962       3961  
      3830       3831       3842       3841       3951       3952       3963       3962  
      3831       3832       3843       3842       3952       3953       3964       3963  
      3832       3833       3844       3843       3953       3954       3965       3964  
      3833       3834       3845       3844       3954       3955       3966       3965  
      3834       3835       3846       3845       3955       3956       3967       3966  
      3835       3836       3847       3846       3956       3957       3968       3967  
      3836       3837       3848       3847       3957       3958       3969       3968  
      3837       3838       3849       3848       3958       3959       3970       3969  
      3838       3839       3850       3849       3959       3960       3971       3970  
      3840       3841       3852       3851       3961       3962       3973       3972  
      3841       3842       3853       3852       3962       3963       3974       3973  
      3842       3843       3854       3853       3963       3964       3975       3974  
      3843       3844       3855       3854       3964       3965       3976       3975  
      3844       3845       3856       3855       3965       3966       3977       3976  
      3845       3846       3857       3856       3966       3967       3978       3977  
      3846       3847       3858       3857       3967       3968       3979       3978  
      3847       3848       3859       3858       3968       3969       3980       3979  
      3848       3849       3860       3859       3969       3970       3981       3980  
      3849       3850       3861       3860       3970       3971       3982       3981  
      3851       3852       3863       3862       3972       3973       3984       3983  
      3852       3853       3864       3863       3973       3974       3985       3984  
      3853       3854       3865       3864       3974       3975       3986       3985  
      3854       3855       3866       3865       3975       3976       3987       3986  
      3855       3856       3867       3866       3976       3977       3988       3987  
      3856       3857       3868       3867       3977       3978       3989       3988  
      3857       3858       3869       3868       3978       3979       3990       3989  
      3858       3859       3870       3869       3979       3980       3991       3990  
      3859       3860       3871       3870       3980       3981       3992       3991  
      3860       3861       3872       3871       3981       3982       3993       3992  
      3873       3874       3885       3884       3994       3995       4006       4005  
      3874       3875       3886       3885       3995       3996       4007       4006  
      3875       3876       3887       3886       3996       3997       4008       4007  
      3876       3877       3888       3887       3997       3998       4009       4008  
      3877       3878       3889       3888       3998       3999       4010       4009  
      3878       3879       3890       3889       3999       4000       4011       4010  
      3879       3880       3891       3890       4000       4001       4012       4011  
      3880       3881       3892       3891       4001       4002       4013       4012  
      3881       3882       3893       3892       4002       4003       4014       4013  
      3882       3883       3894       3893       4003       4004       4015       4014  
      3884       3885       3896       3895       4005       4006       4017       4016  
      3885       3886       3897       3896       4006       4007       4018       4017  
      3886       3887       3898       3897       4007       4008       4019       4018  
      3887       3888       3899       3898       4008       4009       4020       4019  
      3888       3889       3900       3899       4009       4010       4021       4020  
      3889       3890       3901       3900       4010       4011       4022       4021  
      3890       3891       3902       3901       4011       4012       4023       4022  
      3891       3892       3903       3902       4012       4013       4024       4023  
      3892       3893       3904       3903       4013       4014       4025       4024  
      3893       3894       3905       3904       4014       4015       4026       4025  
      3895       3896       3907       3906       4016       4017       4028       4027  
      3896       3897       3908       3907       4017       4018       4029       4028  
      3897       3898       3909       3908       4018       4019       4030       4029  
      3898       3899       3910       3909       4019       4020       4031       4030  
      3899       3900       3911       3910       4020       4021       4032       4031  
      3900       3901       3912       3911       4021       4022       4033       4032  
      3901       3902       3913       3912       4022       4023       4034       4033  
      3902       3903       3914       3913       4023       4024       4035       4034  
      3903       3904       3915       3914       4024       4025       4036       4035  
      3904       3905       3916       3915       4025       4026       4037       4036  
      3906       3907       3918       3917       4027       4028       4039       4038  
      3907       3908       3919       3918       4028       4029       4040       4039  
      3908       3909       3920       3919       4029       4030       4041       4040  
      3909       3910       3921       3920       4030       4031       4042       4041  
      3910       3911       3922       3921       4031       4032       4043       4042  
      3911       3912       3923       3922       4032       4033       4044       4043  
      3912       3913       3924       3923       4033       4034       4045       4044  
      3913       3914       3925       3924       4034       4035       4046       4045  
      3914       3915       3926       3925       4035       4036       4047       4046  
      3915       3916       3927       3926       4036       4037       4048       4047  
      3917       3918       3929       3928       4038       4039       4050       4049  
      3918       3919       3930       3929       4039       4040       4051       4050  
      3919       3920       3931       3930       4040       4041       4052       4051  
      3920       3921       3932       3931       4041       4042       4053       4052  
      3921       3922       3933       3932       4042       4043       4054       4053  
      3922       3923       3934       3933       4043       4044       4055       4054  
      3923       3924       3935       3934       4044       4045       4056       4055  
      3924       3925       3936       3935       4045       4046       4057       4056  
      3925       3926       3937       3936       4046       4047       4058       4057  
      3926       3927       3938       3937       4047       4048       4059       4058  
      3928       3929       3940       3939       4049       4050       4061       4060  
      3929       3930       3941       3940       4050       4051       4062       4061  
      3930       3931       3942       3941       4051       4052       4063       4062  
      3931       3932       3943       3942       4052       4053       4064       4063  
      3932       3933       3944       3943       4053       4054       4065       4064  
      3933       3934       3945       3944       4054       4055       4066       4065  
      3934       3935       3946       3945       4055       4056       4067       4066  
      3935       3936       3947       3946       4056       4057       4068       4067  
      3936       3937       3948       3947       4057       4058       4069       4068  
      3937       3938       3949       3948       4058       4059       4070       4069  
      3939       3940       3951       3950       4060       4061       4072       4071  
      3940       3941       3952       3951       4061       4062       4073       4072  
      3941       3942       3953       3952       4062       4063       4074       4073  
      3942       3943       3954       3953       4063       4064       4075       4074  
      3943       3944       3955       3954       4064       4065       4076       4075  
      3944       3945       3956       3955       4065       4066       4077       4076  
      3945       3946       3957       3956       4066       4067       4078       4077  
      3946       3947       3958       3957       4067       4068       4079       4078  
      3947       3948       3959       3958       4068       4069       4080       4079  
      3948       3949       3960       3959       4069       4070       4081       4080  
      3950       3951       3962       3961       4071       4072       4083       4082  
      3951       3952       3963       3962       4072       4073       4084       4083  
      3952       3953       3964       3963       4073       4074       4085       4084  
      3953       3954       3965       3964       4074       4075       4086       4085  
      3954       3955       3966       3965       4075       4076       4087       4086  
      3955       3956       3967       3966       4076       4077       4088       4087  
      3956       3957       3968       3967       4077       4078       4089       4088  
      3957       3958       3969       3968       4078       4079       4090       4089  
      3958       3959       3970       3969       4079       4080       4091       4090  
      3959       3960       3971       3970       4080       4081       4092       4091  
      3961       3962       3973       3972       4082       4083       4094       4093  
      3962       3963       3974       3973       4083       4084       4095       4094  
      3963       3964       3975       3974       4084       4085       4096       4095  
      3964       3965       3976       3975       4085       4086       4097       4096  
      3965       3966       3977       3976       4086       4087       4098       4097  
      3966       3967       3978       3977       4087       4088       4099       4098  
      3967       3968       3979       3978       4088       4089       4100       4099  
      3968       3969       3980       3979       4089       4090       4101       4100  
      3969       3970       3981       3980       4090       4091       4102       4101  
      3970       3971       3982       3981       4091       4092       4103       4102  
      3972       3973       3984       3983       4093       4094       4105       4104  
      3973       3974       3985       3984       4094       4095       4106       4105  
      3974       3975       3986       3985       4095       4096       4107       4106  
      3975       3976       3987       3986       4096       4097       4108       4107  
      3976       3977       3988       3987       4097       4098       4109       4108  
      3977       3978       3989       3988       4098       4099       4110       4109  
      3978       3979       3990       3989       4099       4100       4111       4110  
      3979       3980       3991       3990       4100       4101       4112       4111  
      3980       3981       3992       3991       4101       4102       4113       4112  
      3981       3982       3993       3992       4102       4103       4114       4113  
      3994       3995       4006       4005       4115       4116       4127       4126  
      3995       3996       4007       4006       4116       4117       4128       4127  
      3996       3997       4008       4007       4117       4118       4129       4128  
      3997       3998       4009       4008       4118       4119       4130       4129  
      3998       3999       4010       4009       4119       4120       4131       4130  
      3999       4000       4011       4010       4120       4121       4132       4131  
      4000       4001       4012       4011       4121       4122       4133       4132  
      4001       4002       4013       4012       4122       4123       4134       4133  
      4002       4003       4014       4013       4123       4124       4135       4134  
      4003       4004       4015       4014       4124       4125       4136       4135  
      4005       4006       4017       4016       4126       4127       4138       4137  
      4006       4007       4018       4017       4127       4128       4139       4138  
      4007       4008       4019       4018       4128       4129       4140       4139  
      4008       4009       4020       4019       4129       4130       4141       4140  
      4009       4010       4021       4020       4130       4131       4142       4141  
      4010       4011       4022       4021       4131       4132       4143       4142  
      4011       4012       4023       4022       4132       4133       4144       4143  
      4012       4013       4024       4023       4133       4134       4145       4144  
      4013       4014       4025       4024       4134       4135       4146       4145  
      4014       4015       4026       4025       4135       4136       4147       4146  
      4016       4017       4028       4027       4137       4138       4149       4148  
      4017       4018       4029       4028       4138       4139       4150       4149  
      4018       4019       4030       4029       4139       4140       4151       4150  
      4019       4020       4031       4030       4140       4141       4152       4151  
      4020       4021       4032       4031       4141       4142       4153       4152  
      4021       4022       4033       4032       4142       4143       4154       4153  
      4022       4023       4034       4033       4143       4144       4155       4154  
      4023       4024       4035       4034       4144       4145       4156       4155  
      4024       4025       4036       4035       4145       4146       4157       4156  
      4025       4026       4037       4036       4146       4147       4158       4157  
      4027       4028       4039       4038       4148       4149       4160       4159  
      4028       4029       4040       4039       4149       4150       4161       4160  
      4029       4030       4041       4040       4150       4151       4162       4161  
      4030       4031       4042       4041       4151       4152       4163       4162  
      4031       4032       4043       4042       4152       4153       4164       4163  
      4032       4033       4044       4043       4153       4154       4165       4164  
      4033       4034       4045       4044       4154       4155       4166       4165  
      4034       4035       4046       4045       4155       4156       4167       4166  
      4035       4036       4047       4046       4156       4157       4168       4167  
      4036       4037       4048       4047       4157       4158       4169       4168  
      4038       4039       4050       4049       4159       4160       4171       4170  
      4039       4040       4051       4050       4160       4161       4172       4171  
      4040       4041       4052       4051       4161       4162       4173       4172  
      4041       4042       4053       4052       4162       4163       4174       4173  
      4042       4043       4054       4053       4163       4164       4175       4174  
      4043       4044       4055       4054       4164       4165       4176       4175  
      4044       4045       4056       4055       4165       4166       4177       4176  
      4045       4046       4057       4056       4166       4167       4178       4177  
      4046       4047       4058       4057       4167       4168       4179       4178  
      4047       4048       4059       4058       4168       4169       4180       4179  
      4049       4050       4061       4060       4170       4171       4182       4181  
      4050       4051       4062       4061       4171       4172       4183       4182  
      4051       4052       4063       4062       4172       4173       4184       4183  
      4052       4053       4064       4063       4173       4174       4185       4184  
      4053       4054       4065       4064       4174       4175       4186       4185  
      4054       4055       4066       4065       4175       4176       4187       4186  
      4055       4056       4067       4066       4176       4177       4188       4187  
      4056       4057       4068       4067       4177       4178       4189       4188  
      4057       4058       4069       4068       4178       4179       4190       4189  
      4058       4059       4070       4069       4179       4180       4191       4190  
      4060       4061       4072       4071       4181       4182       4193       4192  
      4061       4062       4073       4072       4182       4183       4194       4193  
      4062       4063       4074       4073       4183       4184       4195       4194  
      4063       4064       4075       4074       4184       4185       4196       4195  
      4064       4065       4076       4075       4185       4186       4197       4196  
      4065       4066       4077       4076       4186       4187       4198       4197  
      4066       4067       4078       4077       4187       4188       4199       4198  
      4067       4068       4079       4078       4188       4189       4200       4199  
      4068       4069       4080       4079       4189       4190       4201       4200  
      4069       4070       4081       4080       4190       4191       4202       4201  
      4071       4072       4083       4082       4192       4193       4204       4203  
      4072       4073       4084       4083       4193       4194       4205       4204  
      4073       4074       4085       4084       4194       4195       4206       4205  
      4074       4075       4086       4085       4195       4196       4207       4206  
      4075       4076       4087       4086       4196       4197       4208       4207  
      4076       4077       4088       4087       4197       4198       4209       4208  
      4077       4078       4089       4088       4198       4199       4210       4209  
      4078       4079       4090       4089       4199       4200       4211       4210  
      4079       4080       4091       4090       4200       4201       4212       4211  
      4080       4081       4092       4091       4201       4202       4213       4212  
      4082       4083       4094       4093       4203       4204       4215       4214  
      4083       4084       4095       4094       4204       4205       4216       4215  
      4084       4085       4096       4095       4205       4206       4217       4216  
      4085       4086       4097       4096       4206       4207       4218       4217  
      4086       4087       4098       4097       4207       4208       4219       4218  
      4087       4088       4099       4098       4208       4209       4220       4219  
      4088       4089       4100       4099       4209       4210       4221       4220  
      4089       4090       4101       4100       4210       4211       4222       4221  
      4090       4091       4102       4101       4211       4212       4223       4222  
      4091       4092       4103       4102       4212       4213       4224       4223  
      4093       4094       4105       4104       4214       4215       4226       4225  
      4094       4095       4106       4105       4215       4216       4227       4226  
      4095       4096       4107       4106       4216       4217       4228       4227  
      4096       4097       4108       4107       4217       4218       4229       4228  
      4097       4098       4109       4108       4218       4219       4230       4229  
      4098       4099       4110       4109       4219       4220       4231       4230  
      4099       4100       4111       4110       4220       4221       4232       4231  
      4100       4101       4112       4111       4221       4222       4233       4232  
      4101       4102       4113       4112       4222       4223       4234       4233  
      4102       4103       4114       4113       4223       4224       4235       4234  
      4115       4116       4127       4126       4236       4237       4248       4247  
      4116       4117       4128       4127       4237       4238       4249       4248  
      4117       4118       4129       4128       4238       4239       4250       4249  
      4118       4119       4130       4129       4239       4240       4251       4250  
      4119       4120       4131       4130       4240       4241       4252       4251  
      4120       4121       4132       4131       4241       4242       4253       4252  
      4121       4122       4133       4132       4242       4243       4254       4253  
      4122       4123       4134       4133       4243       4244       4255       4254  
      4123       4124       4135       4134       4244       4245       4256       4255  
      4124       4125       4136       4135       4245       4246       4257       4256  
      4126       4127       4138       4137       4247       4248       4259       4258  
      4127       4128       4139       4138       4248       4249       4260       4259  
      4128       4129       4140       4139       4249       4250       4261       4260  
      4129       4130       4141       4140       4250       4251       4262       4261  
      4130       4131       4142       4141       4251       4252       4263       4262  
      4131       4132       4143       4142       4252       4253       4264       4263  
      4132       4133       4144       4143       4253       4254       4265       4264  
      4133       4134       4145       4144       4254       4255       4266       4265  
      4134       4135       4146       4145       4255       4256       4267       4266  
      4135       4136       4147       4146       4256       4257       4268       4267  
      4137       4138       4149       4148       4258       4259       4270       4269  
      4138       4139       4150       4149       4259       4260       4271       4270  
      4139       4140       4151       4150       4260       4261       4272       4271  
      4140       4141       4152       4151       4261       4262       4273       4272  
      4141       4142       4153       4152       4262       4263       4274       4273  
      4142       4143       4154       4153       4263       4264       4275       4274  
      4143       4144       4155       4154       4264       4265       4276       4275  
      4144       4145       4156       4155       4265       4266       4277       4276  
      4145       4146       4157       4156       4266       4267       4278       4277  
      4146       4147       4158       4157       4267       4268       4279       4278  
      4148       4149       4160       4159       4269       4270       4281       4280  
      4149       4150       4161       4160       4270       4271       4282       4281  
      4150       4151       4162       4161       4271       4272       4283       4282  
      4151       4152       4163       4162       4272       4273       4284       4283  
      4152       4153       4164       4163       4273       4274       4285       4284  
      4153       4154       4165       4164       4274       4275       4286       4285  
      4154       4155       4166       4165       4275       4276       4287       4286  
      4155       4156       4167       4166       4276       4277       4288       4287  
      4156       4157       4168       4167       4277       4278       4289       4288  
      4157       4158       4169       4168       4278       4279       4290       4289  
      4159       4160       4171       4170       4280       4281       4292       4291  
      4160       4161       4172       4171       4281       4282       4293       4292  
      4161       4162       4173       4172       4282       4283       4294       4293  
      4162       4163       4174       4173       4283       4284       4295       4294  
      4163       4164       4175       4174       4284       4285       4296       4295  
      4164       4165       4176       4175       4285       4286       4297       4296  
      4165       4166       4177       4176       4286       4287       4298       4297  
      4166       4167       4178       4177       4287       4288       4299       4298  
      4167       4168       4179       4178       4288       4289       4300       4299  
      4168       4169       4180       4179       4289       4290       4301       4300  
      4170       4171       4182       4181       4291       4292       4303       4302  
      4171       4172       4183       4182       4292       4293       4304       4303  
      4172       4173       4184       4183       4293       4294       4305       4304  
      4173       4174       4185       4184       4294       4295       4306       4305  
      4174       4175       4186       4185       4295       4296       4307       4306  
      4175       4176       4187       4186       4296       4297       4308       4307  
      4176       4177       4188       4187       4297       4298       4309       4308  
      4177       4178       4189       4188       4298       4299       4310       4309  
      4178       4179       4190       4189       4299       4300       4311       4310  
      4179       4180       4191       4190       4300       4301       4312       4311  
      4181       4182       4193       4192       4302       4303       4314       4313  
      4182       4183       4194       4193       4303       4304       4315       4314  
      4183       4184       4195       4194       4304       4305       4316       4315  
      4184       4185       4196       4195       4305       4306       4317       4316  
      4185       4186       4197       4196       4306       4307       4318       4317  
      4186       4187       4198       4197       4307       4308       4319       4318  
      4187       4188       4199       4198       4308       4309       4320       4319  
      4188       4189       4200       4199       4309       4310       4321       4320  
      4189       4190       4201       4200       4310       4311       4322       4321  
      4190       4191       4202       4201       4311       4312       4323       4322  
      4192       4193       4204       4203       4313       4314       4325       4324  
      4193       4194       4205       4204       4314       4315       4326       4325  
      4194       4195       4206       4205       4315       4316       4327       4326  
      4195       4196       4207       4206       4316       4317       4328       4327  
      4196       4197       4208       4207       4317       4318       4329       4328  
      4197       4198       4209       4208       4318       4319       4330       4329  
      4198       4199       4210       4209       4319       4320       4331       4330  
      4199       4200       4211       4210       4320       4321       4332       4331  
      4200       4201       4212       4211       4321       4322       4333       4332  
      4201       4202       4213       4212       4322       4323       4334       4333  
      4203       4204       4215       4214       4324       4325       4336       4335  
      4204       4205       4216       4215       4325       4326       4337       4336  
      4205       4206       4217       4216       4326       4327       4338       4337  
      4206       4207       4218       4217       4327       4328       4339       4338  
      4207       4208       4219       4218       4328       4329       4340       4339  
      4208       4209       4220       4219       4329       4330       4341       4340  
      4209       4210       4221       4220       4330       4331       4342       4341  
      4210       4211       4222       4221       4331       4332       4343       4342  
      4211       4212       4223       4222       4332       4333       4344       4343  
      4212       4213       4224       4223       4333       4334       4345       4344  
      4214       4215       4226       4225       4335       4336       4347       4346  
      4215       4216       4227       4226       4336       4337       4348       4347  
      4216       4217       4228       4227       4337       4338       4349       4348  
      4217       4218       4229       4228       4338       4339       4350       4349  
      4218       4219       4230       4229       4339       4340       4351       4350  
      4219       4220       4231       4230       4340       4341       4352       4351  
      4220       4221       4232       4231       4341       4342       4353       4352  
      4221       4222       4233       4232       4342       4343       4354       4353  
      4222       4223       4234       4233       4343       4344       4355       4354  
      4223       4224       4235       4234       4344       4345       4356       4355  
      4236       4237       4248       4247       4357       4358       4369       4368  
      4237       4238       4249       4248       4358       4359       4370       4369  
      4238       4239       4250       4249       4359       4360       4371       4370  
      4239       4240       4251       4250       4360       4361       4372       4371  
      4240       4241       4252       4251       4361       4362       4373       4372  
      4241       4242       4253       4252       4362       4363       4374       4373  
      4242       4243       4254       4253       4363       4364       4375       4374  
      4243       4244       4255       4254       4364       4365       4376       4375  
      4244       4245       4256       4255       4365       4366       4377       4376  
      4245       4246       4257       4256       4366       4367       4378       4377  
      4247       4248       4259       4258       4368       4369       4380       4379  
      4248       4249       4260       4259       4369       4370       4381       4380  
      4249       4250       4261       4260       4370       4371       4382       4381  
      4250       4251       4262       4261       4371       4372       4383       4382  
      4251       4252       4263       4262       4372       4373       4384       4383  
      4252       4253       4264       4263       4373       4374       4385       4384  
      4253       4254       4265       4264       4374       4375       4386       4385  
      4254       4255       4266       4265       4375       4376       4387       4386  
      4255       4256       4267       4266       4376       4377       4388       4387  
      4256       4257       4268       4267       4377       4378       4389       4388  
      4258       4259       4270       4269       4379       4380       4391       4390  
      4259       4260       4271       4270       4380       4381       4392       4391  
      4260       4261       4272       4271       4381       4382       4393       4392  
      4261       4262       4273       4272       4382       4383       4394       4393  
      4262       4263       4274       4273       4383       4384       4395       4394  
      4263       4264       4275       4274       4384       4385       4396       4395  
      4264       4265       4276       4275       4385       4386       4397       4396  
      4265       4266       4277       4276       4386       4387       4398       4397  
      4266       4267       4278       4277       4387       4388       4399       4398  
      4267       4268       4279       4278       4388       4389       4400       4399  
      4269       4270       4281       4280       4390       4391       4402       4401  
      4270       4271       4282       4281       4391       4392       4403       4402  
      4271       4272       4283       4282       4392       4393       4404       4403  
      4272       4273       4284       4283       4393       4394       4405       4404  
      4273       4274       4285       4284       4394       4395       4406       4405  
      4274       4275       4286       4285       4395       4396       4407       4406  
      4275       4276       4287       4286       4396       4397       4408       4407  
      4276       4277       4288       4287       4397       4398       4409       4408  
      4277       4278       4289       4288       4398       4399       4410       4409  
      4278       4279       4290       4289       4399       4400       4411       4410  
      4280       4281       4292       4291       4401       4402       4413       4412  
      4281       4282       4293       4292       4402       4403       4414       4413  
      4282       4283       4294       4293       4403       4404       4415       4414  
      4283       4284       4295       4294       4404       4405       4416       4415  
      4284       4285       4296       4295       4405       4406       4417       4416  
      4285       4286       4297       4296       4406       4407       4418       4417  
      4286       4287       4298       4297       4407       4408       4419       4418  
      4287       4288       4299       4298       4408       4409       4420       4419  
      4288       4289       4300       4299       4409       4410       4421       4420  
      4289       4290       4301       4300       4410       4411       4422       4421  
      4291       4292       4303       4302       4412       4413       4424       4423  
      4292       4293       4304       4303       4413       4414       4425       4424  
      4293       4294       4305       4304       4414       4415       4426       4425  
      4294       4295       4306       4305       4415       4416       4427       4426  
      4295       4296       4307       4306       4416       4417       4428       4427  
      4296       4297       4308       4307       4417       4418       4429       4428  
      4297       4298       4309       4308       4418       4419       4430       4429  
      4298       4299       4310       4309       4419       4420       4431       4430  
      4299       4300       4311       4310       4420       4421       4432       4431  
      4300       4301       4312       4311       4421       4422       4433       4432  
      4302       4303       4314       4313       4423       4424       4435       4434  
      4303       4304       4315       4314       4424       4425       4436       4435  
      4304       4305       4316       4315       4425       4426       4437       4436  
      4305       4306       4317       4316       4426       4427       4438       4437  
      4306       4307       4318       4317       4427       4428       4439       4438  
      4307       4308       4319       4318       4428       4429       4440       4439  
      4308       4309       4320       4319       4429       4430       4441       4440  
      4309       4310       4321       4320       4430       4431       4442       4441  
      4310       4311       4322       4321       4431       4432       4443       4442  
      4311       4312       4323       4322       4432       4433       4444       4443  
      4313       4314       4325       4324       4434       4435       4446       4445  
      4314       4315       4326       4325       4435       4436       4447       4446  
      4315       4316       4327       4326       4436       4437       4448       4447  
      4316       4317       4328       4327       4437       4438       4449       4448  
      4317       4318       4329       4328       4438       4439       4450       4449  
      4318       4319       4330       4329       4439       4440       4451       4450  
      4319       4320       4331       4330       4440       4441       4452       4451  
      4320       4321       4332       4331       4441       4442       4453       4452  
      4321       4322       4333       4332       4442       4443       4454       4453  
      4322       4323       4334       4333       4443       4444       4455       4454  
      4324       4325       4336       4335       4445       4446       4457       4456  
      4325       4326       4337       4336       4446       4447       4458       4457  
      4326       4327       4338       4337       4447       4448       4459       4458  
      4327       4328       4339       4338       4448       4449       4460       4459  
      4328       4329       4340       4339       4449       4450       4461       4460  
      4329       4330       4341       4340       4450       4451       4462       4461  
      4330       4331       4342       4341       4451       4452       4463       4462  
      4331       4332       4343       4342       4452       4453       4464       4463  
      4332       4333       4344       4343       4453       4454       4465       4464  
      4333       4334       4345       4344       4454       4455       4466       4465  
      4335       4336       4347       4346       4456       4457       4468       4467  
      4336       4337       4348       4347       4457       4458       4469       4468  
      4337       4338       4349       4348       4458       4459       4470       4469  
      4338       4339       4350       4349       4459       4460       4471       4470  
      4339       4340       4351       4350       4460       4461       4472       4471  
      4340       4341       4352       4351       4461       4462       4473       4472  
      4341       4342       4353       4352       4462       4463       4474       4473  
      4342       4343       4354       4353       4463       4464       4475       4474  
      4343       4344       4355       4354       4464       4465       4476       4475  
      4344       4345       4356       4355       4465       4466       4477       4476  
      4357       4358       4369       4368       4478       4479       4490       4489  
      4358       4359       4370       4369       4479       4480       4491       4490  
      4359       4360       4371       4370       4480       4481       4492       4491  
      4360       4361       4372       4371       4481       4482       4493       4492  
      4361       4362       4373       4372       4482       4483       4494       4493  
      4362       4363       4374       4373       4483       4484       4495       4494  
      4363       4364       4375       4374       4484       4485       4496       4495  
      4364       4365       4376       4375       4485       4486       4497       4496  
      4365       4366       4377       4376       4486       4487       4498       4497  
      4366       4367       4378       4377       4487       4488       4499       4498  
      4368       4369       4380       4379       4489       4490       4501       4500  
      4369       4370       4381       4380       4490       4491       4502       4501  
      4370       4371       4382       4381       4491       4492       4503       4502  
      4371       4372       4383       4382       4492       4493       4504       4503  
      4372       4373       4384       4383       4493       4494       4505       4504  
      4373       4374       4385       4384       4494       4495       4506       4505  
      4374       4375       4386       4385       4495       4496       4507       4506  
      4375       4376       4387       4386       4496       4497       4508       4507  
      4376       4377       4388       4387       4497       4498       4509       4508  
      4377       4378       4389       4388       4498       4499       4510       4509  
      4379       4380       4391       4390       4500       4501       4512       4511  
      4380       4381       4392       4391       4501       4502       4513       4512  
      4381       4382       4393       4392       4502       4503       4514       4513  
      4382       4383       4394       4393       4503       4504       4515       4514  
      4383       4384       4395       4394       4504       4505       4516       4515  
      4384       4385       4396       4395       4505       4506       4517       4516  
      4385       4386       4397       4396       4506       4507       4518       4517  
      4386       4387       4398       4397       4507       4508       4519       4518  
      4387       4388       4399       4398       4508       4509       4520       4519  
      4388       4389       4400       4399       4509       4510       4521       4520  
      4390       4391       4402       4401       4511       4512       4523       4522  
      4391       4392       4403       4402       4512       4513       4524       4523  
      4392       4393       4404       4403       4513       4514       4525       4524  
      4393       4394       4405       4404       4514       4515       4526       4525  
      4394       4395       4406       4405       4515       4516       4527       4526  
      4395       4396       4407       4406       4516       4517       4528       4527  
      4396       4397       4408       4407       4517       4518       4529       4528  
      4397       4398       4409       4408       4518       4519       4530       4529  
      4398       4399       4410       4409       4519       4520       4531       4530  
      4399       4400       4411       4410       4520       4521       4532       4531  
      4401       4402       4413       4412       4522       4523       4534       4533  
      4402       4403       4414       4413       4523       4524       4535       4534  
      4403       4404       4415       4414       4524       4525       4536       4535  
      4404       4405       4416       4415       4525       4526       4537       4536  
      4405       4406       4417       4416       4526       4527       4538       4537  
      4406       4407       4418       4417       4527       4528       4539       4538  
      4407       4408       4419       4418       4528       4529       4540       4539  
      4408       4409       4420       4419       4529       4530       4541       4540  
      4409       4410       4421       4420       4530       4531       4542       4541  
      4410       4411       4422       4421       4531       4532       4543       4542  
      4412       4413       4424       4423       4533       4534       4545       4544  
      4413       4414       4425       4424       4534       4535       4546       4545  
      4414       4415       4426       4425       4535       4536       4547       4546  
      4415       4416       4427       4426       4536       4537       4548       4547  
      4416       4417       4428       4427       4537       4538       4549       4548  
      4417       4418       4429       4428       4538       4539       4550       4549  
      4418       4419       4430       4429       4539       4540       4551       4550  
      4419       4420       4431       4430       4540       4541       4552       4551  
      4420       4421       4432       4431       4541       4542       4553       4552  
      4421       4422       4433       4432       4542       4543       4554       4553  
      4423       4424       4435       4434       4544       4545       4556       4555  
      4424       4425       4436       4435       4545       4546       4557       4556  
      4425       4426       4437       4436       4546       4547       4558       4557  
      4426       4427       4438       4437       4547       4548       4559       4558  
      4427       4428       4439       4438       4548       4549       4560       4559  
      4428       4429       4440       4439       4549       4550       4561       4560  
      4429       4430       4441       4440       4550       4551       4562       4561  
      4430       4431       4442       4441       4551       4552       4563       4562  
      4431       4432       4443       4442       4552       4553       4564       4563  
      4432       4433       4444       4443       4553       4554       4565       4564  
      4434       4435       4446       4445       4555       4556       4567       4566  
      4435       4436       4447       4446       4556       4557       4568       4567  
      4436       4437       4448       4447       4557       4558       4569       4568  
      4437       4438       4449       4448       4558       4559       4570       4569  
      4438       4439       4450       4449       4559       4560       4571       4570  
      4439       4440       4451       4450       4560       4561       4572       4571  
      4440       4441       4452       4451       4561       4562       4573       4572  
      4441       4442       4453       4452       4562       4563       4574       4573  
      4442       4443       4454       4453       4563       4564       4575       4574  
      4443       4444       4455       4454       4564       4565       4576       4575  
      4445       4446       4457       4456       4566       4567       4578       4577  
      4446       4447       4458       4457       4567       4568       4579       4578  
      4447       4448       4459       4458       4568       4569       4580       4579  
      4448       4449       4460       4459       4569       4570       4581       4580  
      4449       4450       4461       4460       4570       4571       4582       4581  
      4450       4451       4462       4461       4571       4572       4583       4582  
      4451       4452       4463       4462       4572       4573       4584       4583  
      4452       4453       4464       4463       4573       4574       4585       4584  
      4453       4454       4465       4464       4574       4575       4586       4585  
      4454       4455       4466       4465       4575       4576       4587       4586  
      4456       4457       4468       4467       4577       4578       4589       4588  
      4457       4458       4469       4468       4578       4579       4590       4589  
      4458       4459       4470       4469       4579       4580       4591       4590  
      4459       4460       4471       4470       4580       4581       4592       4591  
      4460       4461       4472       4471       4581       4582       4593       4592  
      4461       4462       4473       4472       4582       4583       4594       4593  
      4462       4463       4474       4473       4583       4584       4595       4594  
      4463       4464       4475       4474       4584       4585       4596       4595  
      4464       4465       4476       4475       4585       4586       4597       4596  
      4465       4466       4477       4476       4586       4587       4598       4597  
      4478       4479       4490       4489       4599       4600       4611       4610  
      4479       4480       4491       4490       4600       4601       4612       4611  
      4480       4481       4492       4491       4601       4602       4613       4612  
      4481       4482       4493       4492       4602       4603       4614       4613  
      4482       4483       4494       4493       4603       4604       4615       4614  
      4483       4484       4495       4494       4604       4605       4616       4615  
      4484       4485       4496       4495       4605       4606       4617       4616  
      4485       4486       4497       4496       4606       4607       4618       4617  
      4486       4487       4498       4497       4607       4608       4619       4618  
      4487       4488       4499       4498       4608       4609       4620       4619  
      4489       4490       4501       4500       4610       4611       4622       4621  
      4490       4491       4502       4501       4611       4612       4623       4622  
      4491       4492       4503       4502       4612       4613       4624       4623  
      4492       4493       4504       4503       4613       4614       4625       4624  
      4493       4494       4505       4504       4614       4615       4626       4625  
      4494       4495       4506       4505       4615       4616       4627       4626  
      4495       4496       4507       4506       4616       4617       4628       4627  
      4496       4497       4508       4507       4617       4618       4629       4628  
      4497       4498       4509       4508       4618       4619       4630       4629  
      4498       4499       4510       4509       4619       4620       4631       4630  
      4500       4501       4512       4511       4621       4622       4633       4632  
      4501       4502       4513       4512       4622       4623       4634       4633  
      4502       4503       4514       4513       4623       4624       4635       4634  
      4503       4504       4515       4514       4624       4625       4636       4635  
      4504       4505       4516       4515       4625       4626       4637       4636  
      4505       4506       4517       4516       4626       4627       4638       4637  
      4506       4507       4518       4517       4627       4628       4639       4638  
      4507       4508       4519       4518       4628       4629       4640       4639  
      4508       4509       4520       4519       4629       4630       4641       4640  
      4509       4510       4521       4520       4630       4631       4642       4641  
      4511       4512       4523       4522       4632       4633       4644       4643  
      4512       4513       4524       4523       4633       4634       4645       4644  
      4513       4514       4525       4524       4634       4635       4646       4645  
      4514       4515       4526       4525       4635       4636       4647       4646  
      4515       4516       4527       4526       4636       4637       4648       4647  
      4516       4517       4528       4527       4637       4638       4649       4648  
      4517       4518       4529       4528       4638       4639       4650       4649  
      4518       4519       4530       4529       4639       4640       4651       4650  
      4519       4520       4531       4530       4640       4641       4652       4651  
      4520       4521       4532       4531       4641       4642       4653       4652  
      4522       4523       4534       4533       4643       4644       4655       4654  
      4523       4524       4535       4534       4644       4645       4656       4655  
      4524       4525       4536       4535       4645       4646       4657       4656  
      4525       4526       4537       4536       4646       4647       4658       4657  
      4526       4527       4538       4537       4647       4648       4659       4658  
      4527       4528       4539       4538       4648       4649       4660       4659  
      4528       4529       4540       4539       4649       4650       4661       4660  
      4529       4530       4541       4540       4650       4651       4662       4661  
      4530       4531       4542       4541       4651       4652       4663       4662  
      4531       4532       4543       4542       4652       4653       4664       4663  
      4533       4534       4545       4544       4654       4655       4666       4665  
      4534       4535       4546       4545       4655       4656       4667       4666  
      4535       4536       4547       4546       4656       4657       4668       4667  
      4536       4537       4548       4547       4657       4658       4669       4668  
      4537       4538       4549       4548       4658       4659       4670       4669  
      4538       4539       4550       4549       4659       4660       4671       4670  
      4539       4540       4551       4550       4660       4661       4672       4671  
      4540       4541       4552       4551       4661       4662       4673       4672  
      4541       4542       4553       4552       4662       4663       4674       4673  
      4542       4543       4554       4553       4663       4664       4675       4674  
      4544       4545       4556       4555       4665       4666       4677       4676  
      4545       4546       4557       4556       4666       4667       4678       4677  
      4546       4547       4558       4557       4667       4668       4679       4678  
      4547       4548       4559       4558       4668       4669       4680       4679  
      4548       4549       4560       4559       4669       4670       4681       4680  
      4549       4550       4561       4560       4670       4671       4682       4681  
      4550       4551       4562       4561       4671       4672       4683       4682  
      4551       4552       4563       4562       4672       4673       4684       4683  
      4552       4553       4564       4563       4673       4674       4685       4684  
      4553       4554       4565       4564       4674       4675       4686       4685  
      4555       4556       4567       4566       4676       4677       4688       4687  
      4556       4557       4568       4567       4677       4678       4689       4688  
      4557       4558       4569       4568       4678       4679       4690       4689  
      4558       4559       4570       4569       4679       4680       4691       4690  
      4559       4560       4571       4570       4680       4681       4692       4691  
      4560       4561       4572       4571       4681       4682       4693       4692  
      4561       4562       4573       4572       4682       4683       4694       4693  
      4562       4563       4574       4573       4683       4684       4695       4694  
      4563       4564       4575       4574       4684       4685       4696       4695  
      4564       4565       4576       4575       4685       4686       4697       4696  
      4566       4567       4578       4577       4687       4688       4699       4698  
      4567       4568       4579       4578       4688       4689       4700       4699  
      4568       4569       4580       4579       4689       4690       4701       4700  
      4569       4570       4581       4580       4690       4691       4702       4701  
      4570       4571       4582       4581       4691       4692       4703       4702  
      4571       4572       4583       4582       4692       4693       4704       4703  
      4572       4573       4584       4583       4693       4694       4705       4704  
      4573       4574       4585       4584       4694       4695       4706       4705  
      4574       4575       4586       4585       4695       4696       4707       4706  
      4575       4576       4587       4586       4696       4697       4708       4707  
      4577       4578       4589       4588       4698       4699       4710       4709  
      4578       4579       4590       4589       4699       4700       4711       4710  
      4579       4580       4591       4590       4700       4701       4712       4711  
      4580       4581       4592       4591       4701       4702       4713       4712  
      4581       4582       4593       4592       4702       4703       4714       4713  
      4582       4583       4594       4593       4703       4704       4715       4714  
      4583       4584       4595       4594       4704       4705       4716       4715  
      4584       4585       4596       4595       4705       4706       4717       4716  
      4585       4586       4597       4596       4706       4707       4718       4717  
      4586       4587       4598       4597       4707       4708       4719       4718  
      4599       4600       4611       4610       4720       4721       4732       4731  
      4600       4601       4612       4611       4721       4722       4733       4732  
      4601       4602       4613       4612       4722       4723       4734       4733  
      4602       4603       4614       4613       4723       4724       4735       4734  
      4603       4604       4615       4614       4724       4725       4736       4735  
      4604       4605       4616       4615       4725       4726       4737       4736  
      4605       4606       4617       4616       4726       4727       4738       4737  
      4606       4607       4618       4617       4727       4728       4739       4738  
      4607       4608       4619       4618       4728       4729       4740       4739  
      4608       4609       4620       4619       4729       4730       4741       4740  
      4610       4611       4622       4621       4731       4732       4743       4742  
      4611       4612       4623       4622       4732       4733       4744       4743  
      4612       4613       4624       4623       4733       4734       4745       4744  
      4613       4614       4625       4624       4734       4735       4746       4745  
      4614       4615       4626       4625       4735       4736       4747       4746  
      4615       4616       4627       4626       4736       4737       4748       4747  
      4616       4617       4628       4627       4737       4738       4749       4748  
      4617       4618       4629       4628       4738       4739       4750       4749  
      4618       4619       4630       4629       4739       4740       4751       4750  
      4619       4620       4631       4630       4740       4741       4752       4751  
      4621       4622       4633       4632       4742       4743       4754       4753  
      4622       4623       4634       4633       4743       4744       4755       4754  
      4623       4624       4635       4634       4744       4745       4756       4755  
      4624       4625       4636       4635       4745       4746       4757       4756  
      4625       4626       4637       4636       4746       4747       4758       4757  
      4626       4627       4638       4637       4747       4748       4759       4758  
      4627       4628       4639       4638       4748       4749       4760       4759  
      4628       4629       4640       4639       4749       4750       4761       4760  
      4629       4630       4641       4640       4750       4751       4762       4761  
      4630       4631       4642       4641       4751       4752       4763       4762  
      4632       4633       4644       4643       4753       4754       4765       4764  
      4633       4634       4645       4644       4754       4755       4766       4765  
      4634       4635       4646       4645       4755       4756       4767       4766  
      4635       4636       4647       4646       4756       4757       4768       4767  
      4636       4637       4648       4647       4757       4758       4769       4768  
      4637       4638       4649       4648       4758       4759       4770       4769  
      4638       4639       4650       4649       4759       4760       4771       4770  
      4639       4640       4651       4650       4760       4761       4772       4771  
      4640       4641       4652       4651       4761       4762       4773       4772  
      4641       4642       4653       4652       4762       4763       4774       4773  
      4643       4644       4655       4654       4764       4765       4776       4775  
      4644       4645       4656       4655       4765       4766       4777       4776  
      4645       4646       4657       4656       4766       4767       4778       4777  
      4646       4647       4658       4657       4767       4768       4779       4778  
      4647       4648       4659       4658       4768       4769       4780       4779  
      4648       4649       4660       4659       4769       4770       4781       4780  
      4649       4650       4661       4660       4770       4771       4782       4781  
      4650       4651       4662       4661       4771       4772       4783       4782  
      4651       4652       4663       4662       4772       4773       4784       4783  
      4652       4653       4664       4663       4773       4774       4785       4784  
      4654       4655       4666       4665       4775       4776       4787       4786  
      4655       4656       4667       4666       4776       4777       4788       4787  
      4656       4657       4668       4667       4777       4778       4789       4788  
      4657       4658       4669       4668       4778       4779       4790       4789  
      4658       4659       4670       4669       4779       4780       4791       4790  
      4659       4660       4671       4670       4780       4781       4792       4791  
      4660       4661       4672       4671       4781       4782       4793       4792  
      4661       4662       4673       4672       4782       4783       4794       4793  
      4662       4663       4674       4673       4783       4784       4795       4794  
      4663       4664       4675       4674       4784       4785       4796       4795  
      4665       4666       4677       4676       4786       4787       4798       4797  
      4666       4667       4678       4677       4787       4788       4799       4798  
      4667       4668       4679       4678       4788       4789       4800       4799  
      4668       4669       4680       4679       4789       4790       4801       4800  
      4669       4670       4681       4680       4790       4791       4802       4801  
      4670       4671       4682       4681       4791       4792       4803       4802  
      4671       4672       4683       4682       4792       4793       4804       4803  
      4672       4673       4684       4683       4793       4794       4805       4804  
      4673       4674       4685       4684       4794       4795       4806       4805  
      4674       4675       4686       4685       4795       4796       4807       4806  
      4676       4677       4688       4687       4797       4798       4809       4808  
      4677       4678       4689       4688       4798       4799       4810       4809  
      4678       4679       4690       4689       4799       4800       4811       4810  
      4679       4680       4691       4690       4800       4801       4812       4811  
      4680       4681       4692       4691       4801       4802       4813       4812  
      4681       4682       4693       4692       4802       4803       4814       4813  
      4682       4683       4694       4693       4803       4804       4815       4814  
      4683       4684       4695       4694       4804       4805       4816       4815  
      4684       4685       4696       4695       4805       4806       4817       4816  
      4685       4686       4697       4696       4806       4807       4818       4817  
      4687       4688       4699       4698       4808       4809       4820       4819  
      4688       4689       4700       4699       4809       4810       4821       4820  
      4689       4690       4701       4700       4810       4811       4822       4821  
      4690       4691       4702       4701       4811       4812       4823       4822  
      4691       4692       4703       4702       4812       4813       4824       4823  
      4692       4693       4704       4703       4813       4814       4825       4824  
      4693       4694       4705       4704       4814       4815       4826       4825  
      4694       4695       4706       4705       4815       4816       4827       4826  
      4695       4696       4707       4706       4816       4817       4828       4827  
      4696       4697       4708       4707       4817       4818       4829       4828  
      4698       4699       4710       4709       4819       4820       4831       4830  
      4699       4700       4711       4710       4820       4821       4832       4831  
      4700       4701       4712       4711       4821       4822       4833       4832  
      4701       4702       4713       4712       4822       4823       4834       4833  
      4702       4703       4714       4713       4823       4824       4835       4834  
      4703       4704       4715       4714       4824       4825       4836       4835  
      4704       4705       4716       4715       4825       4826       4837       4836  
      4705       4706       4717       4716       4826       4827       4838       4837  
      4706       4707       4718       4717       4827       4828       4839       4838  
      4707       4708       4719       4718       4828       4829       4840       4839  
      4720       4721       4732       4731       4841       4842       4853       4852  
      4721       4722       4733       4732       4842       4843       4854       4853  
      4722       4723       4734       4733       4843       4844       4855       4854  
      4723       4724       4735       4734       4844       4845       4856       4855  
      4724       4725       4736       4735       4845       4846       4857       4856  
      4725       4726       4737       4736       4846       4847       4858       4857  
      4726       4727       4738       4737       4847       4848       4859       4858  
      4727       4728       4739       4738       4848       4849       4860       4859  
      4728       4729       4740       4739       4849       4850       4861       4860  
      4729       4730       4741       4740       4850       4851       4862       4861  
      4731       4732       4743       4742       4852       4853       4864       4863  
      4732       4733       4744       4743       4853       4854       4865       4864  
      4733       4734       4745       4744       4854       4855       4866       4865  
      4734       4735       4746       4745       4855       4856       4867       4866  
      4735       4736       4747       4746       4856       4857       4868       4867  
      4736       4737       4748       4747       4857       4858       4869       4868  
      4737       4738       4749       4748       4858       4859       4870       4869  
      4738       4739       4750       4749       4859       4860       4871       4870  
      4739       4740       4751       4750       4860       4861       4872       4871  
      4740       4741       4752       4751       4861       4862       4873       4872  
      4742       4743       4754       4753       4863       4864       4875       4874  
      4743       4744       4755       4754       4864       4865       4876       4875  
      4744       4745       4756       4755       4865       4866       4877       4876  
      4745       4746       4757       4756       4866       4867       4878       4877  
      4746       4747       4758       4757       4867       4868       4879       4878  
      4747       4748       4759       4758       4868       4869       4880       4879  
      4748       4749       4760       4759       4869       4870       4881       4880  
      4749       4750       4761       4760       4870       4871       4882       4881  
      4750       4751       4762       4761       4871       4872       4883       4882  
      4751       4752       4763       4762       4872       4873       4884       4883  
      4753       4754       4765       4764       4874       4875       4886       4885  
      4754       4755       4766       4765       4875       4876       4887       4886  
      4755       4756       4767       4766       4876       4877       4888       4887  
      4756       4757       4768       4767       4877       4878       4889       4888  
      4757       4758       4769       4768       4878       4879       4890       4889  
      4758       4759       4770       4769       4879       4880       4891       4890  
      4759       4760       4771       4770       4880       4881       4892       4891  
      4760       4761       4772       4771       4881       4882       4893       4892  
      4761       4762       4773       4772       4882       4883       4894       4893  
      4762       4763       4774       4773       4883       4884       4895       4894  
      4764       4765       4776       4775       4885       4886       4897       4896  
      4765       4766       4777       4776       4886       4887       4898       4897  
      4766       4767       4778       4777       4887       4888       4899       4898  
      4767       4768       4779       4778       4888       4889       4900       4899  
      4768       4769       4780       4779       4889       4890       4901       4900  
      4769       4770       4781       4780       4890       4891       4902       4901  
      4770       4771       4782       4781       4891       4892       4903       4902  
      4771       4772       4783       4782       4892       4893       4904       4903  
      4772       4773       4784       4783       4893       4894       4905       4904  
      4773       4774       4785       4784       4894       4895       4906       4905  
      4775       4776       4787       4786       4896       4897       4908       4907  
      4776       4777       4788       4787       4897       4898       4909       4908  
      4777       4778       4789       4788       4898       4899       4910       4909  
      4778       4779       4790       4789       4899       4900       4911       4910  
      4779       4780       4791       4790       4900       4901       4912       4911  
      4780       4781       4792       4791       4901       4902       4913       4912  
      4781       4782       4793       4792       4902       4903       4914       4913  
      4782       4783       4794       4793       4903       4904       4915       4914  
      4783       4784       4795       4794       4904       4905       4916       4915  
      4784       4785       4796       4795       4905       4906       4917       4916  
      4786       4787       4798       4797       4907       4908       4919       4918  
      4787       4788       4799       4798       4908       4909       4920       4919  
      4788       4789       4800       4799       4909       4910       4921       4920  
      4789       4790       4801       4800       4910       4911       4922       4921  
      4790       4791       4802       4801       4911       4912       4923       4922  
      4791       4792       4803       4802       4912       4913       4924       4923  
      4792       4793       4804       4803       4913       4914       4925       4924  
      4793       4794       4805       4804       4914       4915       4926       4925  
      4794       4795       4806       4805       4915       4916       4927       4926  
      4795       4796       4807       4806       4916       4917       4928       4927  
      4797       4798       4809       4808       4918       4919       4930       4929  
      4798       4799       4810       4809       4919       4920       4931       4930  
      4799       4800       4811       4810       4920       4921       4932       4931  
      4800       4801       4812       4811       4921       4922       4933       4932  
      4801       4802       4813       4812       4922       4923       4934       4933  
      4802       4803       4814       4813       4923       4924       4935       4934  
      4803       4804       4815       4814       4924       4925       4936       4935  
      4804       4805       4816       4815       4925       4926       4937       4936  
      4805       4806       4817       4816       4926       4927       4938       4937  
      4806       4807       4818       4817       4927       4928       4939       4938  
      4808       4809       4820       4819       4929       4930       4941       4940  
      4809       4810       4821       4820       4930       4931       4942       4941  
      4810       4811       4822       4821       4931       4932       4943       4942  
      4811       4812       4823       4822       4932       4933       4944       4943  
      4812       4813       4824       4823       4933       4934       4945       4944  
      4813       4814       4825       4824       4934       4935       4946       4945  
      4814       4815       4826       4825       4935       4936       4947       4946  
      4815       4816       4827       4826       4936       4937       4948       4947  
      4816       4817       4828       4827       4937       4938       4949       4948  
      4817       4818       4829       4828       4938       4939       4950       4949  
      4819       4820       4831       4830       4940       4941       4952       4951  
      4820       4821       4832       4831       4941       4942       4953       4952  
      4821       4822       4833       4832       4942       4943       4954       4953  
      4822       4823       4834       4833       4943       4944       4955       4954  
      4823       4824       4835       4834       4944       4945       4956       4955  
      4824       4825       4836       4835       4945       4946       4957       4956  
      4825       4826       4837       4836       4946       4947       4958       4957  
      4826       4827       4838       4837       4947       4948       4959       4958  
      4827       4828       4839       4838       4948       4949       4960       4959  
      4828       4829       4840       4839       4949       4950       4961       4960  
      4841       4842       4853       4852       4962       4963       4974       4973  
      4842       4843       4854       4853       4963       4964       4975       4974  
      4843       4844       4855       4854       4964       4965       4976       4975  
      4844       4845       4856       4855       4965       4966       4977       4976  
      4845       4846       4857       4856       4966       4967       4978       4977  
      4846       4847       4858       4857       4967       4968       4979       4978  
      4847       4848       4859       4858       4968       4969       4980       4979  
      4848       4849       4860       4859       4969       4970       4981       4980  
      4849       4850       4861       4860       4970       4971       4982       4981  
      4850       4851       4862       4861       4971       4972       4983       4982  
      4852       4853       4864       4863       4973       4974       4985       4984  
      4853       4854       4865       4864       4974       4975       4986       4985  
      4854       4855       4866       4865       4975       4976       4987       4986  
      4855       4856       4867       4866       4976       4977       4988       4987  
      4856       4857       4868       4867       4977       4978       4989       4988  
      4857       4858       4869       4868       4978       4979       4990       4989  
      4858       4859       4870       4869       4979       4980       4991       4990  
      4859       4860       4871       4870       4980       4981       4992       4991  
      4860       4861       4872       4871       4981       4982       4993       4992  
      4861       4862       4873       4872       4982       4983       4994       4993  
      4863       4864       4875       4874       4984       4985       4996       4995  
      4864       4865       4876       4875       4985       4986       4997       4996  
      4865       4866       4877       4876       4986       4987       4998       4997  
      4866       4867       4878       4877       4987       4988       4999       4998  
      4867       4868       4879       4878       4988       4989       5000       4999  
      4868       4869       4880       4879       4989       4990       5001       5000  
      4869       4870       4881       4880       4990       4991       5002       5001  
      4870       4871       4882       4881       4991       4992       5003       5002  
      4871       4872       4883       4882       4992       4993       5004       5003  
      4872       4873       4884       4883       4993       4994       5005       5004  
      4874       4875       4886       4885       4995       4996       5007       5006  
      4875       4876       4887       4886       4996       4997       5008       5007  
      4876       4877       4888       4887       4997       4998       5009       5008  
      4877       4878       4889       4888       4998       4999       5010       5009  
      4878       4879       4890       4889       4999       5000       5011       5010  
      4879       4880       4891       4890       5000       5001       5012       5011  
      4880       4881       4892       4891       5001       5002       5013       5012  
      4881       4882       4893       4892       5002       5003       5014       5013  
      4882       4883       4894       4893       5003       5004       5015       5014  
      4883       4884       4895       4894       5004       5005       5016       5015  
      4885       4886       4897       4896       5006       5007       5018       5017  
      4886       4887       4898       4897       5007       5008       5019       5018  
      4887       4888       4899       4898       5008       5009       5020       5019  
      4888       4889       4900       4899       5009       5010       5021       5020  
      4889       4890       4901       4900       5010       5011       5022       5021  
      4890       4891       4902       4901       5011       5012       5023       5022  
      4891       4892       4903       4902       5012       5013       5024       5023  
      4892       4893       4904       4903       5013       5014       5025       5024  
      4893       4894       4905       4904       5014       5015       5026       5025  
      4894       4895       4906       4905       5015       5016       5027       5026  
      4896       4897       4908       4907       5017       5018       5029       5028  
      4897       4898       4909       4908       5018       5019       5030       5029  
      4898       4899       4910       4909       5019       5020       5031       5030  
      4899       4900       4911       4910       5020       5021       5032       5031  
      4900       4901       4912       4911       5021       5022       5033       5032  
      4901       4902       4913       4912       5022       5023       5034       5033  
      4902       4903       4914       4913       5023       5024       5035       5034  
      4903       4904       4915       4914       5024       5025       5036       5035  
      4904       4905       4916       4915       5025       5026       5037       5036  
      4905       4906       4917       4916       5026       5027       5038       5037  
      4907       4908       4919       4918       5028       5029       5040       5039  
      4908       4909       4920       4919       5029       5030       5041       5040  
      4909       4910       4921       4920       5030       5031       5042       5041  
      4910       4911       4922       4921       5031       5032       5043       5042  
      4911       4912       4923       4922       5032       5033       5044       5043  
      4912       4913       4924       4923       5033       5034       5045       5044  
      4913       4914       4925       4924       5034       5035       5046       5045  
      4914       4915       4926       4925       5035       5036       5047       5046  
      4915       4916       4927       4926       5036       5037       5048       5047  
      4916       4917       4928       4927       5037       5038       5049       5048  
      4918       4919       4930       4929       5039       5040       5051       5050  
      4919       4920       4931       4930       5040       5041       5052       5051  
      4920       4921       4932       4931       5041       5042       5053       5052  
      4921       4922       4933       4932       5042       5043       5054       5053  
      4922       4923       4934       4933       5043       5044       5055       5054  
      4923       4924       4935       4934       5044       5045       5056       5055  
      4924       4925       4936       4935       5045       5046       5057       5056  
      4925       4926       4937       4936       5046       5047       5058       5057  
      4926       4927       4938       4937       5047       5048       5059       5058  
      4927       4928       4939       4938       5048       5049       5060       5059  
      4929       4930       4941       4940       5050       5051       5062       5061  
      4930       4931       4942       4941       5051       5052       5063       5062  
      4931       4932       4943       4942       5052       5053       5064       5063  
      4932       4933       4944       4943       5053       5054       5065       5064  
      4933       4934       4945       4944       5054       5055       5066       5065  
      4934       4935       4946       4945       5055       5056       5067       5066  
      4935       4936       4947       4946       5056       5057       5068       5067  
      4936       4937       4948       4947       5057       5058       5069       5068  
      4937       4938       4949       4948       5058       5059       5070       5069  
      4938       4939       4950       4949       5059       5060       5071       5070  
      4940       4941       4952       4951       5061       5062       5073       5072  
      4941       4942       4953       4952       5062       5063       5074       5073  
      4942       4943       4954       4953       5063       5064       5075       5074  
      4943       4944       4955       4954       5064       5065       5076       5075  
      4944       4945       4956       4955       5065       5066       5077       5076  
      4945       4946       4957       4956       5066       5067       5078       5077  
      4946       4947       4958       4957       5067       5068       5079       5078  
      4947       4948       4959       4958       5068       5069       5080       5079  
      4948       4949       4960       4959       5069       5070       5081       5080  
      4949       4950       4961       4960       5070       5071       5082       5081  
      4962       4963       4974       4973       5083       5084       5095       5094  
      4963       4964       4975       4974       5084       5085       5096       5095  
      4964       4965       4976       4975       5085       5086       5097       5096  
      4965       4966       4977       4976       5086       5087       5098       5097  
      4966       4967       4978       4977       5087       5088       5099       5098  
      4967       4968       4979       4978       5088       5089       5100       5099  
      4968       4969       4980       4979       5089       5090       5101       5100  
      4969       4970       4981       4980       5090       5091       5102       5101  
      4970       4971       4982       4981       5091       5092       5103       5102  
      4971       4972       4983       4982       5092       5093       5104       5103  
      4973       4974       4985       4984       5094       5095       5106       5105  
      4974       4975       4986       4985       5095       5096       5107       5106  
      4975       4976       4987       4986       5096       5097       5108       5107  
      4976       4977       4988       4987       5097       5098       5109       5108  
      4977       4978       4989       4988       5098       5099       5110       5109  
      4978       4979       4990       4989       5099       5100       5111       5110  
      4979       4980       4991       4990       5100       5101       5112       5111  
      4980       4981       4992       4991       5101       5102       5113       5112  
      4981       4982       4993       4992       5102       5103       5114       5113  
      4982       4983       4994       4993       5103       5104       5115       5114  
      4984       4985       4996       4995       5105       5106       5117       5116  
      4985       4986       4997       4996       5106       5107       5118       5117  
      4986       4987       4998       4997       5107       5108       5119       5118  
      4987       4988       4999       4998       5108       5109       5120       5119  
      4988       4989       5000       4999       5109       5110       5121       5120  
      4989       4990       5001       5000       5110       5111       5122       5121  
      4990       4991       5002       5001       5111       5112       5123       5122  
      4991       4992       5003       5002       5112       5113       5124       5123  
      4992       4993       5004       5003       5113       5114       5125       5124  
      4993       4994       5005       5004       5114       5115       5126       5125  
      4995       4996       5007       5006       5116       5117       5128       5127  
      4996       4997       5008       5007       5117       5118       5129       5128  
      4997       4998       5009       5008       5118       5119       5130       5129  
      4998       4999       5010       5009       5119       5120       5131       5130  
      4999       5000       5011       5010       5120       5121       5132       5131  
      5000       5001       5012       5011       5121       5122       5133       5132  
      5001       5002       5013       5012       5122       5123       5134       5133  
      5002       5003       5014       5013       5123       5124       5135       5134  
      5003       5004       5015       5014       5124       5125       5136       5135  
      5004       5005       5016       5015       5125       5126       5137       5136  
      5006       5007       5018       5017       5127       5128       5139       5138  
      5007       5008       5019       5018       5128       5129       5140       5139  
      5008       5009       5020       5019       5129       5130       5141       5140  
      5009       5010       5021       5020       5130       5131       5142       5141  
      5010       5011       5022       5021       5131       5132       5143       5142  
      5011       5012       5023       5022       5132       5133       5144       5143  
      5012       5013       5024       5023       5133       5134       5145       5144  
      5013       5014       5025       5024       5134       5135       5146       5145  
      5014       5015       5026       5025       5135       5136       5147       5146  
      5015       5016       5027       5026       5136       5137       5148       5147  
      5017       5018       5029       5028       5138       5139       5150       5149  
      5018       5019       5030       5029       5139       5140       5151       5150  
      5019       5020       5031       5030       5140       5141       5152       5151  
      5020       5021       5032       5031       5141       5142       5153       5152  
      5021       5022       5033       5032       5142       5143       5154       5153  
      5022       5023       5034       5033       5143       5144       5155       5154  
      5023       5024       5035       5034       5144       5145       5156       5155  
      5024       5025       5036       5035       5145       5146       5157       5156  
      5025       5026       5037       5036       5146       5147       5158       5157  
      5026       5027       5038       5037       5147       5148       5159       5158  
      5028       5029       5040       5039       5149       5150       5161       5160  
      5029       5030       5041       5040       5150       5151       5162       5161  
      5030       5031       5042       5041       5151       5152       5163       5162  
      5031       5032       5043       5042       5152       5153       5164       5163  
      5032       5033       5044       5043       5153       5154       5165       5164  
      5033       5034       5045       5044       5154       5155       5166       5165  
      5034       5035       5046       5045       5155       5156       5167       5166  
      5035       5036       5047       5046       5156       5157       5168       5167  
      5036       5037       5048       5047       5157       5158       5169       5168  
      5037       5038       5049       5048       5158       5159       5170       5169  
      5039       5040       5051       5050       5160       5161       5172       5171  
      5040       5041       5052       5051       5161       5162       5173       5172  
      5041       5042       5053       5052       5162       5163       5174       5173  
      5042       5043       5054       5053       5163       5164       5175       5174  
      5043       5044       5055       5054       5164       5165       5176       5175  
      5044       5045       5056       5055       5165       5166       5177       5176  
      5045       5046       5057       5056       5166       5167       5178       5177  
      5046       5047       5058       5057       5167       5168       5179       5178  
      5047       5048       5059       5058       5168       5169       5180       5179  
      5048       5049       5060       5059       5169       5170       5181       5180  
      5050       5051       5062       5061       5171       5172       5183       5182  
      5051       5052       5063       5062       5172       5173       5184       5183  
      5052       5053       5064       5063       5173       5174       5185       5184  
      5053       5054       5065       5064       5174       5175       5186       5185  
      5054       5055       5066       5065       5175       5176       5187       5186  
      5055       5056       5067       5066       5176       5177       5188       5187  
      5056       5057       5068       5067       5177       5178       5189       5188  
      5057       5058       5069       5068       5178       5179       5190       5189  
      5058       5059       5070       5069       5179       5180       5191       5190  
      5059       5060       5071       5070       5180       5181       5192       5191  
      5061       5062       5073       5072       5182       5183       5194       5193  
      5062       5063       5074       5073       5183       5184       5195       5194  
      5063       5064       5075       5074       5184       5185       5196       5195  
      5064       5065       5076       5075       5185       5186       5197       5196  
      5065       5066       5077       5076       5186       5187       5198       5197  
      5066       5067       5078       5077       5187       5188       5199       5198  
      5067       5068       5079       5078       5188       5189       5200       5199  
      5068       5069       5080       5079       5189       5190       5201       5200  
      5069       5070       5081       5080       5190       5191       5202       5201  
      5070       5071       5082       5081       5191       5192       5203       5202  
      5083       5084       5095       5094       5204       5205       5216       5215  
      5084       5085       5096       5095       5205       5206       5217       5216  
      5085       5086       5097       5096       5206       5207       5218       5217  
      5086       5087       5098       5097       5207       5208       5219       5218  
      5087       5088       5099       5098       5208       5209       5220       5219  
      5088       5089       5100       5099       5209       5210       5221       5220  
      5089       5090       5101       5100       5210       5211       5222       5221  
      5090       5091       5102       5101       5211       5212       5223       5222  
      5091       5092       5103       5102       5212       5213       5224       5223  
      5092       5093       5104       5103       5213       5214       5225       5224  
      5094       5095       5106       5105       5215       5216       5227       5226  
      5095       5096       5107       5106       5216       5217       5228       5227  
      5096       5097       5108       5107       5217       5218       5229       5228  
      5097       5098       5109       5108       5218       5219       5230       5229  
      5098       5099       5110       5109       5219       5220       5231       5230  
      5099       5100       5111       5110       5220       5221       5232       5231  
      5100       5101       5112       5111       5221       5222       5233       5232  
      5101       5102       5113       5112       5222       5223       5234       5233  
      5102       5103       5114       5113       5223       5224       5235       5234  
      5103       5104       5115       5114       5224       5225       5236       5235  
      5105       5106       5117       5116       5226       5227       5238       5237  
      5106       5107       5118       5117       5227       5228       5239       5238  
      5107       5108       5119       5118       5228       5229       5240       5239  
      5108       5109       5120       5119       5229       5230       5241       5240  
      5109       5110       5121       5120       5230       5231       5242       5241  
      5110       5111       5122       5121       5231       5232       5243       5242  
      5111       5112       5123       5122       5232       5233       5244       5243  
      5112       5113       5124       5123       5233       5234       5245       5244  
      5113       5114       5125       5124       5234       5235       5246       5245  
      5114       5115       5126       5125       5235       5236       5247       5246  
      5116       5117       5128       5127       5237       5238       5249       5248  
      5117       5118       5129       5128       5238       5239       5250       5249  
      5118       5119       5130       5129       5239       5240       5251       5250  
      5119       5120       5131       5130       5240       5241       5252       5251  
      5120       5121       5132       5131       5241       5242       5253       5252  
      5121       5122       5133       5132       5242       5243       5254       5253  
      5122       5123       5134       5133       5243       5244       5255       5254  
      5123       5124       5135       5134       5244       5245       5256       5255  
      5124       5125       5136       5135       5245       5246       5257       5256  
      5125       5126       5137       5136       5246       5247       5258       5257  
      5127       5128       5139       5138       5248       5249       5260       5259  
      5128       5129       5140       5139       5249       5250       5261       5260  
      5129       5130       5141       5140       5250       5251       5262       5261  
      5130       5131       5142       5141       5251       5252       5263       5262  
      5131       5132       5143       5142       5252       5253       5264       5263  
      5132       5133       5144       5143       5253       5254       5265       5264  
      5133       5134       5145       5144       5254       5255       5266       5265  
      5134       5135       5146       5145       5255       5256       5267       5266  
      5135       5136       5147       5146       5256       5257       5268       5267  
      5136       5137       5148       5147       5257       5258       5269       5268  
      5138       5139       5150       5149       5259       5260       5271       5270  
      5139       5140       5151       5150       5260       5261       5272       5271  
      5140       5141       5152       5151       5261       5262       5273       5272  
      5141       5142       5153       5152       5262       5263       5274       5273  
      5142       5143       5154       5153       5263       5264       5275       5274  
      5143       5144       5155       5154       5264       5265       5276       5275  
      5144       5145       5156       5155       5265       5266       5277       5276  
      5145       5146       5157       5156       5266       5267       5278       5277  
      5146       5147       5158       5157       5267       5268       5279       5278  
      5147       5148       5159       5158       5268       5269       5280       5279  
      5149       5150       5161       5160       5270       5271       5282       5281  
      5150       5151       5162       5161       5271       5272       5283       5282  
      5151       5152       5163       5162       5272       5273       5284       5283  
      5152       5153       5164       5163       5273       5274       5285       5284  
      5153       5154       5165       5164       5274       5275       5286       5285  
      5154       5155       5166       5165       5275       5276       5287       5286  
      5155       5156       5167       5166       5276       5277       5288       5287  
      5156       5157       5168       5167       5277       5278       5289       5288  
      5157       5158       5169       5168       5278       5279       5290       5289  
      5158       5159       5170       5169       5279       5280       5291       5290  
      5160       5161       5172       5171       5281       5282       5293       5292  
      5161       5162       5173       5172       5282       5283       5294       5293  
      5162       5163       5174       5173       5283       5284       5295       5294  
      5163       5164       5175       5174       5284       5285       5296       5295  
      5164       5165       5176       5175       5285       5286       5297       5296  
      5165       5166       5177       5176       5286       5287       5298       5297  
      5166       5167       5178       5177       5287       5288       5299       5298  
      5167       5168       5179       5178       5288       5289       5300       5299  
      5168       5169       5180       5179       5289       5290       5301       5300  
      5169       5170       5181       5180       5290       5291       5302       5301  
      5171       5172       5183       5182       5292       5293       5304       5303  
      5172       5173       5184       5183       5293       5294       5305       5304  
      5173       5174       5185       5184       5294       5295       5306       5305  
      5174       5175       5186       5185       5295       5296       5307       5306  
      5175       5176       5187       5186       5296       5297       5308       5307  
      5176       5177       5188       5187       5297       5298       5309       5308  
      5177       5178       5189       5188       5298       5299       5310       5309  
      5178       5179       5190       5189       5299       5300       5311       5310  
      5179       5180       5191       5190       5300       5301       5312       5311  
      5180       5181       5192       5191       5301       5302       5313       5312  
      5182       5183       5194       5193       5303       5304       5315       5314  
      5183       5184       5195       5194       5304       5305       5316       5315  
      5184       5185       5196       5195       5305       5306       5317       5316  
      5185       5186       5197       5196       5306       5307       5318       5317  
      5186       5187       5198       5197       5307       5308       5319       5318  
      5187       5188       5199       5198       5308       5309       5320       5319  
      5188       5189       5200       5199       5309       5310       5321       5320  
      5189       5190       5201       5200       5310       5311       5322       5321  
      5190       5191       5202       5201       5311       5312       5323       5322  
      5191       5192       5203       5202       5312       5313       5324       5323  
      5204       5205       5216       5215       5325       5326       5337       5336  
      5205       5206       5217       5216       5326       5327       5338       5337  
      5206       5207       5218       5217       5327       5328       5339       5338  
      5207       5208       5219       5218       5328       5329       5340       5339  
      5208       5209       5220       5219       5329       5330       5341       5340  
      5209       5210       5221       5220       5330       5331       5342       5341  
      5210       5211       5222       5221       5331       5332       5343       5342  
      5211       5212       5223       5222       5332       5333       5344       5343  
      5212       5213       5224       5223       5333       5334       5345       5344  
      5213       5214       5225       5224       5334       5335       5346       5345  
      5215       5216       5227       5226       5336       5337       5348       5347  
      5216       5217       5228       5227       5337       5338       5349       5348  
      5217       5218       5229       5228       5338       5339       5350       5349  
      5218       5219       5230       5229       5339       5340       5351       5350  
      5219       5220       5231       5230       5340       5341       5352       5351  
      5220       5221       5232       5231       5341       5342       5353       5352  
      5221       5222       5233       5232       5342       5343       5354       5353  
      5222       5223       5234       5233       5343       5344       5355       5354  
      5223       5224       5235       5234       5344       5345       5356       5355  
      5224       5225       5236       5235       5345       5346       5357       5356  
      5226       5227       5238       5237       5347       5348       5359       5358  
      5227       5228       5239       5238       5348       5349       5360       5359  
      5228       5229       5240       5239       5349       5350       5361       5360  
      5229       5230       5241       5240       5350       5351       5362       5361  
      5230       5231       5242       5241       5351       5352       5363       5362  
      5231       5232       5243       5242       5352       5353       5364       5363  
      5232       5233       5244       5243       5353       5354       5365       5364  
      5233       5234       5245       5244       5354       5355       5366       5365  
      5234       5235       5246       5245       5355       5356       5367       5366  
      5235       5236       5247       5246       5356       5357       5368       5367  
      5237       5238       5249       5248       5358       5359       5370       5369  
      5238       5239       5250       5249       5359       5360       5371       5370  
      5239       5240       5251       5250       5360       5361       5372       5371  
      5240       5241       5252       5251       5361       5362       5373       5372  
      5241       5242       5253       5252       5362       5363       5374       5373  
      5242       5243       5254       5253       5363       5364       5375       5374  
      5243       5244       5255       5254       5364       5365       5376       5375  
      5244       5245       5256       5255       5365       5366       5377       5376  
      5245       5246       5257       5256       5366       5367       5378       5377  
      5246       5247       5258       5257       5367       5368       5379       5378  
      5248       5249       5260       5259       5369       5370       5381       5380  
      5249       5250       5261       5260       5370       5371       5382       5381  
      5250       5251       5262       5261       5371       5372       5383       5382  
      5251       5252       5263       5262       5372       5373       5384       5383  
      5252       5253       5264       5263       5373       5374       5385       5384  
      5253       5254       5265       5264       5374       5375       5386       5385  
      5254       5255       5266       5265       5375       5376       5387       5386  
      5255       5256       5267       5266       5376       5377       5388       5387  
      5256       5257       5268       5267       5377       5378       5389       5388  
      5257       5258       5269       5268       5378       5379       5390       5389  
      5259       5260       5271       5270       5380       5381       5392       5391  
      5260       5261       5272       5271       5381       5382       5393       5392  
      5261       5262       5273       5272       5382       5383       5394       5393  
      5262       5263       5274       5273       5383       5384       5395       5394  
      5263       5264       5275       5274       5384       5385       5396       5395  
      5264       5265       5276       5275       5385       5386       5397       5396  
      5265       5266       5277       5276       5386       5387       5398       5397  
      5266       5267       5278       5277       5387       5388       5399       5398  
      5267       5268       5279       5278       5388       5389       5400       5399  
      5268       5269       5280       5279       5389       5390       5401       5400  
      5270       5271       5282       5281       5391       5392       5403       5402  
      5271       5272       5283       5282       5392       5393       5404       5403  
      5272       5273       5284       5283       5393       5394       5405       5404  
      5273       5274       5285       5284       5394       5395       5406       5405  
      5274       5275       5286       5285       5395       5396       5407       5406  
      5275       5276       5287       5286       5396       5397       5408       5407  
      5276       5277       5288       5287       5397       5398       5409       5408  
      5277       5278       5289       5288       5398       5399       5410       5409  
      5278       5279       5290       5289       5399       5400       5411       5410  
      5279       5280       5291       5290       5400       5401       5412       5411  
      5281       5282       5293       5292       5402       5403       5414       5413  
      5282       5283       5294       5293       5403       5404       5415       5414  
      5283       5284       5295       5294       5404       5405       5416       5415  
      5284       5285       5296       5295       5405       5406       5417       5416  
      5285       5286       5297       5296       5406       5407       5418       5417  
      5286       5287       5298       5297       5407       5408       5419       5418  
      5287       5288       5299       5298       5408       5409       5420       5419  
      5288       5289       5300       5299       5409       5410       5421       5420  
      5289       5290       5301       5300       5410       5411       5422       5421  
      5290       5291       5302       5301       5411       5412       5423       5422  
      5292       5293       5304       5303       5413       5414       5425       5424  
      5293       5294       5305       5304       5414       5415       5426       5425  
      5294       5295       5306       5305       5415       5416       5427       5426  
      5295       5296       5307       5306       5416       5417       5428       5427  
      5296       5297       5308       5307       5417       5418       5429       5428  
      5297       5298       5309       5308       5418       5419       5430       5429  
      5298       5299       5310       5309       5419       5420       5431       5430  
      5299       5300       5311       5310       5420       5421       5432       5431  
      5300       5301       5312       5311       5421       5422       5433       5432  
      5301       5302       5313       5312       5422       5423       5434       5433  
      5303       5304       5315       5314       5424       5425       5436       5435  
      5304       5305       5316       5315       5425       5426       5437       5436  
      5305       5306       5317       5316       5426       5427       5438       5437  
      5306       5307       5318       5317       5427       5428       5439       5438  
      5307       5308       5319       5318       5428       5429       5440       5439  
      5308       5309       5320       5319       5429       5430       5441       5440  
      5309       5310       5321       5320       5430       5431       5442       5441  
      5310       5311       5322       5321       5431       5432       5443       5442  
      5311       5312       5323       5322       5432       5433       5444       5443  
      5312       5313       5324       5323       5433       5434       5445       5444  
      5325       5326       5337       5336       5446       5447       5458       5457  
      5326       5327       5338       5337       5447       5448       5459       5458  
      5327       5328       5339       5338       5448       5449       5460       5459  
      5328       5329       5340       5339       5449       5450       5461       5460  
      5329       5330       5341       5340       5450       5451       5462       5461  
      5330       5331       5342       5341       5451       5452       5463       5462  
      5331       5332       5343       5342       5452       5453       5464       5463  
      5332       5333       5344       5343       5453       5454       5465       5464  
      5333       5334       5345       5344       5454       5455       5466       5465  
      5334       5335       5346       5345       5455       5456       5467       5466  
      5336       5337       5348       5347       5457       5458       5469       5468  
      5337       5338       5349       5348       5458       5459       5470       5469  
      5338       5339       5350       5349       5459       5460       5471       5470  
      5339       5340       5351       5350       5460       5461       5472       5471  
      5340       5341       5352       5351       5461       5462       5473       5472  
      5341       5342       5353       5352       5462       5463       5474       5473  
      5342       5343       5354       5353       5463       5464       5475       5474  
      5343       5344       5355       5354       5464       5465       5476       5475  
      5344       5345       5356       5355       5465       5466       5477       5476  
      5345       5346       5357       5356       5466       5467       5478       5477  
      5347       5348       5359       5358       5468       5469       5480       5479  
      5348       5349       5360       5359       5469       5470       5481       5480  
      5349       5350       5361       5360       5470       5471       5482       5481  
      5350       5351       5362       5361       5471       5472       5483       5482  
      5351       5352       5363       5362       5472       5473       5484       5483  
      5352       5353       5364       5363       5473       5474       5485       5484  
      5353       5354       5365       5364       5474       5475       5486       5485  
      5354       5355       5366       5365       5475       5476       5487       5486  
      5355       5356       5367       5366       5476       5477       5488       5487  
      5356       5357       5368       5367       5477       5478       5489       5488  
      5358       5359       5370       5369       5479       5480       5491       5490  
      5359       5360       5371       5370       5480       5481       5492       5491  
      5360       5361       5372       5371       5481       5482       5493       5492  
      5361       5362       5373       5372       5482       5483       5494       5493  
      5362       5363       5374       5373       5483       5484       5495       5494  
      5363       5364       5375       5374       5484       5485       5496       5495  
      5364       5365       5376       5375       5485       5486       5497       5496  
      5365       5366       5377       5376       5486       5487       5498       5497  
      5366       5367       5378       5377       5487       5488       5499       5498  
      5367       5368       5379       5378       5488       5489       5500       5499  
      5369       5370       5381       5380       5490       5491       5502       5501  
      5370       5371       5382       5381       5491       5492       5503       5502  
      5371       5372       5383       5382       5492       5493       5504       5503  
      5372       5373       5384       5383       5493       5494       5505       5504  
      5373       5374       5385       5384       5494       5495       5506       5505  
      5374       5375       5386       5385       5495       5496       5507       5506  
      5375       5376       5387       5386       5496       5497       5508       5507  
      5376       5377       5388       5387       5497       5498       5509       5508  
      5377       5378       5389       5388       5498       5499       5510       5509  
      5378       5379       5390       5389       5499       5500       5511       5510  
      5380       5381       5392       5391       5501       5502       5513       5512  
      5381       5382       5393       5392       5502       5503       5514       5513  
      5382       5383       5394       5393       5503       5504       5515       5514  
      5383       5384       5395       5394       5504       5505       5516       5515  
      5384       5385       5396       5395       5505       5506       5517       5516  
      5385       5386       5397       5396       5506       5507       5518       5517  
      5386       5387       5398       5397       5507       5508       5519       5518  
      5387       5388       5399       5398       5508       5509       5520       5519  
      5388       5389       5400       5399       5509       5510       5521       5520  
      5389       5390       5401       5400       5510       5511       5522       5521  
      5391       5392       5403       5402       5512       5513       5524       5523  
      5392       5393       5404       5403       5513       5514       5525       5524  
      5393       5394       5405       5404       5514       5515       5526       5525  
      5394       5395       5406       5405       5515       5516       5527       5526  
      5395       5396       5407       5406       5516       5517       5528       5527  
      5396       5397       5408       5407       5517       5518       5529       5528  
      5397       5398       5409       5408       5518       5519       5530       5529  
      5398       5399       5410       5409       5519       5520       5531       5530  
      5399       5400       5411       5410       5520       5521       5532       5531  
      5400       5401       5412       5411       5521       5522       5533       5532  
      5402       5403       5414       5413       5523       5524       5535       5534  
      5403       5404       5415       5414       5524       5525       5536       5535  
      5404       5405       5416       5415       5525       5526       5537       5536  
      5405       5406       5417       5416       5526       5527       5538       5537  
      5406       5407       5418       5417       5527       5528       5539       5538  
      5407       5408       5419       5418       5528       5529       5540       5539  
      5408       5409       5420       5419       5529       5530       5541       5540  
      5409       5410       5421       5420       5530       5531       5542       5541  
      5410       5411       5422       5421       5531       5532       5543       5542  
      5411       5412       5423       5422       5532       5533       5544       5543  
      5413       5414       5425       5424       5534       5535       5546       5545  
      5414       5415       5426       5425       5535       5536       5547       5546  
      5415       5416       5427       5426       5536       5537       5548       5547  
      5416       5417       5428       5427       5537       5538       5549       5548  
      5417       5418       5429       5428       5538       5539       5550       5549  
      5418       5419       5430       5429       5539       5540       5551       5550  
      5419       5420       5431       5430       5540       5541       5552       5551  
      5420       5421       5432       5431       5541       5542       5553       5552  
      5421       5422       5433       5432       5542       5543       5554       5553  
      5422       5423       5434       5433       5543       5544       5555       5554  
      5424       5425       5436       5435       5545       5546       5557       5556  
      5425       5426       5437       5436       5546       5547       5558       5557  
      5426       5427       5438       5437       5547       5548       5559       5558  
      5427       5428       5439       5438       5548       5549       5560       5559  
      5428       5429       5440       5439       5549       5550       5561       5560  
      5429       5430       5441       5440       5550       5551       5562       5561  
      5430       5431       5442       5441       5551       5552       5563       5562  
      5431       5432       5443       5442       5552       5553       5564       5563  
      5432       5433       5444       5443       5553       5554       5565       5564  
      5433       5434       5445       5444       5554       5555       5566       5565  
      5446       5447       5458       5457       5567       5568       5579       5578  
      5447       5448       5459       5458       5568       5569       5580       5579  
      5448       5449       5460       5459       5569       5570       5581       5580  
      5449       5450       5461       5460       5570       5571       5582       5581  
      5450       5451       5462       5461       5571       5572       5583       5582  
      5451       5452       5463       5462       5572       5573       5584       5583  
      5452       5453       5464       5463       5573       5574       5585       5584  
      5453       5454       5465       5464       5574       5575       5586       5585  
      5454       5455       5466       5465       5575       5576       5587       5586  
      5455       5456       5467       5466       5576       5577       5588       5587  
      5457       5458       5469       5468       5578       5579       5590       5589  
      5458       5459       5470       5469       5579       5580       5591       5590  
      5459       5460       5471       5470       5580       5581       5592       5591  
      5460       5461       5472       5471       5581       5582       5593       5592  
      5461       5462       5473       5472       5582       5583       5594       5593  
      5462       5463       5474       5473       5583       5584       5595       5594  
      5463       5464       5475       5474       5584       5585       5596       5595  
      5464       5465       5476       5475       5585       5586       5597       5596  
      5465       5466       5477       5476       5586       5587       5598       5597  
      5466       5467       5478       5477       5587       5588       5599       5598  
      5468       5469       5480       5479       5589       5590       5601       5600  
      5469       5470       5481       5480       5590       5591       5602       5601  
      5470       5471       5482       5481       5591       5592       5603       5602  
      5471       5472       5483       5482       5592       5593       5604       5603  
      5472       5473       5484       5483       5593       5594       5605       5604  
      5473       5474       5485       5484       5594       5595       5606       5605  
      5474       5475       5486       5485       5595       5596       5607       5606  
      5475       5476       5487       5486       5596       5597       5608       5607  
      5476       5477       5488       5487       5597       5598       5609       5608  
      5477       5478       5489       5488       5598       5599       5610       5609  
      5479       5480       5491       5490       5600       5601       5612       5611  
      5480       5481       5492       5491       5601       5602       5613       5612  
      5481       5482       5493       5492       5602       5603       5614       5613  
      5482       5483       5494       5493       5603       5604       5615       5614  
      5483       5484       5495       5494       5604       5605       5616       5615  
      5484       5485       5496       5495       5605       5606       5617       5616  
      5485       5486       5497       5496       5606       5607       5618       5617  
      5486       5487       5498       5497       5607       5608       5619       5618  
      5487       5488       5499       5498       5608       5609       5620       5619  
      5488       5489       5500       5499       5609       5610       5621       5620  
      5490       5491       5502       5501       5611       5612       5623       5622  
      5491       5492       5503       5502       5612       5613       5624       5623  
      5492       5493       5504       5503       5613       5614       5625       5624  
      5493       5494       5505       5504       5614       5615       5626       5625  
      5494       5495       5506       5505       5615       5616       5627       5626  
      5495       5496       5507       5506       5616       5617       5628       5627  
      5496       5497       5508       5507       5617       5618       5629       5628  
      5497       5498       5509       5508       5618       5619       5630       5629  
      5498       5499       5510       5509       5619       5620       5631       5630  
      5499       5500       5511       5510       5620       5621       5632       5631  
      5501       5502       5513       5512       5622       5623       5634       5633  
      5502       5503       5514       5513       5623       5624       5635       5634  
      5503       5504       5515       5514       5624       5625       5636       5635  
      5504       5505       5516       5515       5625       5626       5637       5636  
      5505       5506       5517       5516       5626       5627       5638       5637  
      5506       5507       5518       5517       5627       5628       5639       5638  
      5507       5508       5519       5518       5628       5629       5640       5639  
      5508       5509       5520       5519       5629       5630       5641       5640  
      5509       5510       5521       5520       5630       5631       5642       5641  
      5510       5511       5522       5521       5631       5632       5643       5642  
      5512       5513       5524       5523       5633       5634       5645       5644  
      5513       5514       5525       5524       5634       5635       5646       5645  
      5514       5515       5526       5525       5635       5636       5647       5646  
      5515       5516       5527       5526       5636       5637       5648       5647  
      5516       5517       5528       5527       5637       5638       5649       5648  
      5517       5518       5529       5528       5638       5639       5650       5649  
      5518       5519       5530       5529       5639       5640       5651       5650  
      5519       5520       5531       5530       5640       5641       5652       5651  
      5520       5521       5532       5531       5641       5642       5653       5652  
      5521       5522       5533       5532       5642       5643       5654       5653  
      5523       5524       5535       5534       5644       5645       5656       5655  
      5524       5525       5536       5535       5645       5646       5657       5656  
      5525       5526       5537       5536       5646       5647       5658       5657  
      5526       5527       5538       5537       5647       5648       5659       5658  
      5527       5528       5539       5538       5648       5649       5660       5659  
      5528       5529       5540       5539       5649       5650       5661       5660  
      5529       5530       5541       5540       5650       5651       5662       5661  
      5530       5531       5542       5541       5651       5652       5663       5662  
      5531       5532       5543       5542       5652       5653       5664       5663  
      5532       5533       5544       5543       5653       5654       5665       5664  
      5534       5535       5546       5545       5655       5656       5667       5666  
      5535       5536       5547       5546       5656       5657       5668       5667  
      5536       5537       5548       5547       5657       5658       5669       5668  
      5537       5538       5549       5548       5658       5659       5670       5669  
      5538       5539       5550       5549       5659       5660       5671       5670  
      5539       5540       5551       5550       5660       5661       5672       5671  
      5540       5541       5552       5551       5661       5662       5673       5672  
      5541       5542       5553       5552       5662       5663       5674       5673  
      5542       5543       5554       5553       5663       5664       5675       5674  
      5543       5544       5555       5554       5664       5665       5676       5675  
      5545       5546       5557       5556       5666       5667       5678       5677  
      5546       5547       5558       5557       5667       5668       5679       5678  
      5547       5548       5559       5558       5668       5669       5680       5679  
      5548       5549       5560       5559       5669       5670       5681       5680  
      5549       5550       5561       5560       5670       5671       5682       5681  
      5550       5551       5562       5561       5671       5672       5683       5682  
      5551       5552       5563       5562       5672       5673       5684       5683  
      5552       5553       5564       5563       5673       5674       5685       5684  
      5553       5554       5565       5564       5674       5675       5686       5685  
      5554       5555       5566       5565       5675       5676       5687       5686  
      5567       5568       5579       5578       5688       5689       5700       5699  
      5568       5569       5580       5579       5689       5690       5701       5700  
      5569       5570       5581       5580       5690       5691       5702       5701  
      5570       5571       5582       5581       5691       5692       5703       5702  
      5571       5572       5583       5582       5692       5693       5704       5703  
      5572       5573       5584       5583       5693       5694       5705       5704  
      5573       5574       5585       5584       5694       5695       5706       5705  
      5574       5575       5586       5585       5695       5696       5707       5706  
      5575       5576       5587       5586       5696       5697       5708       5707  
      5576       5577       5588       5587       5697       5698       5709       5708  
      5578       5579       5590       5589       5699       5700       5711       5710  
      5579       5580       5591       5590       5700       5701       5712       5711  
      5580       5581       5592       5591       5701       5702       5713       5712  
      5581       5582       5593       5592       5702       5703       5714       5713  
      5582       5583       5594       5593       5703       5704       5715       5714  
      5583       5584       5595       5594       5704       5705       5716       5715  
      5584       5585       5596       5595       5705       5706       5717       5716  
      5585       5586       5597       5596       5706       5707       5718       5717  
      5586       5587       5598       5597       5707       5708       5719       5718  
      5587       5588       5599       5598       5708       5709       5720       5719  
      5589       5590       5601       5600       5710       5711       5722       5721  
      5590       5591       5602       5601       5711       5712       5723       5722  
      5591       5592       5603       5602       5712       5713       5724       5723  
      5592       5593       5604       5603       5713       5714       5725       5724  
      5593       5594       5605       5604       5714       5715       5726       5725  
      5594       5595       5606       5605       5715       5716       5727       5726  
      5595       5596       5607       5606       5716       5717       5728       5727  
      5596       5597       5608       5607       5717       5718       5729       5728  
      5597       5598       5609       5608       5718       5719       5730       5729  
      5598       5599       5610       5609       5719       5720       5731       5730  
      5600       5601       5612       5611       5721       5722       5733       5732  
      5601       5602       5613       5612       5722       5723       5734       5733  
      5602       5603       5614       5613       5723       5724       5735       5734  
      5603       5604       5615       5614       5724       5725       5736       5735  
      5604       5605       5616       5615       5725       5726       5737       5736  
      5605       5606       5617       5616       5726       5727       5738       5737  
      5606       5607       5618       5617       5727       5728       5739       5738  
      5607       5608       5619       5618       5728       5729       5740       5739  
      5608       5609       5620       5619       5729       5730       5741       5740  
      5609       5610       5621       5620       5730       5731       5742       5741  
      5611       5612       5623       5622       5732       5733       5744       5743  
      5612       5613       5624       5623       5733       5734       5745       5744  
      5613       5614       5625       5624       5734       5735       5746       5745  
      5614       5615       5626       5625       5735       5736       5747       5746  
      5615       5616       5627       5626       5736       5737       5748       5747  
      5616       5617       5628       5627       5737       5738       5749       5748  
      5617       5618       5629       5628       5738       5739       5750       5749  
      5618       5619       5630       5629       5739       5740       5751       5750  
      5619       5620       5631       5630       5740       5741       5752       5751  
      5620       5621       5632       5631       5741       5742       5753       5752  
      5622       5623       5634       5633       5743       5744       5755       5754  
      5623       5624       5635       5634       5744       5745       5756       5755  
      5624       5625       5636       5635       5745       5746       5757       5756  
      5625       5626       5637       5636       5746       5747       5758       5757  
      5626       5627       5638       5637       5747       5748       5759       5758  
      5627       5628       5639       5638       5748       5749       5760       5759  
      5628       5629       5640       5639       5749       5750       5761       5760  
      5629       5630       5641       5640       5750       5751       5762       5761  
      5630       5631       5642       5641       5751       5752       5763       5762  
      5631       5632       5643       5642       5752       5753       5764       5763  
      5633       5634       5645       5644       5754       5755       5766       5765  
      5634       5635       5646       5645       5755       5756       5767       5766  
      5635       5636       5647       5646       5756       5757       5768       5767  
      5636       5637       5648       5647       5757       5758       5769       5768  
      5637       5638       5649       5648       5758       5759       5770       5769  
      5638       5639       5650       5649       5759       5760       5771       5770  
      5639       5640       5651       5650       5760       5761       5772       5771  
      5640       5641       5652       5651       5761       5762       5773       5772  
      5641       5642       5653       5652       5762       5763       5774       5773  
      5642       5643       5654       5653       5763       5764       5775       5774  
      5644       5645       5656       5655       5765       5766       5777       5776  
      5645       5646       5657       5656       5766       5767       5778       5777  
      5646       5647       5658       5657       5767       5768       5779       5778  
      5647       5648       5659       5658       5768       5769       5780       5779  
      5648       5649       5660       5659       5769       5770       5781       5780  
      5649       5650       5661       5660       5770       5771       5782       5781  
      5650       5651       5662       5661       5771       5772       5783       5782  
      5651       5652       5663       5662       5772       5773       5784       5783  
      5652       5653       5664       5663       5773       5774       5785       5784  
      5653       5654       5665       5664       5774       5775       5786       5785  
      5655       5656       5667       5666       5776       5777       5788       5787  
      5656       5657       5668       5667       5777       5778       5789       5788  
      5657       5658       5669       5668       5778       5779       5790       5789  
      5658       5659       5670       5669       5779       5780       5791       5790  
      5659       5660       5671       5670       5780       5781       5792       5791  
      5660       5661       5672       5671       5781       5782       5793       5792  
      5661       5662       5673       5672       5782       5783       5794       5793  
      5662       5663       5674       5673       5783       5784       5795       5794  
      5663       5664       5675       5674       5784       5785       5796       5795  
      5664       5665       5676       5675       5785       5786       5797       5796  
      5666       5667       5678       5677       5787       5788       5799       5798  
      5667       5668       5679       5678       5788       5789       5800       5799  
      5668       5669       5680       5679       5789       5790       5801       5800  
      5669       5670       5681       5680       5790       5791       5802       5801  
      5670       5671       5682       5681       5791       5792       5803       5802  
      5671       5672       5683       5682       5792       5793       5804       5803  
      5672       5673       5684       5683       5793       5794       5805       5804  
      5673       5674       5685       5684       5794       5795       5806       5805  
      5674       5675       5686       5685       5795       5796       5807       5806  
      5675       5676       5687       5686       5796       5797       5808       5807  
      5688       5689       5700       5699       5809       5810       5821       5820  
      5689       5690       5701       5700       5810       5811       5822       5821  
      5690       5691       5702       5701       5811       5812       5823       5822  
      5691       5692       5703       5702       5812       5813       5824       5823  
      5692       5693       5704       5703       5813       5814       5825       5824  
      5693       5694       5705       5704       5814       5815       5826       5825  
      5694       5695       5706       5705       5815       5816       5827       5826  
      5695       5696       5707       5706       5816       5817       5828       5827  
      5696       5697       5708       5707       5817       5818       5829       5828  
      5697       5698       5709       5708       5818       5819       5830       5829  
      5699       5700       5711       5710       5820       5821       5832       5831  
      5700       5701       5712       5711       5821       5822       5833       5832  
      5701       5702       5713       5712       5822       5823       5834       5833  
      5702       5703       5714       5713       5823       5824       5835       5834  
      5703       5704       5715       5714       5824       5825       5836       5835  
      5704       5705       5716       5715       5825       5826       5837       5836  
      5705       5706       5717       5716       5826       5827       5838       5837  
      5706       5707       5718       5717       5827       5828       5839       5838  
      5707       5708       5719       5718       5828       5829       5840       5839  
      5708       5709       5720       5719       5829       5830       5841       5840  
      5710       5711       5722       5721       5831       5832       5843       5842  
      5711       5712       5723       5722       5832       5833       5844       5843  
      5712       5713       5724       5723       5833       5834       5845       5844  
      5713       5714       5725       5724       5834       5835       5846       5845  
      5714       5715       5726       5725       5835       5836       5847       5846  
      5715       5716       5727       5726       5836       5837       5848       5847  
      5716       5717       5728       5727       5837       5838       5849       5848  
      5717       5718       5729       5728       5838       5839       5850       5849  
      5718       5719       5730       5729       5839       5840       5851       5850  
      5719       5720       5731       5730       5840       5841       5852       5851  
      5721       5722       5733       5732       5842       5843       5854       5853  
      5722       5723       5734       5733       5843       5844       5855       5854  
      5723       5724       5735       5734       5844       5845       5856       5855  
      5724       5725       5736       5735       5845       5846       5857       5856  
      5725       5726       5737       5736       5846       5847       5858       5857  
      5726       5727       5738       5737       5847       5848       5859       5858  
      5727       5728       5739       5738       5848       5849       5860       5859  
      5728       5729       5740       5739       5849       5850       5861       5860  
      5729       5730       5741       5740       5850       5851       5862       5861  
      5730       5731       5742       5741       5851       5852       5863       5862  
      5732       5733       5744       5743       5853       5854       5865       5864  
      5733       5734       5745       5744       5854       5855       5866       5865  
      5734       5735       5746       5745       5855       5856       5867       5866  
      5735       5736       5747       5746       5856       5857       5868       5867  
      5736       5737       5748       5747       5857       5858       5869       5868  
      5737       5738       5749       5748       5858       5859       5870       5869  
      5738       5739       5750       5749       5859       5860       5871       5870  
      5739       5740       5751       5750       5860       5861       5872       5871  
      5740       5741       5752       5751       5861       5862       5873       5872  
      5741       5742       5753       5752       5862       5863       5874       5873  
      5743       5744       5755       5754       5864       5865       5876       5875  
      5744       5745       5756       5755       5865       5866       5877       5876  
      5745       5746       5757       5756       5866       5867       5878       5877  
      5746       5747       5758       5757       5867       5868       5879       5878  
      5747       5748       5759       5758       5868       5869       5880       5879  
      5748       5749       5760       5759       5869       5870       5881       5880  
      5749       5750       5761       5760       5870       5871       5882       5881  
      5750       5751       5762       5761       5871       5872       5883       5882  
      5751       5752       5763       5762       5872       5873       5884       5883  
      5752       5753       5764       5763       5873       5874       5885       5884  
      5754       5755       5766       5765       5875       5876       5887       5886  
      5755       5756       5767       5766       5876       5877       5888       5887  
      5756       5757       5768       5767       5877       5878       5889       5888  
      5757       5758       5769       5768       5878       5879       5890       5889  
      5758       5759       5770       5769       5879       5880       5891       5890  
      5759       5760       5771       5770       5880       5881       5892       5891  
      5760       5761       5772       5771       5881       5882       5893       5892  
      5761       5762       5773       5772       5882       5883       5894       5893  
      5762       5763       5774       5773       5883       5884       5895       5894  
      5763       5764       5775       5774       5884       5885       5896       5895  
      5765       5766       5777       5776       5886       5887       5898       5897  
      5766       5767       5778       5777       5887       5888       5899       5898  
      5767       5768       5779       5778       5888       5889       5900       5899  
      5768       5769       5780       5779       5889       5890       5901       5900  
      5769       5770       5781       5780       5890       5891       5902       5901  
      5770       5771       5782       5781       5891       5892       5903       5902  
      5771       5772       5783       5782       5892       5893       5904       5903  
      5772       5773       5784       5783       5893       5894       5905       5904  
      5773       5774       5785       5784       5894       5895       5906       5905  
      5774       5775       5786       5785       5895       5896       5907       5906  
      5776       5777       5788       5787       5897       5898       5909       5908  
      5777       5778       5789       5788       5898       5899       5910       5909  
      5778       5779       5790       5789       5899       5900       5911       5910  
      5779       5780       5791       5790       5900       5901       5912       5911  
      5780       5781       5792       5791       5901       5902       5913       5912  
      5781       5782       5793       5792       5902       5903       5914       5913  
      5782       5783       5794       5793       5903       5904       5915       5914  
      5783       5784       5795       5794       5904       5905       5916       5915  
      5784       5785       5796       5795       5905       5906       5917       5916  
      5785       5786       5797       5796       5906       5907       5918       5917  
      5787       5788       5799       5798       5908       5909       5920       5919  
      5788       5789       5800       5799       5909       5910       5921       5920  
      5789       5790       5801       5800       5910       5911       5922       5921  
      5790       5791       5802       5801       5911       5912       5923       5922  
      5791       5792       5803       5802       5912       5913       5924       5923  
      5792       5793       5804       5803       5913       5914       5925       5924  
      5793       5794       5805       5804       5914       5915       5926       5925  
      5794       5795       5806       5805       5915       5916       5927       5926  
      5795       5796       5807       5806       5916       5917       5928       5927  
      5796       5797       5808       5807       5917       5918       5929       5928  
      5809       5810       5821       5820       5930       5931       5942       5941  
      5810       5811       5822       5821       5931       5932       5943       5942  
      5811       5812       5823       5822       5932       5933       5944       5943  
      5812       5813       5824       5823       5933       5934       5945       5944  
      5813       5814       5825       5824       5934       5935       5946       5945  
      5814       5815       5826       5825       5935       5936       5947       5946  
      5815       5816       5827       5826       5936       5937       5948       5947  
      5816       5817       5828       5827       5937       5938       5949       5948  
      5817       5818       5829       5828       5938       5939       5950       5949  
      5818       5819       5830       5829       5939       5940       5951       5950  
      5820       5821       5832       5831       5941       5942       5953       5952  
      5821       5822       5833       5832       5942       5943       5954       5953  
      5822       5823       5834       5833       5943       5944       5955       5954  
      5823       5824       5835       5834       5944       5945       5956       5955  
      5824       5825       5836       5835       5945       5946       5957       5956  
      5825       5826       5837       5836       5946       5947       5958       5957  
      5826       5827       5838       5837       5947       5948       5959       5958  
      5827       5828       5839       5838       5948       5949       5960       5959  
      5828       5829       5840       5839       5949       5950       5961       5960  
      5829       5830       5841       5840       5950       5951       5962       5961  
      5831       5832       5843       5842       5952       5953       5964       5963  
      5832       5833       5844       5843       5953       5954       5965       5964  
      5833       5834       5845       5844       5954       5955       5966       5965  
      5834       5835       5846       5845       5955       5956       5967       5966  
      5835       5836       5847       5846       5956       5957       5968       5967  
      5836       5837       5848       5847       5957       5958       5969       5968  
      5837       5838       5849       5848       5958       5959       5970       5969  
      5838       5839       5850       5849       5959       5960       5971       5970  
      5839       5840       5851       5850       5960       5961       5972       5971  
      5840       5841       5852       5851       5961       5962       5973       5972  
      5842       5843       5854       5853       5963       5964       5975       5974  
      5843       5844       5855       5854       5964       5965       5976       5975  
      5844       5845       5856       5855       5965       5966       5977       5976  
      5845       5846       5857       5856       5966       5967       5978       5977  
      5846       5847       5858       5857       5967       5968       5979       5978  
      5847       5848       5859       5858       5968       5969       5980       5979  
      5848       5849       5860       5859       5969       5970       5981       5980  
      5849       5850       5861       5860       5970       5971       5982       5981  
      5850       5851       5862       5861       5971       5972       5983       5982  
      5851       5852       5863       5862       5972       5973       5984       5983  
      5853       5854       5865       5864       5974       5975       5986       5985  
      5854       5855       5866       5865       5975       5976       5987       5986  
      5855       5856       5867       5866       5976       5977       5988       5987  
      5856       5857       5868       5867       5977       5978       5989       5988  
      5857       5858       5869       5868       5978       5979       5990       5989  
      5858       5859       5870       5869       5979       5980       5991       5990  
      5859       5860       5871       5870       5980       5981       5992       5991  
      5860       5861       5872       5871       5981       5982       5993       5992  
      5861       5862       5873       5872       5982       5983       5994       5993  
      5862       5863       5874       5873       5983       5984       5995       5994  
      5864       5865       5876       5875       5985       5986       5997       5996  
      5865       5866       5877       5876       5986       5987       5998       5997  
      5866       5867       5878       5877       5987       5988       5999       5998  
      5867       5868       5879       5878       5988       5989       6000       5999  
      5868       5869       5880       5879       5989       5990       6001       6000  
      5869       5870       5881       5880       5990       5991       6002       6001  
      5870       5871       5882       5881       5991       5992       6003       6002  
      5871       5872       5883       5882       5992       5993       6004       6003  
      5872       5873       5884       5883       5993       5994       6005       6004  
      5873       5874       5885       5884       5994       5995       6006       6005  
      5875       5876       5887       5886       5996       5997       6008       6007  
      5876       5877       5888       5887       5997       5998       6009       6008  
      5877       5878       5889       5888       5998       5999       6010       6009  
      5878       5879       5890       5889       5999       6000       6011       6010  
      5879       5880       5891       5890       6000       6001       6012       6011  
      5880       5881       5892       5891       6001       6002       6013       6012  
      5881       5882       5893       5892       6002       6003       6014       6013  
      5882       5883       5894       5893       6003       6004       6015       6014  
      5883       5884       5895       5894       6004       6005       6016       6015  
      5884       5885       5896       5895       6005       6006       6017       6016  
      5886       5887       5898       5897       6007       6008       6019       6018  
      5887       5888       5899       5898       6008       6009       6020       6019  
      5888       5889       5900       5899       6009       6010       6021       6020  
      5889       5890       5901       5900       6010       6011       6022       6021  
      5890       5891       5902       5901       6011       6012       6023       6022  
      5891       5892       5903       5902       6012       6013       6024       6023  
      5892       5893       5904       5903       6013       6014       6025       6024  
      5893       5894       5905       5904       6014       6015       6026       6025  
      5894       5895       5906       5905       6015       6016       6027       6026  
      5895       5896       5907       5906       6016       6017       6028       6027  
      5897       5898       5909       5908       6018       6019       6030       6029  
      5898       5899       5910       5909       6019       6020       6031       6030  
      5899       5900       5911       5910       6020       6021       6032       6031  
      5900       5901       5912       5911       6021       6022       6033       6032  
      5901       5902       5913       5912       6022       6023       6034       6033  
      5902       5903       5914       5913       6023       6024       6035       6034  
      5903       5904       5915       5914       6024       6025       6036       6035  
      5904       5905       5916       5915       6025       6026       6037       6036  
      5905       5906       5917       5916       6026       6027       6038       6037  
      5906       5907       5918       5917       6027       6028       6039       6038  
      5908       5909       5920       5919       6029       6030       6041       6040  
      5909       5910       5921       5920       6030       6031       6042       6041  
      5910       5911       5922       5921       6031       6032       6043       6042  
      5911       5912       5923       5922       6032       6033       6044       6043  
      5912       5913       5924       5923       6033       6034       6045       6044  
      5913       5914       5925       5924       6034       6035       6046       6045  
      5914       5915       5926       5925       6035       6036       6047       6046  
      5915       5916       5927       5926       6036       6037       6048       6047  
      5916       5917       5928       5927       6037       6038       6049       6048  
      5917       5918       5929       5928       6038       6039       6050       6049  
      5930       5931       5942       5941       6051       6052       6063       6062  
      5931       5932       5943       5942       6052       6053       6064       6063  
      5932       5933       5944       5943       6053       6054       6065       6064  
      5933       5934       5945       5944       6054       6055       6066       6065  
      5934       5935       5946       5945       6055       6056       6067       6066  
      5935       5936       5947       5946       6056       6057       6068       6067  
      5936       5937       5948       5947       6057       6058       6069       6068  
      5937       5938       5949       5948       6058       6059       6070       6069  
      5938       5939       5950       5949       6059       6060       6071       6070  
      5939       5940       5951       5950       6060       6061       6072       6071  
      5941       5942       5953       5952       6062       6063       6074       6073  
      5942       5943       5954       5953       6063       6064       6075       6074  
      5943       5944       5955       5954       6064       6065       6076       6075  
      5944       5945       5956       5955       6065       6066       6077       6076  
      5945       5946       5957       5956       6066       6067       6078       6077  
      5946       5947       5958       5957       6067       6068       6079       6078  
      5947       5948       5959       5958       6068       6069       6080       6079  
      5948       5949       5960       5959       6069       6070       6081       6080  
      5949       5950       5961       5960       6070       6071       6082       6081  
      5950       5951       5962       5961       6071       6072       6083       6082  
      5952       5953       5964       5963       6073       6074       6085       6084  
      5953       5954       5965       5964       6074       6075       6086       6085  
      5954       5955       5966       5965       6075       6076       6087       6086  
      5955       5956       5967       5966       6076       6077       6088       6087  
      5956       5957       5968       5967       6077       6078       6089       6088  
      5957       5958       5969       5968       6078       6079       6090       6089  
      5958       5959       5970       5969       6079       6080       6091       6090  
      5959       5960       5971       5970       6080       6081       6092       6091  
      5960       5961       5972       5971       6081       6082       6093       6092  
      5961       5962       5973       5972       6082       6083       6094       6093  
      5963       5964       5975       5974       6084       6085       6096       6095  
      5964       5965       5976       5975       6085       6086       6097       6096  
      5965       5966       5977       5976       6086       6087       6098       6097  
      5966       5967       5978       5977       6087       6088       6099       6098  
      5967       5968       5979       5978       6088       6089       6100       6099  
      5968       5969       5980       5979       6089       6090       6101       6100  
      5969       5970       5981       5980       6090       6091       6102       6101  
      5970       5971       5982       5981       6091       6092       6103       6102  
      5971       5972       5983       5982       6092       6093       6104       6103  
      5972       5973       5984       5983       6093       6094       6105       6104  
      5974       5975       5986       5985       6095       6096       6107       6106  
      5975       5976       5987       5986       6096       6097       6108       6107  
      5976       5977       5988       5987       6097       6098       6109       6108  
      5977       5978       5989       5988       6098       6099       6110       6109  
      5978       5979       5990       5989       6099       6100       6111       6110  
      5979       5980       5991       5990       6100       6101       6112       6111  
      5980       5981       5992       5991       6101       6102       6113       6112  
      5981       5982       5993       5992       6102       6103       6114       6113  
      5982       5983       5994       5993       6103       6104       6115       6114  
      5983       5984       5995       5994       6104       6105       6116       6115  
      5985       5986       5997       5996       6106       6107       6118       6117  
      5986       5987       5998       5997       6107       6108       6119       6118  
      5987       5988       5999       5998       6108       6109       6120       6119  
      5988       5989       6000       5999       6109       6110       6121       6120  
      5989       5990       6001       6000       6110       6111       6122       6121  
      5990       5991       6002       6001       6111       6112       6123       6122  
      5991       5992       6003       6002       6112       6113       6124       6123  
      5992       5993       6004       6003       6113       6114       6125       6124  
      5993       5994       6005       6004       6114       6115       6126       6125  
      5994       5995       6006       6005       6115       6116       6127       6126  
      5996       5997       6008       6007       6117       6118       6129       6128  
      5997       5998       6009       6008       6118       6119       6130       6129  
      5998       5999       6010       6009       6119       6120       6131       6130  
      5999       6000       6011       6010       6120       6121       6132       6131  
      6000       6001       6012       6011       6121       6122       6133       6132  
      6001       6002       6013       6012       6122       6123       6134       6133  
      6002       6003       6014       6013       6123       6124       6135       6134  
      6003       6004       6015       6014       6124       6125       6136       6135  
      6004       6005       6016       6015       6125       6126       6137       6136  
      6005       6006       6017       6016       6126       6127       6138       6137  
      6007       6008       6019       6018       6128       6129       6140       6139  
      6008       6009       6020       6019       6129       6130       6141       6140  
      6009       6010       6021       6020       6130       6131       6142       6141  
      6010       6011       6022       6021       6131       6132       6143       6142  
      6011       6012       6023       6022       6132       6133       6144       6143  
      6012       6013       6024       6023       6133       6134       6145       6144  
      6013       6014       6025       6024       6134       6135       6146       6145  
      6014       6015       6026       6025       6135       6136       6147       6146  
      6015       6016       6027       6026       6136       6137       6148       6147  
      6016       6017       6028       6027       6137       6138       6149       6148  
      6018       6019       6030       6029       6139       6140       6151       6150  
      6019       6020       6031       6030       6140       6141       6152       6151  
      6020       6021       6032       6031       6141       6142       6153       6152  
      6021       6022       6033       6032       6142       6143       6154       6153  
      6022       6023       6034       6033       6143       6144       6155       6154  
      6023       6024       6035       6034       6144       6145       6156       6155  
      6024       6025       6036       6035       6145       6146       6157       6156  
      6025       6026       6037       6036       6146       6147       6158       6157  
      6026       6027       6038       6037       6147       6148       6159       6158  
      6027       6028       6039       6038       6148       6149       6160       6159  
      6029       6030       6041       6040       6150       6151       6162       6161  
      6030       6031       6042       6041       6151       6152       6163       6162  
      6031       6032       6043       6042       6152       6153       6164       6163  
      6032       6033       6044       6043       6153       6154       6165       6164  
      6033       6034       6045       6044       6154       6155       6166       6165  
      6034       6035       6046       6045       6155       6156       6167       6166  
      6035       6036       6047       6046       6156       6157       6168       6167  
      6036       6037       6048       6047       6157       6158       6169       6168  
      6037       6038       6049       6048       6158       6159       6170       6169  
      6038       6039       6050       6049       6159       6160       6171       6170  
      6051       6052       6063       6062       6172       6173       6184       6183  
      6052       6053       6064       6063       6173       6174       6185       6184  
      6053       6054       6065       6064       6174       6175       6186       6185  
      6054       6055       6066       6065       6175       6176       6187       6186  
      6055       6056       6067       6066       6176       6177       6188       6187  
      6056       6057       6068       6067       6177       6178       6189       6188  
      6057       6058       6069       6068       6178       6179       6190       6189  
      6058       6059       6070       6069       6179       6180       6191       6190  
      6059       6060       6071       6070       6180       6181       6192       6191  
      6060       6061       6072       6071       6181       6182       6193       6192  
      6062       6063       6074       6073       6183       6184       6195       6194  
      6063       6064       6075       6074       6184       6185       6196       6195  
      6064       6065       6076       6075       6185       6186       6197       6196  
      6065       6066       6077       6076       6186       6187       6198       6197  
      6066       6067       6078       6077       6187       6188       6199       6198  
      6067       6068       6079       6078       6188       6189       6200       6199  
      6068       6069       6080       6079       6189       6190       6201       6200  
      6069       6070       6081       6080       6190       6191       6202       6201  
      6070       6071       6082       6081       6191       6192       6203       6202  
      6071       6072       6083       6082       6192       6193       6204       6203  
      6073       6074       6085       6084       6194       6195       6206       6205  
      6074       6075       6086       6085       6195       6196       6207       6206  
      6075       6076       6087       6086       6196       6197       6208       6207  
      6076       6077       6088       6087       6197       6198       6209       6208  
      6077       6078       6089       6088       6198       6199       6210       6209  
      6078       6079       6090       6089       6199       6200       6211       6210  
      6079       6080       6091       6090       6200       6201       6212       6211  
      6080       6081       6092       6091       6201       6202       6213       6212  
      6081       6082       6093       6092       6202       6203       6214       6213  
      6082       6083       6094       6093       6203       6204       6215       6214  
      6084       6085       6096       6095       6205       6206       6217       6216  
      6085       6086       6097       6096       6206       6207       6218       6217  
      6086       6087       6098       6097       6207       6208       6219       6218  
      6087       6088       6099       6098       6208       6209       6220       6219  
      6088       6089       6100       6099       6209       6210       6221       6220  
      6089       6090       6101       6100       6210       6211       6222       6221  
      6090       6091       6102       6101       6211       6212       6223       6222  
      6091       6092       6103       6102       6212       6213       6224       6223  
      6092       6093       6104       6103       6213       6214       6225       6224  
      6093       6094       6105       6104       6214       6215       6226       6225  
      6095       6096       6107       6106       6216       6217       6228       6227  
      6096       6097       6108       6107       6217       6218       6229       6228  
      6097       6098       6109       6108       6218       6219       6230       6229  
      6098       6099       6110       6109       6219       6220       6231       6230  
      6099       6100       6111       6110       6220       6221       6232       6231  
      6100       6101       6112       6111       6221       6222       6233       6232  
      6101       6102       6113       6112       6222       6223       6234       6233  
      6102       6103       6114       6113       6223       6224       6235       6234  
      6103       6104       6115       6114       6224       6225       6236       6235  
      6104       6105       6116       6115       6225       6226       6237       6236  
      6106       6107       6118       6117       6227       6228       6239       6238  
      6107       6108       6119       6118       6228       6229       6240       6239  
      6108       6109       6120       6119       6229       6230       6241       6240  
      6109       6110       6121       6120       6230       6231       6242       6241  
      6110       6111       6122       6121       6231       6232       6243       6242  
      6111       6112       6123       6122       6232       6233       6244       6243  
      6112       6113       6124       6123       6233       6234       6245       6244  
      6113       6114       6125       6124       6234       6235       6246       6245  
      6114       6115       6126       6125       6235       6236       6247       6246  
      6115       6116       6127       6126       6236       6237       6248       6247  
      6117       6118       6129       6128       6238       6239       6250       6249  
      6118       6119       6130       6129       6239       6240       6251       6250  
      6119       6120       6131       6130       6240       6241       6252       6251  
      6120       6121       6132       6131       6241       6242       6253       6252  
      6121       6122       6133       6132       6242       6243       6254       6253  
      6122       6123       6134       6133       6243       6244       6255       6254  
      6123       6124       6135       6134       6244       6245       6256       6255  
      6124       6125       6136       6135       6245       6246       6257       6256  
      6125       6126       6137       6136       6246       6247       6258       6257  
      6126       6127       6138       6137       6247       6248       6259       6258  
      6128       6129       6140       6139       6249       6250       6261       6260  
      6129       6130       6141       6140       6250       6251       6262       6261  
      6130       6131       6142       6141       6251       6252       6263       6262  
      6131       6132       6143       6142       6252       6253       6264       6263  
      6132       6133       6144       6143       6253       6254       6265       6264  
      6133       6134       6145       6144       6254       6255       6266       6265  
      6134       6135       6146       6145       6255       6256       6267       6266  
      6135       6136       6147       6146       6256       6257       6268       6267  
      6136       6137       6148       6147       6257       6258       6269       6268  
      6137       6138       6149       6148       6258       6259       6270       6269  
      6139       6140       6151       6150       6260       6261       6272       6271  
      6140       6141       6152       6151       6261       6262       6273       6272  
      6141       6142       6153       6152       6262       6263       6274       6273  
      6142       6143       6154       6153       6263       6264       6275       6274  
      6143       6144       6155       6154       6264       6265       6276       6275  
      6144       6145       6156       6155       6265       6266       6277       6276  
      6145       6146       6157       6156       6266       6267       6278       6277  
      6146       6147       6158       6157       6267       6268       6279       6278  
      6147       6148       6159       6158       6268       6269       6280       6279  
      6148       6149       6160       6159       6269       6270       6281       6280  
      6150       6151       6162       6161       6271       6272       6283       6282  
      6151       6152       6163       6162       6272       6273       6284       6283  
      6152       6153       6164       6163       6273       6274       6285       6284  
      6153       6154       6165       6164       6274       6275       6286       6285  
      6154       6155       6166       6165       6275       6276       6287       6286  
      6155       6156       6167       6166       6276       6277       6288       6287  
      6156       6157       6168       6167       6277       6278       6289       6288  
      6157       6158       6169       6168       6278       6279       6290       6289  
      6158       6159       6170       6169       6279       6280       6291       6290  
      6159       6160       6171       6170       6280       6281       6292       6291  
      6172       6173       6184       6183       6293       6294       6305       6304  
      6173       6174       6185       6184       6294       6295       6306       6305  
      6174       6175       6186       6185       6295       6296       6307       6306  
      6175       6176       6187       6186       6296       6297       6308       6307  
      6176       6177       6188       6187       6297       6298       6309       6308  
      6177       6178       6189       6188       6298       6299       6310       6309  
      6178       6179       6190       6189       6299       6300       6311       6310  
      6179       6180       6191       6190       6300       6301       6312       6311  
      6180       6181       6192       6191       6301       6302       6313       6312  
      6181       6182       6193       6192       6302       6303       6314       6313  
      6183       6184       6195       6194       6304       6305       6316       6315  
      6184       6185       6196       6195       6305       6306       6317       6316  
      6185       6186       6197       6196       6306       6307       6318       6317  
      6186       6187       6198       6197       6307       6308       6319       6318  
      6187       6188       6199       6198       6308       6309       6320       6319  
      6188       6189       6200       6199       6309       6310       6321       6320  
      6189       6190       6201       6200       6310       6311       6322       6321  
      6190       6191       6202       6201       6311       6312       6323       6322  
      6191       6192       6203       6202       6312       6313       6324       6323  
      6192       6193       6204       6203       6313       6314       6325       6324  
      6194       6195       6206       6205       6315       6316       6327       6326  
      6195       6196       6207       6206       6316       6317       6328       6327  
      6196       6197       6208       6207       6317       6318       6329       6328  
      6197       6198       6209       6208       6318       6319       6330       6329  
      6198       6199       6210       6209       6319       6320       6331       6330  
      6199       6200       6211       6210       6320       6321       6332       6331  
      6200       6201       6212       6211       6321       6322       6333       6332  
      6201       6202       6213       6212       6322       6323       6334       6333  
      6202       6203       6214       6213       6323       6324       6335       6334  
      6203       6204       6215       6214       6324       6325       6336       6335  
      6205       6206       6217       6216       6326       6327       6338       6337  
      6206       6207       6218       6217       6327       6328       6339       6338  
      6207       6208       6219       6218       6328       6329       6340       6339  
      6208       6209       6220       6219       6329       6330       6341       6340  
      6209       6210       6221       6220       6330       6331       6342       6341  
      6210       6211       6222       6221       6331       6332       6343       6342  
      6211       6212       6223       6222       6332       6333       6344       6343  
      6212       6213       6224       6223       6333       6334       6345       6344  
      6213       6214       6225       6224       6334       6335       6346       6345  
      6214       6215       6226       6225       6335       6336       6347       6346  
      6216       6217       6228       6227       6337       6338       6349       6348  
      6217       6218       6229       6228       6338       6339       6350       6349  
      6218       6219       6230       6229       6339       6340       6351       6350  
      6219       6220       6231       6230       6340       6341       6352       6351  
      6220       6221       6232       6231       6341       6342       6353       6352  
      6221       6222       6233       6232       6342       6343       6354       6353  
      6222       6223       6234       6233       6343       6344       6355       6354  
      6223       6224       6235       6234       6344       6345       6356       6355  
      6224       6225       6236       6235       6345       6346       6357       6356  
      6225       6226       6237       6236       6346       6347       6358       6357  
      6227       6228       6239       6238       6348       6349       6360       6359  
      6228       6229       6240       6239       6349       6350       6361       6360  
      6229       6230       6241       6240       6350       6351       6362       6361  
      6230       6231       6242       6241       6351       6352       6363       6362  
      6231       6232       6243       6242       6352       6353       6364       6363  
      6232       6233       6244       6243       6353       6354       6365       6364  
      6233       6234       6245       6244       6354       6355       6366       6365  
      6234       6235       6246       6245       6355       6356       6367       6366  
      6235       6236       6247       6246       6356       6357       6368       6367  
      6236       6237       6248       6247       6357       6358       6369       6368  
      6238       6239       6250       6249       6359       6360       6371       6370  
      6239       6240       6251       6250       6360       6361       6372       6371  
      6240       6241       6252       6251       6361       6362       6373       6372  
      6241       6242       6253       6252       6362       6363       6374       6373  
      6242       6243       6254       6253       6363       6364       6375       6374  
      6243       6244       6255       6254       6364       6365       6376       6375  
      6244       6245       6256       6255       6365       6366       6377       6376  
      6245       6246       6257       6256       6366       6367       6378       6377  
      6246       6247       6258       6257       6367       6368       6379       6378  
      6247       6248       6259       6258       6368       6369       6380       6379  
      6249       6250       6261       6260       6370       6371       6382       6381  
      6250       6251       6262       6261       6371       6372       6383       6382  
      6251       6252       6263       6262       6372       6373       6384       6383  
      6252       6253       6264       6263       6373       6374       6385       6384  
      6253       6254       6265       6264       6374       6375       6386       6385  
      6254       6255       6266       6265       6375       6376       6387       6386  
      6255       6256       6267       6266       6376       6377       6388       6387  
      6256       6257       6268       6267       6377       6378       6389       6388  
      6257       6258       6269       6268       6378       6379       6390       6389  
      6258       6259       6270       6269       6379       6380       6391       6390  
      6260       6261       6272       6271       6381       6382       6393       6392  
      6261       6262       6273       6272       6382       6383       6394       6393  
      6262       6263       6274       6273       6383       6384       6395       6394  
      6263       6264       6275       6274       6384       6385       6396       6395  
      6264       6265       6276       6275       6385       6386       6397       6396  
      6265       6266       6277       6276       6386       6387       6398       6397  
      6266       6267       6278       6277       6387       6388       6399       6398  
      6267       6268       6279       6278       6388       6389       6400       6399  
      6268       6269       6280       6279       6389       6390       6401       6400  
      6269       6270       6281       6280       6390       6391       6402       6401  
      6271       6272       6283       6282       6392       6393       6404       6403  
      6272       6273       6284       6283       6393       6394       6405       6404  
      6273       6274       6285       6284       6394       6395       6406       6405  
      6274       6275       6286       6285       6395       6396       6407       6406  
      6275       6276       6287       6286       6396       6397       6408       6407  
      6276       6277       6288       6287       6397       6398       6409       6408  
      6277       6278       6289       6288       6398       6399       6410       6409  
      6278       6279       6290       6289       6399       6400       6411       6410  
      6279       6280       6291       6290       6400       6401       6412       6411  
      6280       6281       6292       6291       6401       6402       6413       6412  
      6293       6294       6305       6304       6414       6415       6426       6425  
      6294       6295       6306       6305       6415       6416       6427       6426  
      6295       6296       6307       6306       6416       6417       6428       6427  
      6296       6297       6308       6307       6417       6418       6429       6428  
      6297       6298       6309       6308       6418       6419       6430       6429  
      6298       6299       6310       6309       6419       6420       6431       6430  
      6299       6300       6311       6310       6420       6421       6432       6431  
      6300       6301       6312       6311       6421       6422       6433       6432  
      6301       6302       6313       6312       6422       6423       6434       6433  
      6302       6303       6314       6313       6423       6424       6435       6434  
      6304       6305       6316       6315       6425       6426       6437       6436  
      6305       6306       6317       6316       6426       6427       6438       6437  
      6306       6307       6318       6317       6427       6428       6439       6438  
      6307       6308       6319       6318       6428       6429       6440       6439  
      6308       6309       6320       6319       6429       6430       6441       6440  
      6309       6310       6321       6320       6430       6431       6442       6441  
      6310       6311       6322       6321       6431       6432       6443       6442  
      6311       6312       6323       6322       6432       6433       6444       6443  
      6312       6313       6324       6323       6433       6434       6445       6444  
      6313       6314       6325       6324       6434       6435       6446       6445  
      6315       6316       6327       6326       6436       6437       6448       6447  
      6316       6317       6328       6327       6437       6438       6449       6448  
      6317       6318       6329       6328       6438       6439       6450       6449  
      6318       6319       6330       6329       6439       6440       6451       6450  
      6319       6320       6331       6330       6440       6441       6452       6451  
      6320       6321       6332       6331       6441       6442       6453       6452  
      6321       6322       6333       6332       6442       6443       6454       6453  
      6322       6323       6334       6333       6443       6444       6455       6454  
      6323       6324       6335       6334       6444       6445       6456       6455  
      6324       6325       6336       6335       6445       6446       6457       6456  
      6326       6327       6338       6337       6447       6448       6459       6458  
      6327       6328       6339       6338       6448       6449       6460       6459  
      6328       6329       6340       6339       6449       6450       6461       6460  
      6329       6330       6341       6340       6450       6451       6462       6461  
      6330       6331       6342       6341       6451       6452       6463       6462  
      6331       6332       6343       6342       6452       6453       6464       6463  
      6332       6333       6344       6343       6453       6454       6465       6464  
      6333       6334       6345       6344       6454       6455       6466       6465  
      6334       6335       6346       6345       6455       6456       6467       6466  
      6335       6336       6347       6346       6456       6457       6468       6467  
      6337       6338       6349       6348       6458       6459       6470       6469  
      6338       6339       6350       6349       6459       6460       6471       6470  
      6339       6340       6351       6350       6460       6461       6472       6471  
      6340       6341       6352       6351       6461       6462       6473       6472  
      6341       6342       6353       6352       6462       6463       6474       6473  
      6342       6343       6354       6353       6463       6464       6475       6474  
      6343       6344       6355       6354       6464       6465       6476       6475  
      6344       6345       6356       6355       6465       6466       6477       6476  
      6345       6346       6357       6356       6466       6467       6478       6477  
      6346       6347       6358       6357       6467       6468       6479       6478  
      6348       6349       6360       6359       6469       6470       6481       6480  
      6349       6350       6361       6360       6470       6471       6482       6481  
      6350       6351       6362       6361       6471       6472       6483       6482  
      6351       6352       6363       6362       6472       6473       6484       6483  
      6352       6353       6364       6363       6473       6474       6485       6484  
      6353       6354       6365       6364       6474       6475       6486       6485  
      6354       6355       6366       6365       6475       6476       6487       6486  
      6355       6356       6367       6366       6476       6477       6488       6487  
      6356       6357       6368       6367       6477       6478       6489       6488  
      6357       6358       6369       6368       6478       6479       6490       6489  
      6359       6360       6371       6370       6480       6481       6492       6491  
      6360       6361       6372       6371       6481       6482       6493       6492  
      6361       6362       6373       6372       6482       6483       6494       6493  
      6362       6363       6374       6373       6483       6484       6495       6494  
      6363       6364       6375       6374       6484       6485       6496       6495  
      6364       6365       6376       6375       6485       6486       6497       6496  
      6365       6366       6377       6376       6486       6487       6498       6497  
      6366       6367       6378       6377       6487       6488       6499       6498  
      6367       6368       6379       6378       6488       6489       6500       6499  
      6368       6369       6380       6379       6489       6490       6501       6500  
      6370       6371       6382       6381       6491       6492       6503       6502  
      6371       6372       6383       6382       6492       6493       6504       6503  
      6372       6373       6384       6383       6493       6494       6505       6504  
      6373       6374       6385       6384       6494       6495       6506       6505  
      6374       6375       6386       6385       6495       6496       6507       6506  
      6375       6376       6387       6386       6496       6497       6508       6507  
      6376       6377       6388       6387       6497       6498       6509       6508  
      6377       6378       6389       6388       6498       6499       6510       6509  
      6378       6379       6390       6389       6499       6500       6511       6510  
      6379       6380       6391       6390       6500       6501       6512       6511  
      6381       6382       6393       6392       6502       6503       6514       6513  
      6382       6383       6394       6393       6503       6504       6515       6514  
      6383       6384       6395       6394       6504       6505       6516       6515  
      6384       6385       6396       6395       6505       6506       6517       6516  
      6385       6386       6397       6396       6506       6507       6518       6517  
      6386       6387       6398       6397       6507       6508       6519       6518  
      6387       6388       6399       6398       6508       6509       6520       6519  
      6388       6389       6400       6399       6509       6510       6521       6520  
      6389       6390       6401       6400       6510       6511       6522       6521  
      6390       6391       6402       6401       6511       6512       6523       6522  
      6392       6393       6404       6403       6513       6514       6525       6524  
      6393       6394       6405       6404       6514       6515       6526       6525  
      6394       6395       6406       6405       6515       6516       6527       6526  
      6395       6396       6407       6406       6516       6517       6528       6527  
      6396       6397       6408       6407       6517       6518       6529       6528  
      6397       6398       6409       6408       6518       6519       6530       6529  
      6398       6399       6410       6409       6519       6520       6531       6530  
      6399       6400       6411       6410       6520       6521       6532       6531  
      6400       6401       6412       6411       6521       6522       6533       6532  
      6401       6402       6413       6412       6522       6523       6534       6533  
      6414       6415       6426       6425       6535       6536       6547       6546  
      6415       6416       6427       6426       6536       6537       6548       6547  
      6416       6417       6428       6427       6537       6538       6549       6548  
      6417       6418       6429       6428       6538       6539       6550       6549  
      6418       6419       6430       6429       6539       6540       6551       6550  
      6419       6420       6431       6430       6540       6541       6552       6551  
      6420       6421       6432       6431       6541       6542       6553       6552  
      6421       6422       6433       6432       6542       6543       6554       6553  
      6422       6423       6434       6433       6543       6544       6555       6554  
      6423       6424       6435       6434       6544       6545       6556       6555  
      6425       6426       6437       6436       6546       6547       6558       6557  
      6426       6427       6438       6437       6547       6548       6559       6558  
      6427       6428       6439       6438       6548       6549       6560       6559  
      6428       6429       6440       6439       6549       6550       6561       6560  
      6429       6430       6441       6440       6550       6551       6562       6561  
      6430       6431       6442       6441       6551       6552       6563       6562  
      6431       6432       6443       6442       6552       6553       6564       6563  
      6432       6433       6444       6443       6553       6554       6565       6564  
      6433       6434       6445       6444       6554       6555       6566       6565  
      6434       6435       6446       6445       6555       6556       6567       6566  
      6436       6437       6448       6447       6557       6558       6569       6568  
      6437       6438       6449       6448       6558       6559       6570       6569  
      6438       6439       6450       6449       6559       6560       6571       6570  
      6439       6440       6451       6450       6560       6561       6572       6571  
      6440       6441       6452       6451       6561       6562       6573       6572  
      6441       6442       6453       6452       6562       6563       6574       6573  
      6442       6443       6454       6453       6563       6564       6575       6574  
      6443       6444       6455       6454       6564       6565       6576       6575  
      6444       6445       6456       6455       6565       6566       6577       6576  
      6445       6446       6457       6456       6566       6567       6578       6577  
      6447       6448       6459       6458       6568       6569       6580       6579  
      6448       6449       6460       6459       6569       6570       6581       6580  
      6449       6450       6461       6460       6570       6571       6582       6581  
      6450       6451       6462       6461       6571       6572       6583       6582  
      6451       6452       6463       6462       6572       6573       6584       6583  
      6452       6453       6464       6463       6573       6574       6585       6584  
      6453       6454       6465       6464       6574       6575       6586       6585  
      6454       6455       6466       6465       6575       6576       6587       6586  
      6455       6456       6467       6466       6576       6577       6588       6587  
      6456       6457       6468       6467       6577       6578       6589       6588  
      6458       6459       6470       6469       6579       6580       6591       6590  
      6459       6460       6471       6470       6580       6581       6592       6591  
      6460       6461       6472       6471       6581       6582       6593       6592  
      6461       6462       6473       6472       6582       6583       6594       6593  
      6462       6463       6474       6473       6583       6584       6595       6594  
      6463       6464       6475       6474       6584       6585       6596       6595  
      6464       6465       6476       6475       6585       6586       6597       6596  
      6465       6466       6477       6476       6586       6587       6598       6597  
      6466       6467       6478       6477       6587       6588       6599       6598  
      6467       6468       6479       6478       6588       6589       6600       6599  
      6469       6470       6481       6480       6590       6591       6602       6601  
      6470       6471       6482       6481       6591       6592       6603       6602  
      6471       6472       6483       6482       6592       6593       6604       6603  
      6472       6473       6484       6483       6593       6594       6605       6604  
      6473       6474       6485       6484       6594       6595       6606       6605  
      6474       6475       6486       6485       6595       6596       6607       6606  
      6475       6476       6487       6486       6596       6597       6608       6607  
      6476       6477       6488       6487       6597       6598       6609       6608  
      6477       6478       6489       6488       6598       6599       6610       6609  
      6478       6479       6490       6489       6599       6600       6611       6610  
      6480       6481       6492       6491       6601       6602       6613       6612  
      6481       6482       6493       6492       6602       6603       6614       6613  
      6482       6483       6494       6493       6603       6604       6615       6614  
      6483       6484       6495       6494       6604       6605       6616       6615  
      6484       6485       6496       6495       6605       6606       6617       6616  
      6485       6486       6497       6496       6606       6607       6618       6617  
      6486       6487       6498       6497       6607       6608       6619       6618  
      6487       6488       6499       6498       6608       6609       6620       6619  
      6488       6489       6500       6499       6609       6610       6621       6620  
      6489       6490       6501       6500       6610       6611       6622       6621  
      6491       6492       6503       6502       6612       6613       6624       6623  
      6492       6493       6504       6503       6613       6614       6625       6624  
      6493       6494       6505       6504       6614       6615       6626       6625  
      6494       6495       6506       6505       6615       6616       6627       6626  
      6495       6496       6507       6506       6616       6617       6628       6627  
      6496       6497       6508       6507       6617       6618       6629       6628  
      6497       6498       6509       6508       6618       6619       6630       6629  
      6498       6499       6510       6509       6619       6620       6631       6630  
      6499       6500       6511       6510       6620       6621       6632       6631  
      6500       6501       6512       6511       6621       6622       6633       6632  
      6502       6503       6514       6513       6623       6624       6635       6634  
      6503       6504       6515       6514       6624       6625       6636       6635  
      6504       6505       6516       6515       6625       6626       6637       6636  
      6505       6506       6517       6516       6626       6627       6638       6637  
      6506       6507       6518       6517       6627       6628       6639       6638  
      6507       6508       6519       6518       6628       6629       6640       6639  
      6508       6509       6520       6519       6629       6630       6641       6640  
      6509       6510       6521       6520       6630       6631       6642       6641  
      6510       6511       6522       6521       6631       6632       6643       6642  
      6511       6512       6523       6522       6632       6633       6644       6643  
      6513       6514       6525       6524       6634       6635       6646       6645  
      6514       6515       6526       6525       6635       6636       6647       6646  
      6515       6516       6527       6526       6636       6637       6648       6647  
      6516       6517       6528       6527       6637       6638       6649       6648  
      6517       6518       6529       6528       6638       6639       6650       6649  
      6518       6519       6530       6529       6639       6640       6651       6650  
      6519       6520       6531       6530       6640       6641       6652       6651  
      6520       6521       6532       6531       6641       6642       6653       6652  
      6521       6522       6533       6532       6642       6643       6654       6653  
      6522       6523       6534       6533       6643       6644       6655       6654  
      6535       6536       6547       6546       6656       6657       6668       6667  
      6536       6537       6548       6547       6657       6658       6669       6668  
      6537       6538       6549       6548       6658       6659       6670       6669  
      6538       6539       6550       6549       6659       6660       6671       6670  
      6539       6540       6551       6550       6660       6661       6672       6671  
      6540       6541       6552       6551       6661       6662       6673       6672  
      6541       6542       6553       6552       6662       6663       6674       6673  
      6542       6543       6554       6553       6663       6664       6675       6674  
      6543       6544       6555       6554       6664       6665       6676       6675  
      6544       6545       6556       6555       6665       6666       6677       6676  
      6546       6547       6558       6557       6667       6668       6679       6678  
      6547       6548       6559       6558       6668       6669       6680       6679  
      6548       6549       6560       6559       6669       6670       6681       6680  
      6549       6550       6561       6560       6670       6671       6682       6681  
      6550       6551       6562       6561       6671       6672       6683       6682  
      6551       6552       6563       6562       6672       6673       6684       6683  
      6552       6553       6564       6563       6673       6674       6685       6684  
      6553       6554       6565       6564       6674       6675       6686       6685  
      6554       6555       6566       6565       6675       6676       6687       6686  
      6555       6556       6567       6566       6676       6677       6688       6687  
      6557       6558       6569       6568       6678       6679       6690       6689  
      6558       6559       6570       6569       6679       6680       6691       6690  
      6559       6560       6571       6570       6680       6681       6692       6691  
      6560       6561       6572       6571       6681       6682       6693       6692  
      6561       6562       6573       6572       6682       6683       6694       6693  
      6562       6563       6574       6573       6683       6684       6695       6694  
      6563       6564       6575       6574       6684       6685       6696       6695  
      6564       6565       6576       6575       6685       6686       6697       6696  
      6565       6566       6577       6576       6686       6687       6698       6697  
      6566       6567       6578       6577       6687       6688       6699       6698  
      6568       6569       6580       6579       6689       6690       6701       6700  
      6569       6570       6581       6580       6690       6691       6702       6701  
      6570       6571       6582       6581       6691       6692       6703       6702  
      6571       6572       6583       6582       6692       6693       6704       6703  
      6572       6573       6584       6583       6693       6694       6705       6704  
      6573       6574       6585       6584       6694       6695       6706       6705  
      6574       6575       6586       6585       6695       6696       6707       6706  
      6575       6576       6587       6586       6696       6697       6708       6707  
      6576       6577       6588       6587       6697       6698       6709       6708  
      6577       6578       6589       6588       6698       6699       6710       6709  
      6579       6580       6591       6590       6700       6701       6712       6711  
      6580       6581       6592       6591       6701       6702       6713       6712  
      6581       6582       6593       6592       6702       6703       6714       6713  
      6582       6583       6594       6593       6703       6704       6715       6714  
      6583       6584       6595       6594       6704       6705       6716       6715  
      6584       6585       6596       6595       6705       6706       6717       6716  
      6585       6586       6597       6596       6706       6707       6718       6717  
      6586       6587       6598       6597       6707       6708       6719       6718  
      6587       6588       6599       6598       6708       6709       6720       6719  
      6588       6589       6600       6599       6709       6710       6721       6720  
      6590       6591       6602       6601       6711       6712       6723       6722  
      6591       6592       6603       6602       6712       6713       6724       6723  
      6592       6593       6604       6603       6713       6714       6725       6724  
      6593       6594       6605       6604       6714       6715       6726       6725  
      6594       6595       6606       6605       6715       6716       6727       6726  
      6595       6596       6607       6606       6716       6717       6728       6727  
      6596       6597       6608       6607       6717       6718       6729       6728  
      6597       6598       6609       6608       6718       6719       6730       6729  
      6598       6599       6610       6609       6719       6720       6731       6730  
      6599       6600       6611       6610       6720       6721       6732       6731  
      6601       6602       6613       6612       6722       6723       6734       6733  
      6602       6603       6614       6613       6723       6724       6735       6734  
      6603       6604       6615       6614       6724       6725       6736       6735  
      6604       6605       6616       6615       6725       6726       6737       6736  
      6605       6606       6617       6616       6726       6727       6738       6737  
      6606       6607       6618       6617       6727       6728       6739       6738  
      6607       6608       6619       6618       6728       6729       6740       6739  
      6608       6609       6620       6619       6729       6730       6741       6740  
      6609       6610       6621       6620       6730       6731       6742       6741  
      6610       6611       6622       6621       6731       6732       6743       6742  
      6612       6613       6624       6623       6733       6734       6745       6744  
      6613       6614       6625       6624       6734       6735       6746       6745  
      6614       6615       6626       6625       6735       6736       6747       6746  
      6615       6616       6627       6626       6736       6737       6748       6747  
      6616       6617       6628       6627       6737       6738       6749       6748  
      6617       6618       6629       6628       6738       6739       6750       6749  
      6618       6619       6630       6629       6739       6740       6751       6750  
      6619       6620       6631       6630       6740       6741       6752       6751  
      6620       6621       6632       6631       6741       6742       6753       6752  
      6621       6622       6633       6632       6742       6743       6754       6753  
      6623       6624       6635       6634       6744       6745       6756       6755  
      6624       6625       6636       6635       6745       6746       6757       6756  
      6625       6626       6637       6636       6746       6747       6758       6757  
      6626       6627       6638       6637       6747       6748       6759       6758  
      6627       6628       6639       6638       6748       6749       6760       6759  
      6628       6629       6640       6639       6749       6750       6761       6760  
      6629       6630       6641       6640       6750       6751       6762       6761  
      6630       6631       6642       6641       6751       6752       6763       6762  
      6631       6632       6643       6642       6752       6753       6764       6763  
      6632       6633       6644       6643       6753       6754       6765       6764  
      6634       6635       6646       6645       6755       6756       6767       6766  
      6635       6636       6647       6646       6756       6757       6768       6767  
      6636       6637       6648       6647       6757       6758       6769       6768  
      6637       6638       6649       6648       6758       6759       6770       6769  
      6638       6639       6650       6649       6759       6760       6771       6770  
      6639       6640       6651       6650       6760       6761       6772       6771  
      6640       6641       6652       6651       6761       6762       6773       6772  
      6641       6642       6653       6652       6762       6763       6774       6773  
      6642       6643       6654       6653       6763       6764       6775       6774  
      6643       6644       6655       6654       6764       6765       6776       6775  
      6656       6657       6668       6667       6777       6778       6789       6788  
      6657       6658       6669       6668       6778       6779       6790       6789  
      6658       6659       6670       6669       6779       6780       6791       6790  
      6659       6660       6671       6670       6780       6781       6792       6791  
      6660       6661       6672       6671       6781       6782       6793       6792  
      6661       6662       6673       6672       6782       6783       6794       6793  
      6662       6663       6674       6673       6783       6784       6795       6794  
      6663       6664       6675       6674       6784       6785       6796       6795  
      6664       6665       6676       6675       6785       6786       6797       6796  
      6665       6666       6677       6676       6786       6787       6798       6797  
      6667       6668       6679       6678       6788       6789       6800       6799  
      6668       6669       6680       6679       6789       6790       6801       6800  
      6669       6670       6681       6680       6790       6791       6802       6801  
      6670       6671       6682       6681       6791       6792       6803       6802  
      6671       6672       6683       6682       6792       6793       6804       6803  
      6672       6673       6684       6683       6793       6794       6805       6804  
      6673       6674       6685       6684       6794       6795       6806       6805  
      6674       6675       6686       6685       6795       6796       6807       6806  
      6675       6676       6687       6686       6796       6797       6808       6807  
      6676       6677       6688       6687       6797       6798       6809       6808  
      6678       6679       6690       6689       6799       6800       6811       6810  
      6679       6680       6691       6690       6800       6801       6812       6811  
      6680       6681       6692       6691       6801       6802       6813       6812  
      6681       6682       6693       6692       6802       6803       6814       6813  
      6682       6683       6694       6693       6803       6804       6815       6814  
      6683       6684       6695       6694       6804       6805       6816       6815  
      6684       6685       6696       6695       6805       6806       6817       6816  
      6685       6686       6697       6696       6806       6807       6818       6817  
      6686       6687       6698       6697       6807       6808       6819       6818  
      6687       6688       6699       6698       6808       6809       6820       6819  
      6689       6690       6701       6700       6810       6811       6822       6821  
      6690       6691       6702       6701       6811       6812       6823       6822  
      6691       6692       6703       6702       6812       6813       6824       6823  
      6692       6693       6704       6703       6813       6814       6825       6824  
      6693       6694       6705       6704       6814       6815       6826       6825  
      6694       6695       6706       6705       6815       6816       6827       6826  
      6695       6696       6707       6706       6816       6817       6828       6827  
      6696       6697       6708       6707       6817       6818       6829       6828  
      6697       6698       6709       6708       6818       6819       6830       6829  
      6698       6699       6710       6709       6819       6820       6831       6830  
      6700       6701       6712       6711       6821       6822       6833       6832  
      6701       6702       6713       6712       6822       6823       6834       6833  
      6702       6703       6714       6713       6823       6824       6835       6834  
      6703       6704       6715       6714       6824       6825       6836       6835  
      6704       6705       6716       6715       6825       6826       6837       6836  
      6705       6706       6717       6716       6826       6827       6838       6837  
      6706       6707       6718       6717       6827       6828       6839       6838  
      6707       6708       6719       6718       6828       6829       6840       6839  
      6708       6709       6720       6719       6829       6830       6841       6840  
      6709       6710       6721       6720       6830       6831       6842       6841  
      6711       6712       6723       6722       6832       6833       6844       6843  
      6712       6713       6724       6723       6833       6834       6845       6844  
      6713       6714       6725       6724       6834       6835       6846       6845  
      6714       6715       6726       6725       6835       6836       6847       6846  
      6715       6716       6727       6726       6836       6837       6848       6847  
      6716       6717       6728       6727       6837       6838       6849       6848  
      6717       6718       6729       6728       6838       6839       6850       6849  
      6718       6719       6730       6729       6839       6840       6851       6850  
      6719       6720       6731       6730       6840       6841       6852       6851  
      6720       6721       6732       6731       6841       6842       6853       6852  
      6722       6723       6734       6733       6843       6844       6855       6854  
      6723       6724       6735       6734       6844       6845       6856       6855  
      6724       6725       6736       6735       6845       6846       6857       6856  
      6725       6726       6737       6736       6846       6847       6858       6857  
      6726       6727       6738       6737       6847       6848       6859       6858  
      6727       6728       6739       6738       6848       6849       6860       6859  
      6728       6729       6740       6739       6849       6850       6861       6860  
      6729       6730       6741       6740       6850       6851       6862       6861  
      6730       6731       6742       6741       6851       6852       6863       6862  
      6731       6732       6743       6742       6852       6853       6864       6863  
      6733       6734       6745       6744       6854       6855       6866       6865  
      6734       6735       6746       6745       6855       6856       6867       6866  
      6735       6736       6747       6746       6856       6857       6868       6867  
      6736       6737       6748       6747       6857       6858       6869       6868  
      6737       6738       6749       6748       6858       6859       6870       6869  
      6738       6739       6750       6749       6859       6860       6871       6870  
      6739       6740       6751       6750       6860       6861       6872       6871  
      6740       6741       6752       6751       6861       6862       6873       6872  
      6741       6742       6753       6752       6862       6863       6874       6873  
      6742       6743       6754       6753       6863       6864       6875       6874  
      6744       6745       6756       6755       6865       6866       6877       6876  
      6745       6746       6757       6756       6866       6867       6878       6877  
      6746       6747       6758       6757       6867       6868       6879       6878  
      6747       6748       6759       6758       6868       6869       6880       6879  
      6748       6749       6760       6759       6869       6870       6881       6880  
      6749       6750       6761       6760       6870       6871       6882       6881  
      6750       6751       6762       6761       6871       6872       6883       6882  
      6751       6752       6763       6762       6872       6873       6884       6883  
      6752       6753       6764       6763       6873       6874       6885       6884  
      6753       6754       6765       6764       6874       6875       6886       6885  
      6755       6756       6767       6766       6876       6877       6888       6887  
      6756       6757       6768       6767       6877       6878       6889       6888  
      6757       6758       6769       6768       6878       6879       6890       6889  
      6758       6759       6770       6769       6879       6880       6891       6890  
      6759       6760       6771       6770       6880       6881       6892       6891  
      6760       6761       6772       6771       6881       6882       6893       6892  
      6761       6762       6773       6772       6882       6883       6894       6893  
      6762       6763       6774       6773       6883       6884       6895       6894  
      6763       6764       6775       6774       6884       6885       6896       6895  
      6764       6765       6776       6775       6885       6886       6897       6896  
      6777       6778       6789       6788       6898       6899       6910       6909  
      6778       6779       6790       6789       6899       6900       6911       6910  
      6779       6780       6791       6790       6900       6901       6912       6911  
      6780       6781       6792       6791       6901       6902       6913       6912  
      6781       6782       6793       6792       6902       6903       6914       6913  
      6782       6783       6794       6793       6903       6904       6915       6914  
      6783       6784       6795       6794       6904       6905       6916       6915  
      6784       6785       6796       6795       6905       6906       6917       6916  
      6785       6786       6797       6796       6906       6907       6918       6917  
      6786       6787       6798       6797       6907       6908       6919       6918  
      6788       6789       6800       6799       6909       6910       6921       6920  
      6789       6790       6801       6800       6910       6911       6922       6921  
      6790       6791       6802       6801       6911       6912       6923       6922  
      6791       6792       6803       6802       6912       6913       6924       6923  
      6792       6793       6804       6803       6913       6914       6925       6924  
      6793       6794       6805       6804       6914       6915       6926       6925  
      6794       6795       6806       6805       6915       6916       6927       6926  
      6795       6796       6807       6806       6916       6917       6928       6927  
      6796       6797       6808       6807       6917       6918       6929       6928  
      6797       6798       6809       6808       6918       6919       6930       6929  
      6799       6800       6811       6810       6920       6921       6932       6931  
      6800       6801       6812       6811       6921       6922       6933       6932  
      6801       6802       6813       6812       6922       6923       6934       6933  
      6802       6803       6814       6813       6923       6924       6935       6934  
      6803       6804       6815       6814       6924       6925       6936       6935  
      6804       6805       6816       6815       6925       6926       6937       6936  
      6805       6806       6817       6816       6926       6927       6938       6937  
      6806       6807       6818       6817       6927       6928       6939       6938  
      6807       6808       6819       6818       6928       6929       6940       6939  
      6808       6809       6820       6819       6929       6930       6941       6940  
      6810       6811       6822       6821       6931       6932       6943       6942  
      6811       6812       6823       6822       6932       6933       6944       6943  
      6812       6813       6824       6823       6933       6934       6945       6944  
      6813       6814       6825       6824       6934       6935       6946       6945  
      6814       6815       6826       6825       6935       6936       6947       6946  
      6815       6816       6827       6826       6936       6937       6948       6947  
      6816       6817       6828       6827       6937       6938       6949       6948  
      6817       6818       6829       6828       6938       6939       6950       6949  
      6818       6819       6830       6829       6939       6940       6951       6950  
      6819       6820       6831       6830       6940       6941       6952       6951  
      6821       6822       6833       6832       6942       6943       6954       6953  
      6822       6823       6834       6833       6943       6944       6955       6954  
      6823       6824       6835       6834       6944       6945       6956       6955  
      6824       6825       6836       6835       6945       6946       6957       6956  
      6825       6826       6837       6836       6946       6947       6958       6957  
      6826       6827       6838       6837       6947       6948       6959       6958  
      6827       6828       6839       6838       6948       6949       6960       6959  
      6828       6829       6840       6839       6949       6950       6961       6960  
      6829       6830       6841       6840       6950       6951       6962       6961  
      6830       6831       6842       6841       6951       6952       6963       6962  
      6832       6833       6844       6843       6953       6954       6965       6964  
      6833       6834       6845       6844       6954       6955       6966       6965  
      6834       6835       6846       6845       6955       6956       6967       6966  
      6835       6836       6847       6846       6956       6957       6968       6967  
      6836       6837       6848       6847       6957       6958       6969       6968  
      6837       6838       6849       6848       6958       6959       6970       6969  
      6838       6839       6850       6849       6959       6960       6971       6970  
      6839       6840       6851       6850       6960       6961       6972       6971  
      6840       6841       6852       6851       6961       6962       6973       6972  
      6841       6842       6853       6852       6962       6963       6974       6973  
      6843       6844       6855       6854       6964       6965       6976       6975  
      6844       6845       6856       6855       6965       6966       6977       6976  
      6845       6846       6857       6856       6966       6967       6978       6977  
      6846       6847       6858       6857       6967       6968       6979       6978  
      6847       6848       6859       6858       6968       6969       6980       6979  
      6848       6849       6860       6859       6969       6970       6981       6980  
      6849       6850       6861       6860       6970       6971       6982       6981  
      6850       6851       6862       6861       6971       6972       6983       6982  
      6851       6852       6863       6862       6972       6973       6984       6983  
      6852       6853       6864       6863       6973       6974       6985       6984  
      6854       6855       6866       6865       6975       6976       6987       6986  
      6855       6856       6867       6866       6976       6977       6988       6987  
      6856       6857       6868       6867       6977       6978       6989       6988  
      6857       6858       6869       6868       6978       6979       6990       6989  
      6858       6859       6870       6869       6979       6980       6991       6990  
      6859       6860       6871       6870       6980       6981       6992       6991  
      6860       6861       6872       6871       6981       6982       6993       6992  
      6861       6862       6873       6872       6982       6983       6994       6993  
      6862       6863       6874       6873       6983       6984       6995       6994  
      6863       6864       6875       6874       6984       6985       6996       6995  
      6865       6866       6877       6876       6986       6987       6998       6997  
      6866       6867       6878       6877       6987       6988       6999       6998  
      6867       6868       6879       6878       6988       6989       7000       6999  
      6868       6869       6880       6879       6989       6990       7001       7000  
      6869       6870       6881       6880       6990       6991       7002       7001  
      6870       6871       6882       6881       6991       6992       7003       7002  
      6871       6872       6883       6882       6992       6993       7004       7003  
      6872       6873       6884       6883       6993       6994       7005       7004  
      6873       6874       6885       6884       6994       6995       7006       7005  
      6874       6875       6886       6885       6995       6996       7007       7006  
      6876       6877       6888       6887       6997       6998       7009       7008  
      6877       6878       6889       6888       6998       6999       7010       7009  
      6878       6879       6890       6889       6999       7000       7011       7010  
      6879       6880       6891       6890       7000       7001       7012       7011  
      6880       6881       6892       6891       7001       7002       7013       7012  
      6881       6882       6893       6892       7002       7003       7014       7013  
      6882       6883       6894       6893       7003       7004       7015       7014  
      6883       6884       6895       6894       7004       7005       7016       7015  
      6884       6885       6896       6895       7005       7006       7017       7016  
      6885       6886       6897       6896       7006       7007       7018       7017  
      6898       6899       6910       6909       7019       7020       7031       7030  
      6899       6900       6911       6910       7020       7021       7032       7031  
      6900       6901       6912       6911       7021       7022       7033       7032  
      6901       6902       6913       6912       7022       7023       7034       7033  
      6902       6903       6914       6913       7023       7024       7035       7034  
      6903       6904       6915       6914       7024       7025       7036       7035  
      6904       6905       6916       6915       7025       7026       7037       7036  
      6905       6906       6917       6916       7026       7027       7038       7037  
      6906       6907       6918       6917       7027       7028       7039       7038  
      6907       6908       6919       6918       7028       7029       7040       7039  
      6909       6910       6921       6920       7030       7031       7042       7041  
      6910       6911       6922       6921       7031       7032       7043       7042  
      6911       6912       6923       6922       7032       7033       7044       7043  
      6912       6913       6924       6923       7033       7034       7045       7044  
      6913       6914       6925       6924       7034       7035       7046       7045  
      6914       6915       6926       6925       7035       7036       7047       7046  
      6915       6916       6927       6926       7036       7037       7048       7047  
      6916       6917       6928       6927       7037       7038       7049       7048  
      6917       6918       6929       6928       7038       7039       7050       7049  
      6918       6919       6930       6929       7039       7040       7051       7050  
      6920       6921       6932       6931       7041       7042       7053       7052  
      6921       6922       6933       6932       7042       7043       7054       7053  
      6922       6923       6934       6933       7043       7044       7055       7054  
      6923       6924       6935       6934       7044       7045       7056       7055  
      6924       6925       6936       6935       7045       7046       7057       7056  
      6925       6926       6937       6936       7046       7047       7058       7057  
      6926       6927       6938       6937       7047       7048       7059       7058  
      6927       6928       6939       6938       7048       7049       7060       7059  
      6928       6929       6940       6939       7049       7050       7061       7060  
      6929       6930       6941       6940       7050       7051       7062       7061  
      6931       6932       6943       6942       7052       7053       7064       7063  
      6932       6933       6944       6943       7053       7054       7065       7064  
      6933       6934       6945       6944       7054       7055       7066       7065  
      6934       6935       6946       6945       7055       7056       7067       7066  
      6935       6936       6947       6946       7056       7057       7068       7067  
      6936       6937       6948       6947       7057       7058       7069       7068  
      6937       6938       6949       6948       7058       7059       7070       7069  
      6938       6939       6950       6949       7059       7060       7071       7070  
      6939       6940       6951       6950       7060       7061       7072       7071  
      6940       6941       6952       6951       7061       7062       7073       7072  
      6942       6943       6954       6953       7063       7064       7075       7074  
      6943       6944       6955       6954       7064       7065       7076       7075  
      6944       6945       6956       6955       7065       7066       7077       7076  
      6945       6946       6957       6956       7066       7067       7078       7077  
      6946       6947       6958       6957       7067       7068       7079       7078  
      6947       6948       6959       6958       7068       7069       7080       7079  
      6948       6949       6960       6959       7069       7070       7081       7080  
      6949       6950       6961       6960       7070       7071       7082       7081  
      6950       6951       6962       6961       7071       7072       7083       7082  
      6951       6952       6963       6962       7072       7073       7084       7083  
      6953       6954       6965       6964       7074       7075       7086       7085  
      6954       6955       6966       6965       7075       7076       7087       7086  
      6955       6956       6967       6966       7076       7077       7088       7087  
      6956       6957       6968       6967       7077       7078       7089       7088  
      6957       6958       6969       6968       7078       7079       7090       7089  
      6958       6959       6970       6969       7079       7080       7091       7090  
      6959       6960       6971       6970       7080       7081       7092       7091  
      6960       6961       6972       6971       7081       7082       7093       7092  
      6961       6962       6973       6972       7082       7083       7094       7093  
      6962       6963       6974       6973       7083       7084       7095       7094  
      6964       6965       6976       6975       7085       7086       7097       7096  
      6965       6966       6977       6976       7086       7087       7098       7097  
      6966       6967       6978       6977       7087       7088       7099       7098  
      6967       6968       6979       6978       7088       7089       7100       7099  
      6968       6969       6980       6979       7089       7090       7101       7100  
      6969       6970       6981       6980       7090       7091       7102       7101  
      6970       6971       6982       6981       7091       7092       7103       7102  
      6971       6972       6983       6982       7092       7093       7104       7103  
      6972       6973       6984       6983       7093       7094       7105       7104  
      6973       6974       6985       6984       7094       7095       7106       7105  
      6975       6976       6987       6986       7096       7097       7108       7107  
      6976       6977       6988       6987       7097       7098       7109       7108  
      6977       6978       6989       6988       7098       7099       7110       7109  
      6978       6979       6990       6989       7099       7100       7111       7110  
      6979       6980       6991       6990       7100       7101       7112       7111  
      6980       6981       6992       6991       7101       7102       7113       7112  
      6981       6982       6993       6992       7102       7103       7114       7113  
      6982       6983       6994       6993       7103       7104       7115       7114  
      6983       6984       6995       6994       7104       7105       7116       7115  
      6984       6985       6996       6995       7105       7106       7117       7116  
      6986       6987       6998       6997       7107       7108       7119       7118  
      6987       6988       6999       6998       7108       7109       7120       7119  
      6988       6989       7000       6999       7109       7110       7121       7120  
      6989       6990       7001       7000       7110       7111       7122       7121  
      6990       6991       7002       7001       7111       7112       7123       7122  
      6991       6992       7003       7002       7112       7113       7124       7123  
      6992       6993       7004       7003       7113       7114       7125       7124  
      6993       6994       7005       7004       7114       7115       7126       7125  
      6994       6995       7006       7005       7115       7116       7127       7126  
      6995       6996       7007       7006       7116       7117       7128       7127  
      6997       6998       7009       7008       7118       7119       7130       7129  
      6998       6999       7010       7009       7119       7120       7131       7130  
      6999       7000       7011       7010       7120       7121       7132       7131  
      7000       7001       7012       7011       7121       7122       7133       7132  
      7001       7002       7013       7012       7122       7123       7134       7133  
      7002       7003       7014       7013       7123       7124       7135       7134  
      7003       7004       7015       7014       7124       7125       7136       7135  
      7004       7005       7016       7015       7125       7126       7137       7136  
      7005       7006       7017       7016       7126       7127       7138       7137  
      7006       7007       7018       7017       7127       7128       7139       7138  
      7019       7020       7031       7030       7140       7141       7152       7151  
      7020       7021       7032       7031       7141       7142       7153       7152  
      7021       7022       7033       7032       7142       7143       7154       7153  
      7022       7023       7034       7033       7143       7144       7155       7154  
      7023       7024       7035       7034       7144       7145       7156       7155  
      7024       7025       7036       7035       7145       7146       7157       7156  
      7025       7026       7037       7036       7146       7147       7158       7157  
      7026       7027       7038       7037       7147       7148       7159       7158  
      7027       7028       7039       7038       7148       7149       7160       7159  
      7028       7029       7040       7039       7149       7150       7161       7160  
      7030       7031       7042       7041       7151       7152       7163       7162  
      7031       7032       7043       7042       7152       7153       7164       7163  
      7032       7033       7044       7043       7153       7154       7165       7164  
      7033       7034       7045       7044       7154       7155       7166       7165  
      7034       7035       7046       7045       7155       7156       7167       7166  
      7035       7036       7047       7046       7156       7157       7168       7167  
      7036       7037       7048       7047       7157       7158       7169       7168  
      7037       7038       7049       7048       7158       7159       7170       7169  
      7038       7039       7050       7049       7159       7160       7171       7170  
      7039       7040       7051       7050       7160       7161       7172       7171  
      7041       7042       7053       7052       7162       7163       7174       7173  
      7042       7043       7054       7053       7163       7164       7175       7174  
      7043       7044       7055       7054       7164       7165       7176       7175  
      7044       7045       7056       7055       7165       7166       7177       7176  
      7045       7046       7057       7056       7166       7167       7178       7177  
      7046       7047       7058       7057       7167       7168       7179       7178  
      7047       7048       7059       7058       7168       7169       7180       7179  
      7048       7049       7060       7059       7169       7170       7181       7180  
      7049       7050       7061       7060       7170       7171       7182       7181  
      7050       7051       7062       7061       7171       7172       7183       7182  
      7052       7053       7064       7063       7173       7174       7185       7184  
      7053       7054       7065       7064       7174       7175       7186       7185  
      7054       7055       7066       7065       7175       7176       7187       7186  
      7055       7056       7067       7066       7176       7177       7188       7187  
      7056       7057       7068       7067       7177       7178       7189       7188  
      7057       7058       7069       7068       7178       7179       7190       7189  
      7058       7059       7070       7069       7179       7180       7191       7190  
      7059       7060       7071       7070       7180       7181       7192       7191  
      7060       7061       7072       7071       7181       7182       7193       7192  
      7061       7062       7073       7072       7182       7183       7194       7193  
      7063       7064       7075       7074       7184       7185       7196       7195  
      7064       7065       7076       7075       7185       7186       7197       7196  
      7065       7066       7077       7076       7186       7187       7198       7197  
      7066       7067       7078       7077       7187       7188       7199       7198  
      7067       7068       7079       7078       7188       7189       7200       7199  
      7068       7069       7080       7079       7189       7190       7201       7200  
      7069       7070       7081       7080       7190       7191       7202       7201  
      7070       7071       7082       7081       7191       7192       7203       7202  
      7071       7072       7083       7082       7192       7193       7204       7203  
      7072       7073       7084       7083       7193       7194       7205       7204  
      7074       7075       7086       7085       7195       7196       7207       7206  
      7075       7076       7087       7086       7196       7197       7208       7207  
      7076       7077       7088       7087       7197       7198       7209       7208  
      7077       7078       7089       7088       7198       7199       7210       7209  
      7078       7079       7090       7089       7199       7200       7211       7210  
      7079       7080       7091       7090       7200       7201       7212       7211  
      7080       7081       7092       7091       7201       7202       7213       7212  
      7081       7082       7093       7092       7202       7203       7214       7213  
      7082       7083       7094       7093       7203       7204       7215       7214  
      7083       7084       7095       7094       7204       7205       7216       7215  
      7085       7086       7097       7096       7206       7207       7218       7217  
      7086       7087       7098       7097       7207       7208       7219       7218  
      7087       7088       7099       7098       7208       7209       7220       7219  
      7088       7089       7100       7099       7209       7210       7221       7220  
      7089       7090       7101       7100       7210       7211       7222       7221  
      7090       7091       7102       7101       7211       7212       7223       7222  
      7091       7092       7103       7102       7212       7213       7224       7223  
      7092       7093       7104       7103       7213       7214       7225       7224  
      7093       7094       7105       7104       7214       7215       7226       7225  
      7094       7095       7106       7105       7215       7216       7227       7226  
      7096       7097       7108       7107       7217       7218       7229       7228  
      7097       7098       7109       7108       7218       7219       7230       7229  
      7098       7099       7110       7109       7219       7220       7231       7230  
      7099       7100       7111       7110       7220       7221       7232       7231  
      7100       7101       7112       7111       7221       7222       7233       7232  
      7101       7102       7113       7112       7222       7223       7234       7233  
      7102       7103       7114       7113       7223       7224       7235       7234  
      7103       7104       7115       7114       7224       7225       7236       7235  
      7104       7105       7116       7115       7225       7226       7237       7236  
      7105       7106       7117       7116       7226       7227       7238       7237  
      7107       7108       7119       7118       7228       7229       7240       7239  
      7108       7109       7120       7119       7229       7230       7241       7240  
      7109       7110       7121       7120       7230       7231       7242       7241  
      7110       7111       7122       7121       7231       7232       7243       7242  
      7111       7112       7123       7122       7232       7233       7244       7243  
      7112       7113       7124       7123       7233       7234       7245       7244  
      7113       7114       7125       7124       7234       7235       7246       7245  
      7114       7115       7126       7125       7235       7236       7247       7246  
      7115       7116       7127       7126       7236       7237       7248       7247  
      7116       7117       7128       7127       7237       7238       7249       7248  
      7118       7119       7130       7129       7239       7240       7251       7250  
      7119       7120       7131       7130       7240       7241       7252       7251  
      7120       7121       7132       7131       7241       7242       7253       7252  
      7121       7122       7133       7132       7242       7243       7254       7253  
      7122       7123       7134       7133       7243       7244       7255       7254  
      7123       7124       7135       7134       7244       7245       7256       7255  
      7124       7125       7136       7135       7245       7246       7257       7256  
      7125       7126       7137       7136       7246       7247       7258       7257  
      7126       7127       7138       7137       7247       7248       7259       7258  
      7127       7128       7139       7138       7248       7249       7260       7259  
      7140       7141       7152       7151       7261       7262       7273       7272  
      7141       7142       7153       7152       7262       7263       7274       7273  
      7142       7143       7154       7153       7263       7264       7275       7274  
      7143       7144       7155       7154       7264       7265       7276       7275  
      7144       7145       7156       7155       7265       7266       7277       7276  
      7145       7146       7157       7156       7266       7267       7278       7277  
      7146       7147       7158       7157       7267       7268       7279       7278  
      7147       7148       7159       7158       7268       7269       7280       7279  
      7148       7149       7160       7159       7269       7270       7281       7280  
      7149       7150       7161       7160       7270       7271       7282       7281  
      7151       7152       7163       7162       7272       7273       7284       7283  
      7152       7153       7164       7163       7273       7274       7285       7284  
      7153       7154       7165       7164       7274       7275       7286       7285  
      7154       7155       7166       7165       7275       7276       7287       7286  
      7155       7156       7167       7166       7276       7277       7288       7287  
      7156       7157       7168       7167       7277       7278       7289       7288  
      7157       7158       7169       7168       7278       7279       7290       7289  
      7158       7159       7170       7169       7279       7280       7291       7290  
      7159       7160       7171       7170       7280       7281       7292       7291  
      7160       7161       7172       7171       7281       7282       7293       7292  
      7162       7163       7174       7173       7283       7284       7295       7294  
      7163       7164       7175       7174       7284       7285       7296       7295  
      7164       7165       7176       7175       7285       7286       7297       7296  
      7165       7166       7177       7176       7286       7287       7298       7297  
      7166       7167       7178       7177       7287       7288       7299       7298  
      7167       7168       7179       7178       7288       7289       7300       7299  
      7168       7169       7180       7179       7289       7290       7301       7300  
      7169       7170       7181       7180       7290       7291       7302       7301  
      7170       7171       7182       7181       7291       7292       7303       7302  
      7171       7172       7183       7182       7292       7293       7304       7303  
      7173       7174       7185       7184       7294       7295       7306       7305  
      7174       7175       7186       7185       7295       7296       7307       7306  
      7175       7176       7187       7186       7296       7297       7308       7307  
      7176       7177       7188       7187       7297       7298       7309       7308  
      7177       7178       7189       7188       7298       7299       7310       7309  
      7178       7179       7190       7189       7299       7300       7311       7310  
      7179       7180       7191       7190       7300       7301       7312       7311  
      7180       7181       7192       7191       7301       7302       7313       7312  
      7181       7182       7193       7192       7302       7303       7314       7313  
      7182       7183       7194       7193       7303       7304       7315       7314  
      7184       7185       7196       7195       7305       7306       7317       7316  
      7185       7186       7197       7196       7306       7307       7318       7317  
      7186       7187       7198       7197       7307       7308       7319       7318  
      7187       7188       7199       7198       7308       7309       7320       7319  
      7188       7189       7200       7199       7309       7310       7321       7320  
      7189       7190       7201       7200       7310       7311       7322       7321  
      7190       7191       7202       7201       7311       7312       7323       7322  
      7191       7192       7203       7202       7312       7313       7324       7323  
      7192       7193       7204       7203       7313       7314       7325       7324  
      7193       7194       7205       7204       7314       7315       7326       7325  
      7195       7196       7207       7206       7316       7317       7328       7327  
      7196       7197       7208       7207       7317       7318       7329       7328  
      7197       7198       7209       7208       7318       7319       7330       7329  
      7198       7199       7210       7209       7319       7320       7331       7330  
      7199       7200       7211       7210       7320       7321       7332       7331  
      7200       7201       7212       7211       7321       7322       7333       7332  
      7201       7202       7213       7212       7322       7323       7334       7333  
      7202       7203       7214       7213       7323       7324       7335       7334  
      7203       7204       7215       7214       7324       7325       7336       7335  
      7204       7205       7216       7215       7325       7326       7337       7336  
      7206       7207       7218       7217       7327       7328       7339       7338  
      7207       7208       7219       7218       7328       7329       7340       7339  
      7208       7209       7220       7219       7329       7330       7341       7340  
      7209       7210       7221       7220       7330       7331       7342       7341  
      7210       7211       7222       7221       7331       7332       7343       7342  
      7211       7212       7223       7222       7332       7333       7344       7343  
      7212       7213       7224       7223       7333       7334       7345       7344  
      7213       7214       7225       7224       7334       7335       7346       7345  
      7214       7215       7226       7225       7335       7336       7347       7346  
      7215       7216       7227       7226       7336       7337       7348       7347  
      7217       7218       7229       7228       7338       7339       7350       7349  
      7218       7219       7230       7229       7339       7340       7351       7350  
      7219       7220       7231       7230       7340       7341       7352       7351  
      7220       7221       7232       7231       7341       7342       7353       7352  
      7221       7222       7233       7232       7342       7343       7354       7353  
      7222       7223       7234       7233       7343       7344       7355       7354  
      7223       7224       7235       7234       7344       7345       7356       7355  
      7224       7225       7236       7235       7345       7346       7357       7356  
      7225       7226       7237       7236       7346       7347       7358       7357  
      7226       7227       7238       7237       7347       7348       7359       7358  
      7228       7229       7240       7239       7349       7350       7361       7360  
      7229       7230       7241       7240       7350       7351       7362       7361  
      7230       7231       7242       7241       7351       7352       7363       7362  
      7231       7232       7243       7242       7352       7353       7364       7363  
      7232       7233       7244       7243       7353       7354       7365       7364  
      7233       7234       7245       7244       7354       7355       7366       7365  
      7234       7235       7246       7245       7355       7356       7367       7366  
      7235       7236       7247       7246       7356       7357       7368       7367  
      7236       7237       7248       7247       7357       7358       7369       7368  
      7237       7238       7249       7248       7358       7359       7370       7369  
      7239       7240       7251       7250       7360       7361       7372       7371  
      7240       7241       7252       7251       7361       7362       7373       7372  
      7241       7242       7253       7252       7362       7363       7374       7373  
      7242       7243       7254       7253       7363       7364       7375       7374  
      7243       7244       7255       7254       7364       7365       7376       7375  
      7244       7245       7256       7255       7365       7366       7377       7376  
      7245       7246       7257       7256       7366       7367       7378       7377  
      7246       7247       7258       7257       7367       7368       7379       7378  
      7247       7248       7259       7258       7368       7369       7380       7379  
      7248       7249       7260       7259       7369       7370       7381       7380  
      7261       7262       7273       7272       7382       7383       7394       7393  
      7262       7263       7274       7273       7383       7384       7395       7394  
      7263       7264       7275       7274       7384       7385       7396       7395  
      7264       7265       7276       7275       7385       7386       7397       7396  
      7265       7266       7277       7276       7386       7387       7398       7397  
      7266       7267       7278       7277       7387       7388       7399       7398  
      7267       7268       7279       7278       7388       7389       7400       7399  
      7268       7269       7280       7279       7389       7390       7401       7400  
      7269       7270       7281       7280       7390       7391       7402       7401  
      7270       7271       7282       7281       7391       7392       7403       7402  
      7272       7273       7284       7283       7393       7394       7405       7404  
      7273       7274       7285       7284       7394       7395       7406       7405  
      7274       7275       7286       7285       7395       7396       7407       7406  
      7275       7276       7287       7286       7396       7397       7408       7407  
      7276       7277       7288       7287       7397       7398       7409       7408  
      7277       7278       7289       7288       7398       7399       7410       7409  
      7278       7279       7290       7289       7399       7400       7411       7410  
      7279       7280       7291       7290       7400       7401       7412       7411  
      7280       7281       7292       7291       7401       7402       7413       7412  
      7281       7282       7293       7292       7402       7403       7414       7413  
      7283       7284       7295       7294       7404       7405       7416       7415  
      7284       7285       7296       7295       7405       7406       7417       7416  
      7285       7286       7297       7296       7406       7407       7418       7417  
      7286       7287       7298       7297       7407       7408       7419       7418  
      7287       7288       7299       7298       7408       7409       7420       7419  
      7288       7289       7300       7299       7409       7410       7421       7420  
      7289       7290       7301       7300       7410       7411       7422       7421  
      7290       7291       7302       7301       7411       7412       7423       7422  
      7291       7292       7303       7302       7412       7413       7424       7423  
      7292       7293       7304       7303       7413       7414       7425       7424  
      7294       7295       7306       7305       7415       7416       7427       7426  
      7295       7296       7307       7306       7416       7417       7428       7427  
      7296       7297       7308       7307       7417       7418       7429       7428  
      7297       7298       7309       7308       7418       7419       7430       7429  
      7298       7299       7310       7309       7419       7420       7431       7430  
      7299       7300       7311       7310       7420       7421       7432       7431  
      7300       7301       7312       7311       7421       7422       7433       7432  
      7301       7302       7313       7312       7422       7423       7434       7433  
      7302       7303       7314       7313       7423       7424       7435       7434  
      7303       7304       7315       7314       7424       7425       7436       7435  
      7305       7306       7317       7316       7426       7427       7438       7437  
      7306       7307       7318       7317       7427       7428       7439       7438  
      7307       7308       7319       7318       7428       7429       7440       7439  
      7308       7309       7320       7319       7429       7430       7441       7440  
      7309       7310       7321       7320       7430       7431       7442       7441  
      7310       7311       7322       7321       7431       7432       7443       7442  
      7311       7312       7323       7322       7432       7433       7444       7443  
      7312       7313       7324       7323       7433       7434       7445       7444  
      7313       7314       7325       7324       7434       7435       7446       7445  
      7314       7315       7326       7325       7435       7436       7447       7446  
      7316       7317       7328       7327       7437       7438       7449       7448  
      7317       7318       7329       7328       7438       7439       7450       7449  
      7318       7319       7330       7329       7439       7440       7451       7450  
      7319       7320       7331       7330       7440       7441       7452       7451  
      7320       7321       7332       7331       7441       7442       7453       7452  
      7321       7322       7333       7332       7442       7443       7454       7453  
      7322       7323       7334       7333       7443       7444       7455       7454  
      7323       7324       7335       7334       7444       7445       7456       7455  
      7324       7325       7336       7335       7445       7446       7457       7456  
      7325       7326       7337       7336       7446       7447       7458       7457  
      7327       7328       7339       7338       7448       7449       7460       7459  
      7328       7329       7340       7339       7449       7450       7461       7460  
      7329       7330       7341       7340       7450       7451       7462       7461  
      7330       7331       7342       7341       7451       7452       7463       7462  
      7331       7332       7343       7342       7452       7453       7464       7463  
      7332       7333       7344       7343       7453       7454       7465       7464  
      7333       7334       7345       7344       7454       7455       7466       7465  
      7334       7335       7346       7345       7455       7456       7467       7466  
      7335       7336       7347       7346       7456       7457       7468       7467  
      7336       7337       7348       7347       7457       7458       7469       7468  
      7338       7339       7350       7349       7459       7460       7471       7470  
      7339       7340       7351       7350       7460       7461       7472       7471  
      7340       7341       7352       7351       7461       7462       7473       7472  
      7341       7342       7353       7352       7462       7463       7474       7473  
      7342       7343       7354       7353       7463       7464       7475       7474  
      7343       7344       7355       7354       7464       7465       7476       7475  
      7344       7345       7356       7355       7465       7466       7477       7476  
      7345       7346       7357       7356       7466       7467       7478       7477  
      7346       7347       7358       7357       7467       7468       7479       7478  
      7347       7348       7359       7358       7468       7469       7480       7479  
      7349       7350       7361       7360       7470       7471       7482       7481  
      7350       7351       7362       7361       7471       7472       7483       7482  
      7351       7352       7363       7362       7472       7473       7484       7483  
      7352       7353       7364       7363       7473       7474       7485       7484  
      7353       7354       7365       7364       7474       7475       7486       7485  
      7354       7355       7366       7365       7475       7476       7487       7486  
      7355       7356       7367       7366       7476       7477       7488       7487  
      7356       7357       7368       7367       7477       7478       7489       7488  
      7357       7358       7369       7368       7478       7479       7490       7489  
      7358       7359       7370       7369       7479       7480       7491       7490  
      7360       7361       7372       7371       7481       7482       7493       7492  
      7361       7362       7373       7372       7482       7483       7494       7493  
      7362       7363       7374       7373       7483       7484       7495       7494  
      7363       7364       7375       7374       7484       7485       7496       7495  
      7364       7365       7376       7375       7485       7486       7497       7496  
      7365       7366       7377       7376       7486       7487       7498       7497  
      7366       7367       7378       7377       7487       7488       7499       7498  
      7367       7368       7379       7378       7488       7489       7500       7499  
      7368       7369       7380       7379       7489       7490       7501       7500  
      7369       7370       7381       7380       7490       7491       7502       7501  
      7382       7383       7394       7393       7503       7504       7515       7514  
      7383       7384       7395       7394       7504       7505       7516       7515  
      7384       7385       7396       7395       7505       7506       7517       7516  
      7385       7386       7397       7396       7506       7507       7518       7517  
      7386       7387       7398       7397       7507       7508       7519       7518  
      7387       7388       7399       7398       7508       7509       7520       7519  
      7388       7389       7400       7399       7509       7510       7521       7520  
      7389       7390       7401       7400       7510       7511       7522       7521  
      7390       7391       7402       7401       7511       7512       7523       7522  
      7391       7392       7403       7402       7512       7513       7524       7523  
      7393       7394       7405       7404       7514       7515       7526       7525  
      7394       7395       7406       7405       7515       7516       7527       7526  
      7395       7396       7407       7406       7516       7517       7528       7527  
      7396       7397       7408       7407       7517       7518       7529       7528  
      7397       7398       7409       7408       7518       7519       7530       7529  
      7398       7399       7410       7409       7519       7520       7531       7530  
      7399       7400       7411       7410       7520       7521       7532       7531  
      7400       7401       7412       7411       7521       7522       7533       7532  
      7401       7402       7413       7412       7522       7523       7534       7533  
      7402       7403       7414       7413       7523       7524       7535       7534  
      7404       7405       7416       7415       7525       7526       7537       7536  
      7405       7406       7417       7416       7526       7527       7538       7537  
      7406       7407       7418       7417       7527       7528       7539       7538  
      7407       7408       7419       7418       7528       7529       7540       7539  
      7408       7409       7420       7419       7529       7530       7541       7540  
      7409       7410       7421       7420       7530       7531       7542       7541  
      7410       7411       7422       7421       7531       7532       7543       7542  
      7411       7412       7423       7422       7532       7533       7544       7543  
      7412       7413       7424       7423       7533       7534       7545       7544  
      7413       7414       7425       7424       7534       7535       7546       7545  
      7415       7416       7427       7426       7536       7537       7548       7547  
      7416       7417       7428       7427       7537       7538       7549       7548  
      7417       7418       7429       7428       7538       7539       7550       7549  
      7418       7419       7430       7429       7539       7540       7551       7550  
      7419       7420       7431       7430       7540       7541       7552       7551  
      7420       7421       7432       7431       7541       7542       7553       7552  
      7421       7422       7433       7432       7542       7543       7554       7553  
      7422       7423       7434       7433       7543       7544       7555       7554  
      7423       7424       7435       7434       7544       7545       7556       7555  
      7424       7425       7436       7435       7545       7546       7557       7556  
      7426       7427       7438       7437       7547       7548       7559       7558  
      7427       7428       7439       7438       7548       7549       7560       7559  
      7428       7429       7440       7439       7549       7550       7561       7560  
      7429       7430       7441       7440       7550       7551       7562       7561  
      7430       7431       7442       7441       7551       7552       7563       7562  
      7431       7432       7443       7442       7552       7553       7564       7563  
      7432       7433       7444       7443       7553       7554       7565       7564  
      7433       7434       7445       7444       7554       7555       7566       7565  
      7434       7435       7446       7445       7555       7556       7567       7566  
      7435       7436       7447       7446       7556       7557       7568       7567  
      7437       7438       7449       7448       7558       7559       7570       7569  
      7438       7439       7450       7449       7559       7560       7571       7570  
      7439       7440       7451       7450       7560       7561       7572       7571  
      7440       7441       7452       7451       7561       7562       7573       7572  
      7441       7442       7453       7452       7562       7563       7574       7573  
      7442       7443       7454       7453       7563       7564       7575       7574  
      7443       7444       7455       7454       7564       7565       7576       7575  
      7444       7445       7456       7455       7565       7566       7577       7576  
      7445       7446       7457       7456       7566       7567       7578       7577  
      7446       7447       7458       7457       7567       7568       7579       7578  
      7448       7449       7460       7459       7569       7570       7581       7580  
      7449       7450       7461       7460       7570       7571       7582       7581  
      7450       7451       7462       7461       7571       7572       7583       7582  
      7451       7452       7463       7462       7572       7573       7584       7583  
      7452       7453       7464       7463       7573       7574       7585       7584  
      7453       7454       7465       7464       7574       7575       7586       7585  
      7454       7455       7466       7465       7575       7576       7587       7586  
      7455       7456       7467       7466       7576       7577       7588       7587  
      7456       7457       7468       7467       7577       7578       7589       7588  
      7457       7458       7469       7468       7578       7579       7590       7589  
      7459       7460       7471       7470       7580       7581       7592       7591  
      7460       7461       7472       7471       7581       7582       7593       7592  
      7461       7462       7473       7472       7582       7583       7594       7593  
      7462       7463       7474       7473       7583       7584       7595       7594  
      7463       7464       7475       7474       7584       7585       7596       7595  
      7464       7465       7476       7475       7585       7586       7597       7596  
      7465       7466       7477       7476       7586       7587       7598       7597  
      7466       7467       7478       7477       7587       7588       7599       7598  
      7467       7468       7479       7478       7588       7589       7600       7599  
      7468       7469       7480       7479       7589       7590       7601       7600  
      7470       7471       7482       7481       7591       7592       7603       7602  
      7471       7472       7483       7482       7592       7593       7604       7603  
      7472       7473       7484       7483       7593       7594       7605       7604  
      7473       7474       7485       7484       7594       7595       7606       7605  
      7474       7475       7486       7485       7595       7596       7607       7606  
      7475       7476       7487       7486       7596       7597       7608       7607  
      7476       7477       7488       7487       7597       7598       7609       7608  
      7477       7478       7489       7488       7598       7599       7610       7609  
      7478       7479       7490       7489       7599       7600       7611       7610  
      7479       7480       7491       7490       7600       7601       7612       7611  
      7481       7482       7493       7492       7602       7603       7614       7613  
      7482       7483       7494       7493       7603       7604       7615       7614  
      7483       7484       7495       7494       7604       7605       7616       7615  
      7484       7485       7496       7495       7605       7606       7617       7616  
      7485       7486       7497       7496       7606       7607       7618       7617  
      7486       7487       7498       7497       7607       7608       7619       7618  
      7487       7488       7499       7498       7608       7609       7620       7619  
      7488       7489       7500       7499       7609       7610       7621       7620  
      7489       7490       7501       7500       7610       7611       7622       7621  
      7490       7491       7502       7501       7611       7612       7623       7622  
      7503       7504       7515       7514       7624       7625       7636       7635  
      7504       7505       7516       7515       7625       7626       7637       7636  
      7505       7506       7517       7516       7626       7627       7638       7637  
      7506       7507       7518       7517       7627       7628       7639       7638  
      7507       7508       7519       7518       7628       7629       7640       7639  
      7508       7509       7520       7519       7629       7630       7641       7640  
      7509       7510       7521       7520       7630       7631       7642       7641  
      7510       7511       7522       7521       7631       7632       7643       7642  
      7511       7512       7523       7522       7632       7633       7644       7643  
      7512       7513       7524       7523       7633       7634       7645       7644  
      7514       7515       7526       7525       7635       7636       7647       7646  
      7515       7516       7527       7526       7636       7637       7648       7647  
      7516       7517       7528       7527       7637       7638       7649       7648  
      7517       7518       7529       7528       7638       7639       7650       7649  
      7518       7519       7530       7529       7639       7640       7651       7650  
      7519       7520       7531       7530       7640       7641       7652       7651  
      7520       7521       7532       7531       7641       7642       7653       7652  
      7521       7522       7533       7532       7642       7643       7654       7653  
      7522       7523       7534       7533       7643       7644       7655       7654  
      7523       7524       7535       7534       7644       7645       7656       7655  
      7525       7526       7537       7536       7646       7647       7658       7657  
      7526       7527       7538       7537       7647       7648       7659       7658  
      7527       7528       7539       7538       7648       7649       7660       7659  
      7528       7529       7540       7539       7649       7650       7661       7660  
      7529       7530       7541       7540       7650       7651       7662       7661  
      7530       7531       7542       7541       7651       7652       7663       7662  
      7531       7532       7543       7542       7652       7653       7664       7663  
      7532       7533       7544       7543       7653       7654       7665       7664  
      7533       7534       7545       7544       7654       7655       7666       7665  
      7534       7535       7546       7545       7655       7656       7667       7666  
      7536       7537       7548       7547       7657       7658       7669       7668  
      7537       7538       7549       7548       7658       7659       7670       7669  
      7538       7539       7550       7549       7659       7660       7671       7670  
      7539       7540       7551       7550       7660       7661       7672       7671  
      7540       7541       7552       7551       7661       7662       7673       7672  
      7541       7542       7553       7552       7662       7663       7674       7673  
      7542       7543       7554       7553       7663       7664       7675       7674  
      7543       7544       7555       7554       7664       7665       7676       7675  
      7544       7545       7556       7555       7665       7666       7677       7676  
      7545       7546       7557       7556       7666       7667       7678       7677  
      7547       7548       7559       7558       7668       7669       7680       7679  
      7548       7549       7560       7559       7669       7670       7681       7680  
      7549       7550       7561       7560       7670       7671       7682       7681  
      7550       7551       7562       7561       7671       7672       7683       7682  
      7551       7552       7563       7562       7672       7673       7684       7683  
      7552       7553       7564       7563       7673       7674       7685       7684  
      7553       7554       7565       7564       7674       7675       7686       7685  
      7554       7555       7566       7565       7675       7676       7687       7686  
      7555       7556       7567       7566       7676       7677       7688       7687  
      7556       7557       7568       7567       7677       7678       7689       7688  
      7558       7559       7570       7569       7679       7680       7691       7690  
      7559       7560       7571       7570       7680       7681       7692       7691  
      7560       7561       7572       7571       7681       7682       7693       7692  
      7561       7562       7573       7572       7682       7683       7694       7693  
      7562       7563       7574       7573       7683       7684       7695       7694  
      7563       7564       7575       7574       7684       7685       7696       7695  
      7564       7565       7576       7575       7685       7686       7697       7696  
      7565       7566       7577       7576       7686       7687       7698       7697  
      7566       7567       7578       7577       7687       7688       7699       7698  
      7567       7568       7579       7578       7688       7689       7700       7699  
      7569       7570       7581       7580       7690       7691       7702       7701  
      7570       7571       7582       7581       7691       7692       7703       7702  
      7571       7572       7583       7582       7692       7693       7704       7703  
      7572       7573       7584       7583       7693       7694       7705       7704  
      7573       7574       7585       7584       7694       7695       7706       7705  
      7574       7575       7586       7585       7695       7696       7707       7706  
      7575       7576       7587       7586       7696       7697       7708       7707  
      7576       7577       7588       7587       7697       7698       7709       7708  
      7577       7578       7589       7588       7698       7699       7710       7709  
      7578       7579       7590       7589       7699       7700       7711       7710  
      7580       7581       7592       7591       7701       7702       7713       7712  
      7581       7582       7593       7592       7702       7703       7714       7713  
      7582       7583       7594       7593       7703       7704       7715       7714  
      7583       7584       7595       7594       7704       7705       7716       7715  
      7584       7585       7596       7595       7705       7706       7717       7716  
      7585       7586       7597       7596       7706       7707       7718       7717  
      7586       7587       7598       7597       7707       7708       7719       7718  
      7587       7588       7599       7598       7708       7709       7720       7719  
      7588       7589       7600       7599       7709       7710       7721       7720  
      7589       7590       7601       7600       7710       7711       7722       7721  
      7591       7592       7603       7602       7712       7713       7724       7723  
      7592       7593       7604       7603       7713       7714       7725       7724  
      7593       7594       7605       7604       7714       7715       7726       7725  
      7594       7595       7606       7605       7715       7716       7727       7726  
      7595       7596       7607       7606       7716       7717       7728       7727  
      7596       7597       7608       7607       7717       7718       7729       7728  
      7597       7598       7609       7608       7718       7719       7730       7729  
      7598       7599       7610       7609       7719       7720       7731       7730  
      7599       7600       7611       7610       7720       7721       7732       7731  
      7600       7601       7612       7611       7721       7722       7733       7732  
      7602       7603       7614       7613       7723       7724       7735       7734  
      7603       7604       7615       7614       7724       7725       7736       7735  
      7604       7605       7616       7615       7725       7726       7737       7736  
      7605       7606       7617       7616       7726       7727       7738       7737  
      7606       7607       7618       7617       7727       7728       7739       7738  
      7607       7608       7619       7618       7728       7729       7740       7739  
      7608       7609       7620       7619       7729       7730       7741       7740  
      7609       7610       7621       7620       7730       7731       7742       7741  
      7610       7611       7622       7621       7731       7732       7743       7742  
      7611       7612       7623       7622       7732       7733       7744       7743  
      7624       7625       7636       7635       7745       7746       7757       7756  
      7625       7626       7637       7636       7746       7747       7758       7757  
      7626       7627       7638       7637       7747       7748       7759       7758  
      7627       7628       7639       7638       7748       7749       7760       7759  
      7628       7629       7640       7639       7749       7750       7761       7760  
      7629       7630       7641       7640       7750       7751       7762       7761  
      7630       7631       7642       7641       7751       7752       7763       7762  
      7631       7632       7643       7642       7752       7753       7764       7763  
      7632       7633       7644       7643       7753       7754       7765       7764  
      7633       7634       7645       7644       7754       7755       7766       7765  
      7635       7636       7647       7646       7756       7757       7768       7767  
      7636       7637       7648       7647       7757       7758       7769       7768  
      7637       7638       7649       7648       7758       7759       7770       7769  
      7638       7639       7650       7649       7759       7760       7771       7770  
      7639       7640       7651       7650       7760       7761       7772       7771  
      7640       7641       7652       7651       7761       7762       7773       7772  
      7641       7642       7653       7652       7762       7763       7774       7773  
      7642       7643       7654       7653       7763       7764       7775       7774  
      7643       7644       7655       7654       7764       7765       7776       7775  
      7644       7645       7656       7655       7765       7766       7777       7776  
      7646       7647       7658       7657       7767       7768       7779       7778  
      7647       7648       7659       7658       7768       7769       7780       7779  
      7648       7649       7660       7659       7769       7770       7781       7780  
      7649       7650       7661       7660       7770       7771       7782       7781  
      7650       7651       7662       7661       7771       7772       7783       7782  
      7651       7652       7663       7662       7772       7773       7784       7783  
      7652       7653       7664       7663       7773       7774       7785       7784  
      7653       7654       7665       7664       7774       7775       7786       7785  
      7654       7655       7666       7665       7775       7776       7787       7786  
      7655       7656       7667       7666       7776       7777       7788       7787  
      7657       7658       7669       7668       7778       7779       7790       7789  
      7658       7659       7670       7669       7779       7780       7791       7790  
      7659       7660       7671       7670       7780       7781       7792       7791  
      7660       7661       7672       7671       7781       7782       7793       7792  
      7661       7662       7673       7672       7782       7783       7794       7793  
      7662       7663       7674       7673       7783       7784       7795       7794  
      7663       7664       7675       7674       7784       7785       7796       7795  
      7664       7665       7676       7675       7785       7786       7797       7796  
      7665       7666       7677       7676       7786       7787       7798       7797  
      7666       7667       7678       7677       7787       7788       7799       7798  
      7668       7669       7680       7679       7789       7790       7801       7800  
      7669       7670       7681       7680       7790       7791       7802       7801  
      7670       7671       7682       7681       7791       7792       7803       7802  
      7671       7672       7683       7682       7792       7793       7804       7803  
      7672       7673       7684       7683       7793       7794       7805       7804  
      7673       7674       7685       7684       7794       7795       7806       7805  
      7674       7675       7686       7685       7795       7796       7807       7806  
      7675       7676       7687       7686       7796       7797       7808       7807  
      7676       7677       7688       7687       7797       7798       7809       7808  
      7677       7678       7689       7688       7798       7799       7810       7809  
      7679       7680       7691       7690       7800       7801       7812       7811  
      7680       7681       7692       7691       7801       7802       7813       7812  
      7681       7682       7693       7692       7802       7803       7814       7813  
      7682       7683       7694       7693       7803       7804       7815       7814  
      7683       7684       7695       7694       7804       7805       7816       7815  
      7684       7685       7696       7695       7805       7806       7817       7816  
      7685       7686       7697       7696       7806       7807       7818       7817  
      7686       7687       7698       7697       7807       7808       7819       7818  
      7687       7688       7699       7698       7808       7809       7820       7819  
      7688       7689       7700       7699       7809       7810       7821       7820  
      7690       7691       7702       7701       7811       7812       7823       7822  
      7691       7692       7703       7702       7812       7813       7824       7823  
      7692       7693       7704       7703       7813       7814       7825       7824  
      7693       7694       7705       7704       7814       7815       7826       7825  
      7694       7695       7706       7705       7815       7816       7827       7826  
      7695       7696       7707       7706       7816       7817       7828       7827  
      7696       7697       7708       7707       7817       7818       7829       7828  
      7697       7698       7709       7708       7818       7819       7830       7829  
      7698       7699       7710       7709       7819       7820       7831       7830  
      7699       7700       7711       7710       7820       7821       7832       7831  
      7701       7702       7713       7712       7822       7823       7834       7833  
      7702       7703       7714       7713       7823       7824       7835       7834  
      7703       7704       7715       7714       7824       7825       7836       7835  
      7704       7705       7716       7715       7825       7826       7837       7836  
      7705       7706       7717       7716       7826       7827       7838       7837  
      7706       7707       7718       7717       7827       7828       7839       7838  
      7707       7708       7719       7718       7828       7829       7840       7839  
      7708       7709       7720       7719       7829       7830       7841       7840  
      7709       7710       7721       7720       7830       7831       7842       7841  
      7710       7711       7722       7721       7831       7832       7843       7842  
      7712       7713       7724       7723       7833       7834       7845       7844  
      7713       7714       7725       7724       7834       7835       7846       7845  
      7714       7715       7726       7725       7835       7836       7847       7846  
      7715       7716       7727       7726       7836       7837       7848       7847  
      7716       7717       7728       7727       7837       7838       7849       7848  
      7717       7718       7729       7728       7838       7839       7850       7849  
      7718       7719       7730       7729       7839       7840       7851       7850  
      7719       7720       7731       7730       7840       7841       7852       7851  
      7720       7721       7732       7731       7841       7842       7853       7852  
      7721       7722       7733       7732       7842       7843       7854       7853  
      7723       7724       7735       7734       7844       7845       7856       7855  
      7724       7725       7736       7735       7845       7846       7857       7856  
      7725       7726       7737       7736       7846       7847       7858       7857  
      7726       7727       7738       7737       7847       7848       7859       7858  
      7727       7728       7739       7738       7848       7849       7860       7859  
      7728       7729       7740       7739       7849       7850       7861       7860  
      7729       7730       7741       7740       7850       7851       7862       7861  
      7730       7731       7742       7741       7851       7852       7863       7862  
      7731       7732       7743       7742       7852       7853       7864       7863  
      7732       7733       7744       7743       7853       7854       7865       7864  
      7745       7746       7757       7756       7866       7867       7878       7877  
      7746       7747       7758       7757       7867       7868       7879       7878  
      7747       7748       7759       7758       7868       7869       7880       7879  
      7748       7749       7760       7759       7869       7870       7881       7880  
      7749       7750       7761       7760       7870       7871       7882       7881  
      7750       7751       7762       7761       7871       7872       7883       7882  
      7751       7752       7763       7762       7872       7873       7884       7883  
      7752       7753       7764       7763       7873       7874       7885       7884  
      7753       7754       7765       7764       7874       7875       7886       7885  
      7754       7755       7766       7765       7875       7876       7887       7886  
      7756       7757       7768       7767       7877       7878       7889       7888  
      7757       7758       7769       7768       7878       7879       7890       7889  
      7758       7759       7770       7769       7879       7880       7891       7890  
      7759       7760       7771       7770       7880       7881       7892       7891  
      7760       7761       7772       7771       7881       7882       7893       7892  
      7761       7762       7773       7772       7882       7883       7894       7893  
      7762       7763       7774       7773       7883       7884       7895       7894  
      7763       7764       7775       7774       7884       7885       7896       7895  
      7764       7765       7776       7775       7885       7886       7897       7896  
      7765       7766       7777       7776       7886       7887       7898       7897  
      7767       7768       7779       7778       7888       7889       7900       7899  
      7768       7769       7780       7779       7889       7890       7901       7900  
      7769       7770       7781       7780       7890       7891       7902       7901  
      7770       7771       7782       7781       7891       7892       7903       7902  
      7771       7772       7783       7782       7892       7893       7904       7903  
      7772       7773       7784       7783       7893       7894       7905       7904  
      7773       7774       7785       7784       7894       7895       7906       7905  
      7774       7775       7786       7785       7895       7896       7907       7906  
      7775       7776       7787       7786       7896       7897       7908       7907  
      7776       7777       7788       7787       7897       7898       7909       7908  
      7778       7779       7790       7789       7899       7900       7911       7910  
      7779       7780       7791       7790       7900       7901       7912       7911  
      7780       7781       7792       7791       7901       7902       7913       7912  
      7781       7782       7793       7792       7902       7903       7914       7913  
      7782       7783       7794       7793       7903       7904       7915       7914  
      7783       7784       7795       7794       7904       7905       7916       7915  
      7784       7785       7796       7795       7905       7906       7917       7916  
      7785       7786       7797       7796       7906       7907       7918       7917  
      7786       7787       7798       7797       7907       7908       7919       7918  
      7787       7788       7799       7798       7908       7909       7920       7919  
      7789       7790       7801       7800       7910       7911       7922       7921  
      7790       7791       7802       7801       7911       7912       7923       7922  
      7791       7792       7803       7802       7912       7913       7924       7923  
      7792       7793       7804       7803       7913       7914       7925       7924  
      7793       7794       7805       7804       7914       7915       7926       7925  
      7794       7795       7806       7805       7915       7916       7927       7926  
      7795       7796       7807       7806       7916       7917       7928       7927  
      7796       7797       7808       7807       7917       7918       7929       7928  
      7797       7798       7809       7808       7918       7919       7930       7929  
      7798       7799       7810       7809       7919       7920       7931       7930  
      7800       7801       7812       7811       7921       7922       7933       7932  
      7801       7802       7813       7812       7922       7923       7934       7933  
      7802       7803       7814       7813       7923       7924       7935       7934  
      7803       7804       7815       7814       7924       7925       7936       7935  
      7804       7805       7816       7815       7925       7926       7937       7936  
      7805       7806       7817       7816       7926       7927       7938       7937  
      7806       7807       7818       7817       7927       7928       7939       7938  
      7807       7808       7819       7818       7928       7929       7940       7939  
      7808       7809       7820       7819       7929       7930       7941       7940  
      7809       7810       7821       7820       7930       7931       7942       7941  
      7811       7812       7823       7822       7932       7933       7944       7943  
      7812       7813       7824       7823       7933       7934       7945       7944  
      7813       7814       7825       7824       7934       7935       7946       7945  
      7814       7815       7826       7825       7935       7936       7947       7946  
      7815       7816       7827       7826       7936       7937       7948       7947  
      7816       7817       7828       7827       7937       7938       7949       7948  
      7817       7818       7829       7828       7938       7939       7950       7949  
      7818       7819       7830       7829       7939       7940       7951       7950  
      7819       7820       7831       7830       7940       7941       7952       7951  
      7820       7821       7832       7831       7941       7942       7953       7952  
      7822       7823       7834       7833       7943       7944       7955       7954  
      7823       7824       7835       7834       7944       7945       7956       7955  
      7824       7825       7836       7835       7945       7946       7957       7956  
      7825       7826       7837       7836       7946       7947       7958       7957  
      7826       7827       7838       7837       7947       7948       7959       7958  
      7827       7828       7839       7838       7948       7949       7960       7959  
      7828       7829       7840       7839       7949       7950       7961       7960  
      7829       7830       7841       7840       7950       7951       7962       7961  
      7830       7831       7842       7841       7951       7952       7963       7962  
      7831       7832       7843       7842       7952       7953       7964       7963  
      7833       7834       7845       7844       7954       7955       7966       7965  
      7834       7835       7846       7845       7955       7956       7967       7966  
      7835       7836       7847       7846       7956       7957       7968       7967  
      7836       7837       7848       7847       7957       7958       7969       7968  
      7837       7838       7849       7848       7958       7959       7970       7969  
      7838       7839       7850       7849       7959       7960       7971       7970  
      7839       7840       7851       7850       7960       7961       7972       7971  
      7840       7841       7852       7851       7961       7962       7973       7972  
      7841       7842       7853       7852       7962       7963       7974       7973  
      7842       7843       7854       7853       7963       7964       7975       7974  
      7844       7845       7856       7855       7965       7966       7977       7976  
      7845       7846       7857       7856       7966       7967       7978       7977  
      7846       7847       7858       7857       7967       7968       7979       7978  
      7847       7848       7859       7858       7968       7969       7980       7979  
      7848       7849       7860       7859       7969       7970       7981       7980  
      7849       7850       7861       7860       7970       7971       7982       7981  
      7850       7851       7862       7861       7971       7972       7983       7982  
      7851       7852       7863       7862       7972       7973       7984       7983  
      7852       7853       7864       7863       7973       7974       7985       7984  
      7853       7854       7865       7864       7974       7975       7986       7985  
      7866       7867       7878       7877       7987       7988       7999       7998  
      7867       7868       7879       7878       7988       7989       8000       7999  
      7868       7869       7880       7879       7989       7990       8001       8000  
      7869       7870       7881       7880       7990       7991       8002       8001  
      7870       7871       7882       7881       7991       7992       8003       8002  
      7871       7872       7883       7882       7992       7993       8004       8003  
      7872       7873       7884       7883       7993       7994       8005       8004  
      7873       7874       7885       7884       7994       7995       8006       8005  
      7874       7875       7886       7885       7995       7996       8007       8006  
      7875       7876       7887       7886       7996       7997       8008       8007  
      7877       7878       7889       7888       7998       7999       8010       8009  
      7878       7879       7890       7889       7999       8000       8011       8010  
      7879       7880       7891       7890       8000       8001       8012       8011  
      7880       7881       7892       7891       8001       8002       8013       8012  
      7881       7882       7893       7892       8002       8003       8014       8013  
      7882       7883       7894       7893       8003       8004       8015       8014  
      7883       7884       7895       7894       8004       8005       8016       8015  
      7884       7885       7896       7895       8005       8006       8017       8016  
      7885       7886       7897       7896       8006       8007       8018       8017  
      7886       7887       7898       7897       8007       8008       8019       8018  
      7888       7889       7900       7899       8009       8010       8021       8020  
      7889       7890       7901       7900       8010       8011       8022       8021  
      7890       7891       7902       7901       8011       8012       8023       8022  
      7891       7892       7903       7902       8012       8013       8024       8023  
      7892       7893       7904       7903       8013       8014       8025       8024  
      7893       7894       7905       7904       8014       8015       8026       8025  
      7894       7895       7906       7905       8015       8016       8027       8026  
      7895       7896       7907       7906       8016       8017       8028       8027  
      7896       7897       7908       7907       8017       8018       8029       8028  
      7897       7898       7909       7908       8018       8019       8030       8029  
      7899       7900       7911       7910       8020       8021       8032       8031  
      7900       7901       7912       7911       8021       8022       8033       8032  
      7901       7902       7913       7912       8022       8023       8034       8033  
      7902       7903       7914       7913       8023       8024       8035       8034  
      7903       7904       7915       7914       8024       8025       8036       8035  
      7904       7905       7916       7915       8025       8026       8037       8036  
      7905       7906       7917       7916       8026       8027       8038       8037  
      7906       7907       7918       7917       8027       8028       8039       8038  
      7907       7908       7919       7918       8028       8029       8040       8039  
      7908       7909       7920       7919       8029       8030       8041       8040  
      7910       7911       7922       7921       8031       8032       8043       8042  
      7911       7912       7923       7922       8032       8033       8044       8043  
      7912       7913       7924       7923       8033       8034       8045       8044  
      7913       7914       7925       7924       8034       8035       8046       8045  
      7914       7915       7926       7925       8035       8036       8047       8046  
      7915       7916       7927       7926       8036       8037       8048       8047  
      7916       7917       7928       7927       8037       8038       8049       8048  
      7917       7918       7929       7928       8038       8039       8050       8049  
      7918       7919       7930       7929       8039       8040       8051       8050  
      7919       7920       7931       7930       8040       8041       8052       8051  
      7921       7922       7933       7932       8042       8043       8054       8053  
      7922       7923       7934       7933       8043       8044       8055       8054  
      7923       7924       7935       7934       8044       8045       8056       8055  
      7924       7925       7936       7935       8045       8046       8057       8056  
      7925       7926       7937       7936       8046       8047       8058       8057  
      7926       7927       7938       7937       8047       8048       8059       8058  
      7927       7928       7939       7938       8048       8049       8060       8059  
      7928       7929       7940       7939       8049       8050       8061       8060  
      7929       7930       7941       7940       8050       8051       8062       8061  
      7930       7931       7942       7941       8051       8052       8063       8062  
      7932       7933       7944       7943       8053       8054       8065       8064  
      7933       7934       7945       7944       8054       8055       8066       8065  
      7934       7935       7946       7945       8055       8056       8067       8066  
      7935       7936       7947       7946       8056       8057       8068       8067  
      7936       7937       7948       7947       8057       8058       8069       8068  
      7937       7938       7949       7948       8058       8059       8070       8069  
      7938       7939       7950       7949       8059       8060       8071       8070  
      7939       7940       7951       7950       8060       8061       8072       8071  
      7940       7941       7952       7951       8061       8062       8073       8072  
      7941       7942       7953       7952       8062       8063       8074       8073  
      7943       7944       7955       7954       8064       8065       8076       8075  
      7944       7945       7956       7955       8065       8066       8077       8076  
      7945       7946       7957       7956       8066       8067       8078       8077  
      7946       7947       7958       7957       8067       8068       8079       8078  
      7947       7948       7959       7958       8068       8069       8080       8079  
      7948       7949       7960       7959       8069       8070       8081       8080  
      7949       7950       7961       7960       8070       8071       8082       8081  
      7950       7951       7962       7961       8071       8072       8083       8082  
      7951       7952       7963       7962       8072       8073       8084       8083  
      7952       7953       7964       7963       8073       8074       8085       8084  
      7954       7955       7966       7965       8075       8076       8087       8086  
      7955       7956       7967       7966       8076       8077       8088       8087  
      7956       7957       7968       7967       8077       8078       8089       8088  
      7957       7958       7969       7968       8078       8079       8090       8089  
      7958       7959       7970       7969       8079       8080       8091       8090  
      7959       7960       7971       7970       8080       8081       8092       8091  
      7960       7961       7972       7971       8081       8082       8093       8092  
      7961       7962       7973       7972       8082       8083       8094       8093  
      7962       7963       7974       7973       8083       8084       8095       8094  
      7963       7964       7975       7974       8084       8085       8096       8095  
      7965       7966       7977       7976       8086       8087       8098       8097  
      7966       7967       7978       7977       8087       8088       8099       8098  
      7967       7968       7979       7978       8088       8089       8100       8099  
      7968       7969       7980       7979       8089       8090       8101       8100  
      7969       7970       7981       7980       8090       8091       8102       8101  
      7970       7971       7982       7981       8091       8092       8103       8102  
      7971       7972       7983       7982       8092       8093       8104       8103  
      7972       7973       7984       7983       8093       8094       8105       8104  
      7973       7974       7985       7984       8094       8095       8106       8105  
      7974       7975       7986       7985       8095       8096       8107       8106  
      7987       7988       7999       7998       8108       8109       8120       8119  
      7988       7989       8000       7999       8109       8110       8121       8120  
      7989       7990       8001       8000       8110       8111       8122       8121  
      7990       7991       8002       8001       8111       8112       8123       8122  
      7991       7992       8003       8002       8112       8113       8124       8123  
      7992       7993       8004       8003       8113       8114       8125       8124  
      7993       7994       8005       8004       8114       8115       8126       8125  
      7994       7995       8006       8005       8115       8116       8127       8126  
      7995       7996       8007       8006       8116       8117       8128       8127  
      7996       7997       8008       8007       8117       8118       8129       8128  
      7998       7999       8010       8009       8119       8120       8131       8130  
      7999       8000       8011       8010       8120       8121       8132       8131  
      8000       8001       8012       8011       8121       8122       8133       8132  
      8001       8002       8013       8012       8122       8123       8134       8133  
      8002       8003       8014       8013       8123       8124       8135       8134  
      8003       8004       8015       8014       8124       8125       8136       8135  
      8004       8005       8016       8015       8125       8126       8137       8136  
      8005       8006       8017       8016       8126       8127       8138       8137  
      8006       8007       8018       8017       8127       8128       8139       8138  
      8007       8008       8019       8018       8128       8129       8140       8139  
      8009       8010       8021       8020       8130       8131       8142       8141  
      8010       8011       8022       8021       8131       8132       8143       8142  
      8011       8012       8023       8022       8132       8133       8144       8143  
      8012       8013       8024       8023       8133       8134       8145       8144  
      8013       8014       8025       8024       8134       8135       8146       8145  
      8014       8015       8026       8025       8135       8136       8147       8146  
      8015       8016       8027       8026       8136       8137       8148       8147  
      8016       8017       8028       8027       8137       8138       8149       8148  
      8017       8018       8029       8028       8138       8139       8150       8149  
      8018       8019       8030       8029       8139       8140       8151       8150  
      8020       8021       8032       8031       8141       8142       8153       8152  
      8021       8022       8033       8032       8142       8143       8154       8153  
      8022       8023       8034       8033       8143       8144       8155       8154  
      8023       8024       8035       8034       8144       8145       8156       8155  
      8024       8025       8036       8035       8145       8146       8157       8156  
      8025       8026       8037       8036       8146       8147       8158       8157  
      8026       8027       8038       8037       8147       8148       8159       8158  
      8027       8028       8039       8038       8148       8149       8160       8159  
      8028       8029       8040       8039       8149       8150       8161       8160  
      8029       8030       8041       8040       8150       8151       8162       8161  
      8031       8032       8043       8042       8152       8153       8164       8163  
      8032       8033       8044       8043       8153       8154       8165       8164  
      8033       8034       8045       8044       8154       8155       8166       8165  
      8034       8035       8046       8045       8155       8156       8167       8166  
      8035       8036       8047       8046       8156       8157       8168       8167  
      8036       8037       8048       8047       8157       8158       8169       8168  
      8037       8038       8049       8048       8158       8159       8170       8169  
      8038       8039       8050       8049       8159       8160       8171       8170  
      8039       8040       8051       8050       8160       8161       8172       8171  
      8040       8041       8052       8051       8161       8162       8173       8172  
      8042       8043       8054       8053       8163       8164       8175       8174  
      8043       8044       8055       8054       8164       8165       8176       8175  
      8044       8045       8056       8055       8165       8166       8177       8176  
      8045       8046       8057       8056       8166       8167       8178       8177  
      8046       8047       8058       8057       8167       8168       8179       8178  
      8047       8048       8059       8058       8168       8169       8180       8179  
      8048       8049       8060       8059       8169       8170       8181       8180  
      8049       8050       8061       8060       8170       8171       8182       8181  
      8050       8051       8062       8061       8171       8172       8183       8182  
      8051       8052       8063       8062       8172       8173       8184       8183  
      8053       8054       8065       8064       8174       8175       8186       8185  
      8054       8055       8066       8065       8175       8176       8187       8186  
      8055       8056       8067       8066       8176       8177       8188       8187  
      8056       8057       8068       8067       8177       8178       8189       8188  
      8057       8058       8069       8068       8178       8179       8190       8189  
      8058       8059       8070       8069       8179       8180       8191       8190  
      8059       8060       8071       8070       8180       8181       8192       8191  
      8060       8061       8072       8071       8181       8182       8193       8192  
      8061       8062       8073       8072       8182       8183       8194       8193  
      8062       8063       8074       8073       8183       8184       8195       8194  
      8064       8065       8076       8075       8185       8186       8197       8196  
      8065       8066       8077       8076       8186       8187       8198       8197  
      8066       8067       8078       8077       8187       8188       8199       8198  
      8067       8068       8079       8078       8188       8189       8200       8199  
      8068       8069       8080       8079       8189       8190       8201       8200  
      8069       8070       8081       8080       8190       8191       8202       8201  
      8070       8071       8082       8081       8191       8192       8203       8202  
      8071       8072       8083       8082       8192       8193       8204       8203  
      8072       8073       8084       8083       8193       8194       8205       8204  
      8073       8074       8085       8084       8194       8195       8206       8205  
      8075       8076       8087       8086       8196       8197       8208       8207  
      8076       8077       8088       8087       8197       8198       8209       8208  
      8077       8078       8089       8088       8198       8199       8210       8209  
      8078       8079       8090       8089       8199       8200       8211       8210  
      8079       8080       8091       8090       8200       8201       8212       8211  
      8080       8081       8092       8091       8201       8202       8213       8212  
      8081       8082       8093       8092       8202       8203       8214       8213  
      8082       8083       8094       8093       8203       8204       8215       8214  
      8083       8084       8095       8094       8204       8205       8216       8215  
      8084       8085       8096       8095       8205       8206       8217       8216  
      8086       8087       8098       8097       8207       8208       8219       8218  
      8087       8088       8099       8098       8208       8209       8220       8219  
      8088       8089       8100       8099       8209       8210       8221       8220  
      8089       8090       8101       8100       8210       8211       8222       8221  
      8090       8091       8102       8101       8211       8212       8223       8222  
      8091       8092       8103       8102       8212       8213       8224       8223  
      8092       8093       8104       8103       8213       8214       8225       8224  
      8093       8094       8105       8104       8214       8215       8226       8225  
      8094       8095       8106       8105       8215       8216       8227       8226  
      8095       8096       8107       8106       8216       8217       8228       8227  
      8108       8109       8120       8119       8229       8230       8241       8240  
      8109       8110       8121       8120       8230       8231       8242       8241  
      8110       8111       8122       8121       8231       8232       8243       8242  
      8111       8112       8123       8122       8232       8233       8244       8243  
      8112       8113       8124       8123       8233       8234       8245       8244  
      8113       8114       8125       8124       8234       8235       8246       8245  
      8114       8115       8126       8125       8235       8236       8247       8246  
      8115       8116       8127       8126       8236       8237       8248       8247  
      8116       8117       8128       8127       8237       8238       8249       8248  
      8117       8118       8129       8128       8238       8239       8250       8249  
      8119       8120       8131       8130       8240       8241       8252       8251  
      8120       8121       8132       8131       8241       8242       8253       8252  
      8121       8122       8133       8132       8242       8243       8254       8253  
      8122       8123       8134       8133       8243       8244       8255       8254  
      8123       8124       8135       8134       8244       8245       8256       8255  
      8124       8125       8136       8135       8245       8246       8257       8256  
      8125       8126       8137       8136       8246       8247       8258       8257  
      8126       8127       8138       8137       8247       8248       8259       8258  
      8127       8128       8139       8138       8248       8249       8260       8259  
      8128       8129       8140       8139       8249       8250       8261       8260  
      8130       8131       8142       8141       8251       8252       8263       8262  
      8131       8132       8143       8142       8252       8253       8264       8263  
      8132       8133       8144       8143       8253       8254       8265       8264  
      8133       8134       8145       8144       8254       8255       8266       8265  
      8134       8135       8146       8145       8255       8256       8267       8266  
      8135       8136       8147       8146       8256       8257       8268       8267  
      8136       8137       8148       8147       8257       8258       8269       8268  
      8137       8138       8149       8148       8258       8259       8270       8269  
      8138       8139       8150       8149       8259       8260       8271       8270  
      8139       8140       8151       8150       8260       8261       8272       8271  
      8141       8142       8153       8152       8262       8263       8274       8273  
      8142       8143       8154       8153       8263       8264       8275       8274  
      8143       8144       8155       8154       8264       8265       8276       8275  
      8144       8145       8156       8155       8265       8266       8277       8276  
      8145       8146       8157       8156       8266       8267       8278       8277  
      8146       8147       8158       8157       8267       8268       8279       8278  
      8147       8148       8159       8158       8268       8269       8280       8279  
      8148       8149       8160       8159       8269       8270       8281       8280  
      8149       8150       8161       8160       8270       8271       8282       8281  
      8150       8151       8162       8161       8271       8272       8283       8282  
      8152       8153       8164       8163       8273       8274       8285       8284  
      8153       8154       8165       8164       8274       8275       8286       8285  
      8154       8155       8166       8165       8275       8276       8287       8286  
      8155       8156       8167       8166       8276       8277       8288       8287  
      8156       8157       8168       8167       8277       8278       8289       8288  
      8157       8158       8169       8168       8278       8279       8290       8289  
      8158       8159       8170       8169       8279       8280       8291       8290  
      8159       8160       8171       8170       8280       8281       8292       8291  
      8160       8161       8172       8171       8281       8282       8293       8292  
      8161       8162       8173       8172       8282       8283       8294       8293  
      8163       8164       8175       8174       8284       8285       8296       8295  
      8164       8165       8176       8175       8285       8286       8297       8296  
      8165       8166       8177       8176       8286       8287       8298       8297  
      8166       8167       8178       8177       8287       8288       8299       8298  
      8167       8168       8179       8178       8288       8289       8300       8299  
      8168       8169       8180       8179       8289       8290       8301       8300  
      8169       8170       8181       8180       8290       8291       8302       8301  
      8170       8171       8182       8181       8291       8292       8303       8302  
      8171       8172       8183       8182       8292       8293       8304       8303  
      8172       8173       8184       8183       8293       8294       8305       8304  
      8174       8175       8186       8185       8295       8296       8307       8306  
      8175       8176       8187       8186       8296       8297       8308       8307  
      8176       8177       8188       8187       8297       8298       8309       8308  
      8177       8178       8189       8188       8298       8299       8310       8309  
      8178       8179       8190       8189       8299       8300       8311       8310  
      8179       8180       8191       8190       8300       8301       8312       8311  
      8180       8181       8192       8191       8301       8302       8313       8312  
      8181       8182       8193       8192       8302       8303       8314       8313  
      8182       8183       8194       8193       8303       8304       8315       8314  
      8183       8184       8195       8194       8304       8305       8316       8315  
      8185       8186       8197       8196       8306       8307       8318       8317  
      8186       8187       8198       8197       8307       8308       8319       8318  
      8187       8188       8199       8198       8308       8309       8320       8319  
      8188       8189       8200       8199       8309       8310       8321       8320  
      8189       8190       8201       8200       8310       8311       8322       8321  
      8190       8191       8202       8201       8311       8312       8323       8322  
      8191       8192       8203       8202       8312       8313       8324       8323  
      8192       8193       8204       8203       8313       8314       8325       8324  
      8193       8194       8205       8204       8314       8315       8326       8325  
      8194       8195       8206       8205       8315       8316       8327       8326  
      8196       8197       8208       8207       8317       8318       8329       8328  
      8197       8198       8209       8208       8318       8319       8330       8329  
      8198       8199       8210       8209       8319       8320       8331       8330  
      8199       8200       8211       8210       8320       8321       8332       8331  
      8200       8201       8212       8211       8321       8322       8333       8332  
      8201       8202       8213       8212       8322       8323       8334       8333  
      8202       8203       8214       8213       8323       8324       8335       8334  
      8203       8204       8215       8214       8324       8325       8336       8335  
      8204       8205       8216       8215       8325       8326       8337       8336  
      8205       8206       8217       8216       8326       8327       8338       8337  
      8207       8208       8219       8218       8328       8329       8340       8339  
      8208       8209       8220       8219       8329       8330       8341       8340  
      8209       8210       8221       8220       8330       8331       8342       8341  
      8210       8211       8222       8221       8331       8332       8343       8342  
      8211       8212       8223       8222       8332       8333       8344       8343  
      8212       8213       8224       8223       8333       8334       8345       8344  
      8213       8214       8225       8224       8334       8335       8346       8345  
      8214       8215       8226       8225       8335       8336       8347       8346  
      8215       8216       8227       8226       8336       8337       8348       8347  
      8216       8217       8228       8227       8337       8338       8349       8348  
      8229       8230       8241       8240       8350       8351       8362       8361  
      8230       8231       8242       8241       8351       8352       8363       8362  
      8231       8232       8243       8242       8352       8353       8364       8363  
      8232       8233       8244       8243       8353       8354       8365       8364  
      8233       8234       8245       8244       8354       8355       8366       8365  
      8234       8235       8246       8245       8355       8356       8367       8366  
      8235       8236       8247       8246       8356       8357       8368       8367  
      8236       8237       8248       8247       8357       8358       8369       8368  
      8237       8238       8249       8248       8358       8359       8370       8369  
      8238       8239       8250       8249       8359       8360       8371       8370  
      8240       8241       8252       8251       8361       8362       8373       8372  
      8241       8242       8253       8252       8362       8363       8374       8373  
      8242       8243       8254       8253       8363       8364       8375       8374  
      8243       8244       8255       8254       8364       8365       8376       8375  
      8244       8245       8256       8255       8365       8366       8377       8376  
      8245       8246       8257       8256       8366       8367       8378       8377  
      8246       8247       8258       8257       8367       8368       8379       8378  
      8247       8248       8259       8258       8368       8369       8380       8379  
      8248       8249       8260       8259       8369       8370       8381       8380  
      8249       8250       8261       8260       8370       8371       8382       8381  
      8251       8252       8263       8262       8372       8373       8384       8383  
      8252       8253       8264       8263       8373       8374       8385       8384  
      8253       8254       8265       8264       8374       8375       8386       8385  
      8254       8255       8266       8265       8375       8376       8387       8386  
      8255       8256       8267       8266       8376       8377       8388       8387  
      8256       8257       8268       8267       8377       8378       8389       8388  
      8257       8258       8269       8268       8378       8379       8390       8389  
      8258       8259       8270       8269       8379       8380       8391       8390  
      8259       8260       8271       8270       8380       8381       8392       8391  
      8260       8261       8272       8271       8381       8382       8393       8392  
      8262       8263       8274       8273       8383       8384       8395       8394  
      8263       8264       8275       8274       8384       8385       8396       8395  
      8264       8265       8276       8275       8385       8386       8397       8396  
      8265       8266       8277       8276       8386       8387       8398       8397  
      8266       8267       8278       8277       8387       8388       8399       8398  
      8267       8268       8279       8278       8388       8389       8400       8399  
      8268       8269       8280       8279       8389       8390       8401       8400  
      8269       8270       8281       8280       8390       8391       8402       8401  
      8270       8271       8282       8281       8391       8392       8403       8402  
      8271       8272       8283       8282       8392       8393       8404       8403  
      8273       8274       8285       8284       8394       8395       8406       8405  
      8274       8275       8286       8285       8395       8396       8407       8406  
      8275       8276       8287       8286       8396       8397       8408       8407  
      8276       8277       8288       8287       8397       8398       8409       8408  
      8277       8278       8289       8288       8398       8399       8410       8409  
      8278       8279       8290       8289       8399       8400       8411       8410  
      8279       8280       8291       8290       8400       8401       8412       8411  
      8280       8281       8292       8291       8401       8402       8413       8412  
      8281       8282       8293       8292       8402       8403       8414       8413  
      8282       8283       8294       8293       8403       8404       8415       8414  
      8284       8285       8296       8295       8405       8406       8417       8416  
      8285       8286       8297       8296       8406       8407       8418       8417  
      8286       8287       8298       8297       8407       8408       8419       8418  
      8287       8288       8299       8298       8408       8409       8420       8419  
      8288       8289       8300       8299       8409       8410       8421       8420  
      8289       8290       8301       8300       8410       8411       8422       8421  
      8290       8291       8302       8301       8411       8412       8423       8422  
      8291       8292       8303       8302       8412       8413       8424       8423  
      8292       8293       8304       8303       8413       8414       8425       8424  
      8293       8294       8305       8304       8414       8415       8426       8425  
      8295       8296       8307       8306       8416       8417       8428       8427  
      8296       8297       8308       8307       8417       8418       8429       8428  
      8297       8298       8309       8308       8418       8419       8430       8429  
      8298       8299       8310       8309       8419       8420       8431       8430  
      8299       8300       8311       8310       8420       8421       8432       8431  
      8300       8301       8312       8311       8421       8422       8433       8432  
      8301       8302       8313       8312       8422       8423       8434       8433  
      8302       8303       8314       8313       8423       8424       8435       8434  
      8303       8304       8315       8314       8424       8425       8436       8435  
      8304       8305       8316       8315       8425       8426       8437       8436  
      8306       8307       8318       8317       8427       8428       8439       8438  
      8307       8308       8319       8318       8428       8429       8440       8439  
      8308       8309       8320       8319       8429       8430       8441       8440  
      8309       8310       8321       8320       8430       8431       8442       8441  
      8310       8311       8322       8321       8431       8432       8443       8442  
      8311       8312       8323       8322       8432       8433       8444       8443  
      8312       8313       8324       8323       8433       8434       8445       8444  
      8313       8314       8325       8324       8434       8435       8446       8445  
      8314       8315       8326       8325       8435       8436       8447       8446  
      8315       8316       8327       8326       8436       8437       8448       8447  
      8317       8318       8329       8328       8438       8439       8450       8449  
      8318       8319       8330       8329       8439       8440       8451       8450  
      8319       8320       8331       8330       8440       8441       8452       8451  
      8320       8321       8332       8331       8441       8442       8453       8452  
      8321       8322       8333       8332       8442       8443       8454       8453  
      8322       8323       8334       8333       8443       8444       8455       8454  
      8323       8324       8335       8334       8444       8445       8456       8455  
      8324       8325       8336       8335       8445       8446       8457       8456  
      8325       8326       8337       8336       8446       8447       8458       8457  
      8326       8327       8338       8337       8447       8448       8459       8458  
      8328       8329       8340       8339       8449       8450       8461       8460  
      8329       8330       8341       8340       8450       8451       8462       8461  
      8330       8331       8342       8341       8451       8452       8463       8462  
      8331       8332       8343       8342       8452       8453       8464       8463  
      8332       8333       8344       8343       8453       8454       8465       8464  
      8333       8334       8345       8344       8454       8455       8466       8465  
      8334       8335       8346       8345       8455       8456       8467       8466  
      8335       8336       8347       8346       8456       8457       8468       8467  
      8336       8337       8348       8347       8457       8458       8469       8468  
      8337       8338       8349       8348       8458       8459       8470       8469  
      8350       8351       8362       8361       8471       8472       8483       8482  
      8351       8352       8363       8362       8472       8473       8484       8483  
      8352       8353       8364       8363       8473       8474       8485       8484  
      8353       8354       8365       8364       8474       8475       8486       8485  
      8354       8355       8366       8365       8475       8476       8487       8486  
      8355       8356       8367       8366       8476       8477       8488       8487  
      8356       8357       8368       8367       8477       8478       8489       8488  
      8357       8358       8369       8368       8478       8479       8490       8489  
      8358       8359       8370       8369       8479       8480       8491       8490  
      8359       8360       8371       8370       8480       8481       8492       8491  
      8361       8362       8373       8372       8482       8483       8494       8493  
      8362       8363       8374       8373       8483       8484       8495       8494  
      8363       8364       8375       8374       8484       8485       8496       8495  
      8364       8365       8376       8375       8485       8486       8497       8496  
      8365       8366       8377       8376       8486       8487       8498       8497  
      8366       8367       8378       8377       8487       8488       8499       8498  
      8367       8368       8379       8378       8488       8489       8500       8499  
      8368       8369       8380       8379       8489       8490       8501       8500  
      8369       8370       8381       8380       8490       8491       8502       8501  
      8370       8371       8382       8381       8491       8492       8503       8502  
      8372       8373       8384       8383       8493       8494       8505       8504  
      8373       8374       8385       8384       8494       8495       8506       8505  
      8374       8375       8386       8385       8495       8496       8507       8506  
      8375       8376       8387       8386       8496       8497       8508       8507  
      8376       8377       8388       8387       8497       8498       8509       8508  
      8377       8378       8389       8388       8498       8499       8510       8509  
      8378       8379       8390       8389       8499       8500       8511       8510  
      8379       8380       8391       8390       8500       8501       8512       8511  
      8380       8381       8392       8391       8501       8502       8513       8512  
      8381       8382       8393       8392       8502       8503       8514       8513  
      8383       8384       8395       8394       8504       8505       8516       8515  
      8384       8385       8396       8395       8505       8506       8517       8516  
      8385       8386       8397       8396       8506       8507       8518       8517  
      8386       8387       8398       8397       8507       8508       8519       8518  
      8387       8388       8399       8398       8508       8509       8520       8519  
      8388       8389       8400       8399       8509       8510       8521       8520  
      8389       8390       8401       8400       8510       8511       8522       8521  
      8390       8391       8402       8401       8511       8512       8523       8522  
      8391       8392       8403       8402       8512       8513       8524       8523  
      8392       8393       8404       8403       8513       8514       8525       8524  
      8394       8395       8406       8405       8515       8516       8527       8526  
      8395       8396       8407       8406       8516       8517       8528       8527  
      8396       8397       8408       8407       8517       8518       8529       8528  
      8397       8398       8409       8408       8518       8519       8530       8529  
      8398       8399       8410       8409       8519       8520       8531       8530  
      8399       8400       8411       8410       8520       8521       8532       8531  
      8400       8401       8412       8411       8521       8522       8533       8532  
      8401       8402       8413       8412       8522       8523       8534       8533  
      8402       8403       8414       8413       8523       8524       8535       8534  
      8403       8404       8415       8414       8524       8525       8536       8535  
      8405       8406       8417       8416       8526       8527       8538       8537  
      8406       8407       8418       8417       8527       8528       8539       8538  
      8407       8408       8419       8418       8528       8529       8540       8539  
      8408       8409       8420       8419       8529       8530       8541       8540  
      8409       8410       8421       8420       8530       8531       8542       8541  
      8410       8411       8422       8421       8531       8532       8543       8542  
      8411       8412       8423       8422       8532       8533       8544       8543  
      8412       8413       8424       8423       8533       8534       8545       8544  
      8413       8414       8425       8424       8534       8535       8546       8545  
      8414       8415       8426       8425       8535       8536       8547       8546  
      8416       8417       8428       8427       8537       8538       8549       8548  
      8417       8418       8429       8428       8538       8539       8550       8549  
      8418       8419       8430       8429       8539       8540       8551       8550  
      8419       8420       8431       8430       8540       8541       8552       8551  
      8420       8421       8432       8431       8541       8542       8553       8552  
      8421       8422       8433       8432       8542       8543       8554       8553  
      8422       8423       8434       8433       8543       8544       8555       8554  
      8423       8424       8435       8434       8544       8545       8556       8555  
      8424       8425       8436       8435       8545       8546       8557       8556  
      8425       8426       8437       8436       8546       8547       8558       8557  
      8427       8428       8439       8438       8548       8549       8560       8559  
      8428       8429       8440       8439       8549       8550       8561       8560  
      8429       8430       8441       8440       8550       8551       8562       8561  
      8430       8431       8442       8441       8551       8552       8563       8562  
      8431       8432       8443       8442       8552       8553       8564       8563  
      8432       8433       8444       8443       8553       8554       8565       8564  
      8433       8434       8445       8444       8554       8555       8566       8565  
      8434       8435       8446       8445       8555       8556       8567       8566  
      8435       8436       8447       8446       8556       8557       8568       8567  
      8436       8437       8448       8447       8557       8558       8569       8568  
      8438       8439       8450       8449       8559       8560       8571       8570  
      8439       8440       8451       8450       8560       8561       8572       8571  
      8440       8441       8452       8451       8561       8562       8573       8572  
      8441       8442       8453       8452       8562       8563       8574       8573  
      8442       8443       8454       8453       8563       8564       8575       8574  
      8443       8444       8455       8454       8564       8565       8576       8575  
      8444       8445       8456       8455       8565       8566       8577       8576  
      8445       8446       8457       8456       8566       8567       8578       8577  
      8446       8447       8458       8457       8567       8568       8579       8578  
      8447       8448       8459       8458       8568       8569       8580       8579  
      8449       8450       8461       8460       8570       8571       8582       8581  
      8450       8451       8462       8461       8571       8572       8583       8582  
      8451       8452       8463       8462       8572       8573       8584       8583  
      8452       8453       8464       8463       8573       8574       8585       8584  
      8453       8454       8465       8464       8574       8575       8586       8585  
      8454       8455       8466       8465       8575       8576       8587       8586  
      8455       8456       8467       8466       8576       8577       8588       8587  
      8456       8457       8468       8467       8577       8578       8589       8588  
      8457       8458       8469       8468       8578       8579       8590       8589  
      8458       8459       8470       8469       8579       8580       8591       8590  
      8471       8472       8483       8482       8592       8593       8604       8603  
      8472       8473       8484       8483       8593       8594       8605       8604  
      8473       8474       8485       8484       8594       8595       8606       8605  
      8474       8475       8486       8485       8595       8596       8607       8606  
      8475       8476       8487       8486       8596       8597       8608       8607  
      8476       8477       8488       8487       8597       8598       8609       8608  
      8477       8478       8489       8488       8598       8599       8610       8609  
      8478       8479       8490       8489       8599       8600       8611       8610  
      8479       8480       8491       8490       8600       8601       8612       8611  
      8480       8481       8492       8491       8601       8602       8613       8612  
      8482       8483       8494       8493       8603       8604       8615       8614  
      8483       8484       8495       8494       8604       8605       8616       8615  
      8484       8485       8496       8495       8605       8606       8617       8616  
      8485       8486       8497       8496       8606       8607       8618       8617  
      8486       8487       8498       8497       8607       8608       8619       8618  
      8487       8488       8499       8498       8608       8609       8620       8619  
      8488       8489       8500       8499       8609       8610       8621       8620  
      8489       8490       8501       8500       8610       8611       8622       8621  
      8490       8491       8502       8501       8611       8612       8623       8622  
      8491       8492       8503       8502       8612       8613       8624       8623  
      8493       8494       8505       8504       8614       8615       8626       8625  
      8494       8495       8506       8505       8615       8616       8627       8626  
      8495       8496       8507       8506       8616       8617       8628       8627  
      8496       8497       8508       8507       8617       8618       8629       8628  
      8497       8498       8509       8508       8618       8619       8630       8629  
      8498       8499       8510       8509       8619       8620       8631       8630  
      8499       8500       8511       8510       8620       8621       8632       8631  
      8500       8501       8512       8511       8621       8622       8633       8632  
      8501       8502       8513       8512       8622       8623       8634       8633  
      8502       8503       8514       8513       8623       8624       8635       8634  
      8504       8505       8516       8515       8625       8626       8637       8636  
      8505       8506       8517       8516       8626       8627       8638       8637  
      8506       8507       8518       8517       8627       8628       8639       8638  
      8507       8508       8519       8518       8628       8629       8640       8639  
      8508       8509       8520       8519       8629       8630       8641       8640  
      8509       8510       8521       8520       8630       8631       8642       8641  
      8510       8511       8522       8521       8631       8632       8643       8642  
      8511       8512       8523       8522       8632       8633       8644       8643  
      8512       8513       8524       8523       8633       8634       8645       8644  
      8513       8514       8525       8524       8634       8635       8646       8645  
      8515       8516       8527       8526       8636       8637       8648       8647  
      8516       8517       8528       8527       8637       8638       8649       8648  
      8517       8518       8529       8528       8638       8639       8650       8649  
      8518       8519       8530       8529       8639       8640       8651       8650  
      8519       8520       8531       8530       8640       8641       8652       8651  
      8520       8521       8532       8531       8641       8642       8653       8652  
      8521       8522       8533       8532       8642       8643       8654       8653  
      8522       8523       8534       8533       8643       8644       8655       8654  
      8523       8524       8535       8534       8644       8645       8656       8655  
      8524       8525       8536       8535       8645       8646       8657       8656  
      8526       8527       8538       8537       8647       8648       8659       8658  
      8527       8528       8539       8538       8648       8649       8660       8659  
      8528       8529       8540       8539       8649       8650       8661       8660  
      8529       8530       8541       8540       8650       8651       8662       8661  
      8530       8531       8542       8541       8651       8652       8663       8662  
      8531       8532       8543       8542       8652       8653       8664       8663  
      8532       8533       8544       8543       8653       8654       8665       8664  
      8533       8534       8545       8544       8654       8655       8666       8665  
      8534       8535       8546       8545       8655       8656       8667       8666  
      8535       8536       8547       8546       8656       8657       8668       8667  
      8537       8538       8549       8548       8658       8659       8670       8669  
      8538       8539       8550       8549       8659       8660       8671       8670  
      8539       8540       8551       8550       8660       8661       8672       8671  
      8540       8541       8552       8551       8661       8662       8673       8672  
      8541       8542       8553       8552       8662       8663       8674       8673  
      8542       8543       8554       8553       8663       8664       8675       8674  
      8543       8544       8555       8554       8664       8665       8676       8675  
      8544       8545       8556       8555       8665       8666       8677       8676  
      8545       8546       8557       8556       8666       8667       8678       8677  
      8546       8547       8558       8557       8667       8668       8679       8678  
      8548       8549       8560       8559       8669       8670       8681       8680  
      8549       8550       8561       8560       8670       8671       8682       8681  
      8550       8551       8562       8561       8671       8672       8683       8682  
      8551       8552       8563       8562       8672       8673       8684       8683  
      8552       8553       8564       8563       8673       8674       8685       8684  
      8553       8554       8565       8564       8674       8675       8686       8685  
      8554       8555       8566       8565       8675       8676       8687       8686  
      8555       8556       8567       8566       8676       8677       8688       8687  
      8556       8557       8568       8567       8677       8678       8689       8688  
      8557       8558       8569       8568       8678       8679       8690       8689  
      8559       8560       8571       8570       8680       8681       8692       8691  
      8560       8561       8572       8571       8681       8682       8693       8692  
      8561       8562       8573       8572       8682       8683       8694       8693  
      8562       8563       8574       8573       8683       8684       8695       8694  
      8563       8564       8575       8574       8684       8685       8696       8695  
      8564       8565       8576       8575       8685       8686       8697       8696  
      8565       8566       8577       8576       8686       8687       8698       8697  
      8566       8567       8578       8577       8687       8688       8699       8698  
      8567       8568       8579       8578       8688       8689       8700       8699  
      8568       8569       8580       8579       8689       8690       8701       8700  
      8570       8571       8582       8581       8691       8692       8703       8702  
      8571       8572       8583       8582       8692       8693       8704       8703  
      8572       8573       8584       8583       8693       8694       8705       8704  
      8573       8574       8585       8584       8694       8695       8706       8705  
      8574       8575       8586       8585       8695       8696       8707       8706  
      8575       8576       8587       8586       8696       8697       8708       8707  
      8576       8577       8588       8587       8697       8698       8709       8708  
      8577       8578       8589       8588       8698       8699       8710       8709  
      8578       8579       8590       8589       8699       8700       8711       8710  
      8579       8580       8591       8590       8700       8701       8712       8711  
      8592       8593       8604       8603       8713       8714       8725       8724  
      8593       8594       8605       8604       8714       8715       8726       8725  
      8594       8595       8606       8605       8715       8716       8727       8726  
      8595       8596       8607       8606       8716       8717       8728       8727  
      8596       8597       8608       8607       8717       8718       8729       8728  
      8597       8598       8609       8608       8718       8719       8730       8729  
      8598       8599       8610       8609       8719       8720       8731       8730  
      8599       8600       8611       8610       8720       8721       8732       8731  
      8600       8601       8612       8611       8721       8722       8733       8732  
      8601       8602       8613       8612       8722       8723       8734       8733  
      8603       8604       8615       8614       8724       8725       8736       8735  
      8604       8605       8616       8615       8725       8726       8737       8736  
      8605       8606       8617       8616       8726       8727       8738       8737  
      8606       8607       8618       8617       8727       8728       8739       8738  
      8607       8608       8619       8618       8728       8729       8740       8739  
      8608       8609       8620       8619       8729       8730       8741       8740  
      8609       8610       8621       8620       8730       8731       8742       8741  
      8610       8611       8622       8621       8731       8732       8743       8742  
      8611       8612       8623       8622       8732       8733       8744       8743  
      8612       8613       8624       8623       8733       8734       8745       8744  
      8614       8615       8626       8625       8735       8736       8747       8746  
      8615       8616       8627       8626       8736       8737       8748       8747  
      8616       8617       8628       8627       8737       8738       8749       8748  
      8617       8618       8629       8628       8738       8739       8750       8749  
      8618       8619       8630       8629       8739       8740       8751       8750  
      8619       8620       8631       8630       8740       8741       8752       8751  
      8620       8621       8632       8631       8741       8742       8753       8752  
      8621       8622       8633       8632       8742       8743       8754       8753  
      8622       8623       8634       8633       8743       8744       8755       8754  
      8623       8624       8635       8634       8744       8745       8756       8755  
      8625       8626       8637       8636       8746       8747       8758       8757  
      8626       8627       8638       8637       8747       8748       8759       8758  
      8627       8628       8639       8638       8748       8749       8760       8759  
      8628       8629       8640       8639       8749       8750       8761       8760  
      8629       8630       8641       8640       8750       8751       8762       8761  
      8630       8631       8642       8641       8751       8752       8763       8762  
      8631       8632       8643       8642       8752       8753       8764       8763  
      8632       8633       8644       8643       8753       8754       8765       8764  
      8633       8634       8645       8644       8754       8755       8766       8765  
      8634       8635       8646       8645       8755       8756       8767       8766  
      8636       8637       8648       8647       8757       8758       8769       8768  
      8637       8638       8649       8648       8758       8759       8770       8769  
      8638       8639       8650       8649       8759       8760       8771       8770  
      8639       8640       8651       8650       8760       8761       8772       8771  
      8640       8641       8652       8651       8761       8762       8773       8772  
      8641       8642       8653       8652       8762       8763       8774       8773  
      8642       8643       8654       8653       8763       8764       8775       8774  
      8643       8644       8655       8654       8764       8765       8776       8775  
      8644       8645       8656       8655       8765       8766       8777       8776  
      8645       8646       8657       8656       8766       8767       8778       8777  
      8647       8648       8659       8658       8768       8769       8780       8779  
      8648       8649       8660       8659       8769       8770       8781       8780  
      8649       8650       8661       8660       8770       8771       8782       8781  
      8650       8651       8662       8661       8771       8772       8783       8782  
      8651       8652       8663       8662       8772       8773       8784       8783  
      8652       8653       8664       8663       8773       8774       8785       8784  
      8653       8654       8665       8664       8774       8775       8786       8785  
      8654       8655       8666       8665       8775       8776       8787       8786  
      8655       8656       8667       8666       8776       8777       8788       8787  
      8656       8657       8668       8667       8777       8778       8789       8788  
      8658       8659       8670       8669       8779       8780       8791       8790  
      8659       8660       8671       8670       8780       8781       8792       8791  
      8660       8661       8672       8671       8781       8782       8793       8792  
      8661       8662       8673       8672       8782       8783       8794       8793  
      8662       8663       8674       8673       8783       8784       8795       8794  
      8663       8664       8675       8674       8784       8785       8796       8795  
      8664       8665       8676       8675       8785       8786       8797       8796  
      8665       8666       8677       8676       8786       8787       8798       8797  
      8666       8667       8678       8677       8787       8788       8799       8798  
      8667       8668       8679       8678       8788       8789       8800       8799  
      8669       8670       8681       8680       8790       8791       8802       8801  
      8670       8671       8682       8681       8791       8792       8803       8802  
      8671       8672       8683       8682       8792       8793       8804       8803  
      8672       8673       8684       8683       8793       8794       8805       8804  
      8673       8674       8685       8684       8794       8795       8806       8805  
      8674       8675       8686       8685       8795       8796       8807       8806  
      8675       8676       8687       8686       8796       8797       8808       8807  
      8676       8677       8688       8687       8797       8798       8809       8808  
      8677       8678       8689       8688       8798       8799       8810       8809  
      8678       8679       8690       8689       8799       8800       8811       8810  
      8680       8681       8692       8691       8801       8802       8813       8812  
      8681       8682       8693       8692       8802       8803       8814       8813  
      8682       8683       8694       8693       8803       8804       8815       8814  
      8683       8684       8695       8694       8804       8805       8816       8815  
      8684       8685       8696       8695       8805       8806       8817       8816  
      8685       8686       8697       8696       8806       8807       8818       8817  
      8686       8687       8698       8697       8807       8808       8819       8818  
      8687       8688       8699       8698       8808       8809       8820       8819  
      8688       8689       8700       8699       8809       8810       8821       8820  
      8689       8690       8701       8700       8810       8811       8822       8821  
      8691       8692       8703       8702       8812       8813       8824       8823  
      8692       8693       8704       8703       8813       8814       8825       8824  
      8693       8694       8705       8704       8814       8815       8826       8825  
      8694       8695       8706       8705       8815       8816       8827       8826  
      8695       8696       8707       8706       8816       8817       8828       8827  
      8696       8697       8708       8707       8817       8818       8829       8828  
      8697       8698       8709       8708       8818       8819       8830       8829  
      8698       8699       8710       8709       8819       8820       8831       8830  
      8699       8700       8711       8710       8820       8821       8832       8831  
      8700       8701       8712       8711       8821       8822       8833       8832  
      8713       8714       8725       8724       8834       8835       8846       8845  
      8714       8715       8726       8725       8835       8836       8847       8846  
      8715       8716       8727       8726       8836       8837       8848       8847  
      8716       8717       8728       8727       8837       8838       8849       8848  
      8717       8718       8729       8728       8838       8839       8850       8849  
      8718       8719       8730       8729       8839       8840       8851       8850  
      8719       8720       8731       8730       8840       8841       8852       8851  
      8720       8721       8732       8731       8841       8842       8853       8852  
      8721       8722       8733       8732       8842       8843       8854       8853  
      8722       8723       8734       8733       8843       8844       8855       8854  
      8724       8725       8736       8735       8845       8846       8857       8856  
      8725       8726       8737       8736       8846       8847       8858       8857  
      8726       8727       8738       8737       8847       8848       8859       8858  
      8727       8728       8739       8738       8848       8849       8860       8859  
      8728       8729       8740       8739       8849       8850       8861       8860  
      8729       8730       8741       8740       8850       8851       8862       8861  
      8730       8731       8742       8741       8851       8852       8863       8862  
      8731       8732       8743       8742       8852       8853       8864       8863  
      8732       8733       8744       8743       8853       8854       8865       8864  
      8733       8734       8745       8744       8854       8855       8866       8865  
      8735       8736       8747       8746       8856       8857       8868       8867  
      8736       8737       8748       8747       8857       8858       8869       8868  
      8737       8738       8749       8748       8858       8859       8870       8869  
      8738       8739       8750       8749       8859       8860       8871       8870  
      8739       8740       8751       8750       8860       8861       8872       8871  
      8740       8741       8752       8751       8861       8862       8873       8872  
      8741       8742       8753       8752       8862       8863       8874       8873  
      8742       8743       8754       8753       8863       8864       8875       8874  
      8743       8744       8755       8754       8864       8865       8876       8875  
      8744       8745       8756       8755       8865       8866       8877       8876  
      8746       8747       8758       8757       8867       8868       8879       8878  
      8747       8748       8759       8758       8868       8869       8880       8879  
      8748       8749       8760       8759       8869       8870       8881       8880  
      8749       8750       8761       8760       8870       8871       8882       8881  
      8750       8751       8762       8761       8871       8872       8883       8882  
      8751       8752       8763       8762       8872       8873       8884       8883  
      8752       8753       8764       8763       8873       8874       8885       8884  
      8753       8754       8765       8764       8874       8875       8886       8885  
      8754       8755       8766       8765       8875       8876       8887       8886  
      8755       8756       8767       8766       8876       8877       8888       8887  
      8757       8758       8769       8768       8878       8879       8890       8889  
      8758       8759       8770       8769       8879       8880       8891       8890  
      8759       8760       8771       8770       8880       8881       8892       8891  
      8760       8761       8772       8771       8881       8882       8893       8892  
      8761       8762       8773       8772       8882       8883       8894       8893  
      8762       8763       8774       8773       8883       8884       8895       8894  
      8763       8764       8775       8774       8884       8885       8896       8895  
      8764       8765       8776       8775       8885       8886       8897       8896  
      8765       8766       8777       8776       8886       8887       8898       8897  
      8766       8767       8778       8777       8887       8888       8899       8898  
      8768       8769       8780       8779       8889       8890       8901       8900  
      8769       8770       8781       8780       8890       8891       8902       8901  
      8770       8771       8782       8781       8891       8892       8903       8902  
      8771       8772       8783       8782       8892       8893       8904       8903  
      8772       8773       8784       8783       8893       8894       8905       8904  
      8773       8774       8785       8784       8894       8895       8906       8905  
      8774       8775       8786       8785       8895       8896       8907       8906  
      8775       8776       8787       8786       8896       8897       8908       8907  
      8776       8777       8788       8787       8897       8898       8909       8908  
      8777       8778       8789       8788       8898       8899       8910       8909  
      8779       8780       8791       8790       8900       8901       8912       8911  
      8780       8781       8792       8791       8901       8902       8913       8912  
      8781       8782       8793       8792       8902       8903       8914       8913  
      8782       8783       8794       8793       8903       8904       8915       8914  
      8783       8784       8795       8794       8904       8905       8916       8915  
      8784       8785       8796       8795       8905       8906       8917       8916  
      8785       8786       8797       8796       8906       8907       8918       8917  
      8786       8787       8798       8797       8907       8908       8919       8918  
      8787       8788       8799       8798       8908       8909       8920       8919  
      8788       8789       8800       8799       8909       8910       8921       8920  
      8790       8791       8802       8801       8911       8912       8923       8922  
      8791       8792       8803       8802       8912       8913       8924       8923  
      8792       8793       8804       8803       8913       8914       8925       8924  
      8793       8794       8805       8804       8914       8915       8926       8925  
      8794       8795       8806       8805       8915       8916       8927       8926  
      8795       8796       8807       8806       8916       8917       8928       8927  
      8796       8797       8808       8807       8917       8918       8929       8928  
      8797       8798       8809       8808       8918       8919       8930       8929  
      8798       8799       8810       8809       8919       8920       8931       8930  
      8799       8800       8811       8810       8920       8921       8932       8931  
      8801       8802       8813       8812       8922       8923       8934       8933  
      8802       8803       8814       8813       8923       8924       8935       8934  
      8803       8804       8815       8814       8924       8925       8936       8935  
      8804       8805       8816       8815       8925       8926       8937       8936  
      8805       8806       8817       8816       8926       8927       8938       8937  
      8806       8807       8818       8817       8927       8928       8939       8938  
      8807       8808       8819       8818       8928       8929       8940       8939  
      8808       8809       8820       8819       8929       8930       8941       8940  
      8809       8810       8821       8820       8930       8931       8942       8941  
      8810       8811       8822       8821       8931       8932       8943       8942  
      8812       8813       8824       8823       8933       8934       8945       8944  
      8813       8814       8825       8824       8934       8935       8946       8945  
      8814       8815       8826       8825       8935       8936       8947       8946  
      8815       8816       8827       8826       8936       8937       8948       8947  
      8816       8817       8828       8827       8937       8938       8949       8948  
      8817       8818       8829       8828       8938       8939       8950       8949  
      8818       8819       8830       8829       8939       8940       8951       8950  
      8819       8820       8831       8830       8940       8941       8952       8951  
      8820       8821       8832       8831       8941       8942       8953       8952  
      8821       8822       8833       8832       8942       8943       8954       8953  
      8834       8835       8846       8845       8955       8956       8967       8966  
      8835       8836       8847       8846       8956       8957       8968       8967  
      8836       8837       8848       8847       8957       8958       8969       8968  
      8837       8838       8849       8848       8958       8959       8970       8969  
      8838       8839       8850       8849       8959       8960       8971       8970  
      8839       8840       8851       8850       8960       8961       8972       8971  
      8840       8841       8852       8851       8961       8962       8973       8972  
      8841       8842       8853       8852       8962       8963       8974       8973  
      8842       8843       8854       8853       8963       8964       8975       8974  
      8843       8844       8855       8854       8964       8965       8976       8975  
      8845       8846       8857       8856       8966       8967       8978       8977  
      8846       8847       8858       8857       8967       8968       8979       8978  
      8847       8848       8859       8858       8968       8969       8980       8979  
      8848       8849       8860       8859       8969       8970       8981       8980  
      8849       8850       8861       8860       8970       8971       8982       8981  
      8850       8851       8862       8861       8971       8972       8983       8982  
      8851       8852       8863       8862       8972       8973       8984       8983  
      8852       8853       8864       8863       8973       8974       8985       8984  
      8853       8854       8865       8864       8974       8975       8986       8985  
      8854       8855       8866       8865       8975       8976       8987       8986  
      8856       8857       8868       8867       8977       8978       8989       8988  
      8857       8858       8869       8868       8978       8979       8990       8989  
      8858       8859       8870       8869       8979       8980       8991       8990  
      8859       8860       8871       8870       8980       8981       8992       8991  
      8860       8861       8872       8871       8981       8982       8993       8992  
      8861       8862       8873       8872       8982       8983       8994       8993  
      8862       8863       8874       8873       8983       8984       8995       8994  
      8863       8864       8875       8874       8984       8985       8996       8995  
      8864       8865       8876       8875       8985       8986       8997       8996  
      8865       8866       8877       8876       8986       8987       8998       8997  
      8867       8868       8879       8878       8988       8989       9000       8999  
      8868       8869       8880       8879       8989       8990       9001       9000  
      8869       8870       8881       8880       8990       8991       9002       9001  
      8870       8871       8882       8881       8991       8992       9003       9002  
      8871       8872       8883       8882       8992       8993       9004       9003  
      8872       8873       8884       8883       8993       8994       9005       9004  
      8873       8874       8885       8884       8994       8995       9006       9005  
      8874       8875       8886       8885       8995       8996       9007       9006  
      8875       8876       8887       8886       8996       8997       9008       9007  
      8876       8877       8888       8887       8997       8998       9009       9008  
      8878       8879       8890       8889       8999       9000       9011       9010  
      8879       8880       8891       8890       9000       9001       9012       9011  
      8880       8881       8892       8891       9001       9002       9013       9012  
      8881       8882       8893       8892       9002       9003       9014       9013  
      8882       8883       8894       8893       9003       9004       9015       9014  
      8883       8884       8895       8894       9004       9005       9016       9015  
      8884       8885       8896       8895       9005       9006       9017       9016  
      8885       8886       8897       8896       9006       9007       9018       9017  
      8886       8887       8898       8897       9007       9008       9019       9018  
      8887       8888       8899       8898       9008       9009       9020       9019  
      8889       8890       8901       8900       9010       9011       9022       9021  
      8890       8891       8902       8901       9011       9012       9023       9022  
      8891       8892       8903       8902       9012       9013       9024       9023  
      8892       8893       8904       8903       9013       9014       9025       9024  
      8893       8894       8905       8904       9014       9015       9026       9025  
      8894       8895       8906       8905       9015       9016       9027       9026  
      8895       8896       8907       8906       9016       9017       9028       9027  
      8896       8897       8908       8907       9017       9018       9029       9028  
      8897       8898       8909       8908       9018       9019       9030       9029  
      8898       8899       8910       8909       9019       9020       9031       9030  
      8900       8901       8912       8911       9021       9022       9033       9032  
      8901       8902       8913       8912       9022       9023       9034       9033  
      8902       8903       8914       8913       9023       9024       9035       9034  
      8903       8904       8915       8914       9024       9025       9036       9035  
      8904       8905       8916       8915       9025       9026       9037       9036  
      8905       8906       8917       8916       9026       9027       9038       9037  
      8906       8907       8918       8917       9027       9028       9039       9038  
      8907       8908       8919       8918       9028       9029       9040       9039  
      8908       8909       8920       8919       9029       9030       9041       9040  
      8909       8910       8921       8920       9030       9031       9042       9041  
      8911       8912       8923       8922       9032       9033       9044       9043  
      8912       8913       8924       8923       9033       9034       9045       9044  
      8913       8914       8925       8924       9034       9035       9046       9045  
      8914       8915       8926       8925       9035       9036       9047       9046  
      8915       8916       8927       8926       9036       9037       9048       9047  
      8916       8917       8928       8927       9037       9038       9049       9048  
      8917       8918       8929       8928       9038       9039       9050       9049  
      8918       8919       8930       8929       9039       9040       9051       9050  
      8919       8920       8931       8930       9040       9041       9052       9051  
      8920       8921       8932       8931       9041       9042       9053       9052  
      8922       8923       8934       8933       9043       9044       9055       9054  
      8923       8924       8935       8934       9044       9045       9056       9055  
      8924       8925       8936       8935       9045       9046       9057       9056  
      8925       8926       8937       8936       9046       9047       9058       9057  
      8926       8927       8938       8937       9047       9048       9059       9058  
      8927       8928       8939       8938       9048       9049       9060       9059  
      8928       8929       8940       8939       9049       9050       9061       9060  
      8929       8930       8941       8940       9050       9051       9062       9061  
      8930       8931       8942       8941       9051       9052       9063       9062  
      8931       8932       8943       8942       9052       9053       9064       9063  
      8933       8934       8945       8944       9054       9055       9066       9065  
      8934       8935       8946       8945       9055       9056       9067       9066  
      8935       8936       8947       8946       9056       9057       9068       9067  
      8936       8937       8948       8947       9057       9058       9069       9068  
      8937       8938       8949       8948       9058       9059       9070       9069  
      8938       8939       8950       8949       9059       9060       9071       9070  
      8939       8940       8951       8950       9060       9061       9072       9071  
      8940       8941       8952       8951       9061       9062       9073       9072  
      8941       8942       8953       8952       9062       9063       9074       9073  
      8942       8943       8954       8953       9063       9064       9075       9074  
      8955       8956       8967       8966       9076       9077       9088       9087  
      8956       8957       8968       8967       9077       9078       9089       9088  
      8957       8958       8969       8968       9078       9079       9090       9089  
      8958       8959       8970       8969       9079       9080       9091       9090  
      8959       8960       8971       8970       9080       9081       9092       9091  
      8960       8961       8972       8971       9081       9082       9093       9092  
      8961       8962       8973       8972       9082       9083       9094       9093  
      8962       8963       8974       8973       9083       9084       9095       9094  
      8963       8964       8975       8974       9084       9085       9096       9095  
      8964       8965       8976       8975       9085       9086       9097       9096  
      8966       8967       8978       8977       9087       9088       9099       9098  
      8967       8968       8979       8978       9088       9089       9100       9099  
      8968       8969       8980       8979       9089       9090       9101       9100  
      8969       8970       8981       8980       9090       9091       9102       9101  
      8970       8971       8982       8981       9091       9092       9103       9102  
      8971       8972       8983       8982       9092       9093       9104       9103  
      8972       8973       8984       8983       9093       9094       9105       9104  
      8973       8974       8985       8984       9094       9095       9106       9105  
      8974       8975       8986       8985       9095       9096       9107       9106  
      8975       8976       8987       8986       9096       9097       9108       9107  
      8977       8978       8989       8988       9098       9099       9110       9109  
      8978       8979       8990       8989       9099       9100       9111       9110  
      8979       8980       8991       8990       9100       9101       9112       9111  
      8980       8981       8992       8991       9101       9102       9113       9112  
      8981       8982       8993       8992       9102       9103       9114       9113  
      8982       8983       8994       8993       9103       9104       9115       9114  
      8983       8984       8995       8994       9104       9105       9116       9115  
      8984       8985       8996       8995       9105       9106       9117       9116  
      8985       8986       8997       8996       9106       9107       9118       9117  
      8986       8987       8998       8997       9107       9108       9119       9118  
      8988       8989       9000       8999       9109       9110       9121       9120  
      8989       8990       9001       9000       9110       9111       9122       9121  
      8990       8991       9002       9001       9111       9112       9123       9122  
      8991       8992       9003       9002       9112       9113       9124       9123  
      8992       8993       9004       9003       9113       9114       9125       9124  
      8993       8994       9005       9004       9114       9115       9126       9125  
      8994       8995       9006       9005       9115       9116       9127       9126  
      8995       8996       9007       9006       9116       9117       9128       9127  
      8996       8997       9008       9007       9117       9118       9129       9128  
      8997       8998       9009       9008       9118       9119       9130       9129  
      8999       9000       9011       9010       9120       9121       9132       9131  
      9000       9001       9012       9011       9121       9122       9133       9132  
      9001       9002       9013       9012       9122       9123       9134       9133  
      9002       9003       9014       9013       9123       9124       9135       9134  
      9003       9004       9015       9014       9124       9125       9136       9135  
      9004       9005       9016       9015       9125       9126       9137       9136  
      9005       9006       9017       9016       9126       9127       9138       9137  
      9006       9007       9018       9017       9127       9128       9139       9138  
      9007       9008       9019       9018       9128       9129       9140       9139  
      9008       9009       9020       9019       9129       9130       9141       9140  
      9010       9011       9022       9021       9131       9132       9143       9142  
      9011       9012       9023       9022       9132       9133       9144       9143  
      9012       9013       9024       9023       9133       9134       9145       9144  
      9013       9014       9025       9024       9134       9135       9146       9145  
      9014       9015       9026       9025       9135       9136       9147       9146  
      9015       9016       9027       9026       9136       9137       9148       9147  
      9016       9017       9028       9027       9137       9138       9149       9148  
      9017       9018       9029       9028       9138       9139       9150       9149  
      9018       9019       9030       9029       9139       9140       9151       9150  
      9019       9020       9031       9030       9140       9141       9152       9151  
      9021       9022       9033       9032       9142       9143       9154       9153  
      9022       9023       9034       9033       9143       9144       9155       9154  
      9023       9024       9035       9034       9144       9145       9156       9155  
      9024       9025       9036       9035       9145       9146       9157       9156  
      9025       9026       9037       9036       9146       9147       9158       9157  
      9026       9027       9038       9037       9147       9148       9159       9158  
      9027       9028       9039       9038       9148       9149       9160       9159  
      9028       9029       9040       9039       9149       9150       9161       9160  
      9029       9030       9041       9040       9150       9151       9162       9161  
      9030       9031       9042       9041       9151       9152       9163       9162  
      9032       9033       9044       9043       9153       9154       9165       9164  
      9033       9034       9045       9044       9154       9155       9166       9165  
      9034       9035       9046       9045       9155       9156       9167       9166  
      9035       9036       9047       9046       9156       9157       9168       9167  
      9036       9037       9048       9047       9157       9158       9169       9168  
      9037       9038       9049       9048       9158       9159       9170       9169  
      9038       9039       9050       9049       9159       9160       9171       9170  
      9039       9040       9051       9050       9160       9161       9172       9171  
      9040       9041       9052       9051       9161       9162       9173       9172  
      9041       9042       9053       9052       9162       9163       9174       9173  
      9043       9044       9055       9054       9164       9165       9176       9175  
      9044       9045       9056       9055       9165       9166       9177       9176  
      9045       9046       9057       9056       9166       9167       9178       9177  
      9046       9047       9058       9057       9167       9168       9179       9178  
      9047       9048       9059       9058       9168       9169       9180       9179  
      9048       9049       9060       9059       9169       9170       9181       9180  
      9049       9050       9061       9060       9170       9171       9182       9181  
      9050       9051       9062       9061       9171       9172       9183       9182  
      9051       9052       9063       9062       9172       9173       9184       9183  
      9052       9053       9064       9063       9173       9174       9185       9184  
      9054       9055       9066       9065       9175       9176       9187       9186  
      9055       9056       9067       9066       9176       9177       9188       9187  
      9056       9057       9068       9067       9177       9178       9189       9188  
      9057       9058       9069       9068       9178       9179       9190       9189  
      9058       9059       9070       9069       9179       9180       9191       9190  
      9059       9060       9071       9070       9180       9181       9192       9191  
      9060       9061       9072       9071       9181       9182       9193       9192  
      9061       9062       9073       9072       9182       9183       9194       9193  
      9062       9063       9074       9073       9183       9184       9195       9194  
      9063       9064       9075       9074       9184       9185       9196       9195  
      9076       9077       9088       9087       9197       9198       9209       9208  
      9077       9078       9089       9088       9198       9199       9210       9209  
      9078       9079       9090       9089       9199       9200       9211       9210  
      9079       9080       9091       9090       9200       9201       9212       9211  
      9080       9081       9092       9091       9201       9202       9213       9212  
      9081       9082       9093       9092       9202       9203       9214       9213  
      9082       9083       9094       9093       9203       9204       9215       9214  
      9083       9084       9095       9094       9204       9205       9216       9215  
      9084       9085       9096       9095       9205       9206       9217       9216  
      9085       9086       9097       9096       9206       9207       9218       9217  
      9087       9088       9099       9098       9208       9209       9220       9219  
      9088       9089       9100       9099       9209       9210       9221       9220  
      9089       9090       9101       9100       9210       9211       9222       9221  
      9090       9091       9102       9101       9211       9212       9223       9222  
      9091       9092       9103       9102       9212       9213       9224       9223  
      9092       9093       9104       9103       9213       9214       9225       9224  
      9093       9094       9105       9104       9214       9215       9226       9225  
      9094       9095       9106       9105       9215       9216       9227       9226  
      9095       9096       9107       9106       9216       9217       9228       9227  
      9096       9097       9108       9107       9217       9218       9229       9228  
      9098       9099       9110       9109       9219       9220       9231       9230  
      9099       9100       9111       9110       9220       9221       9232       9231  
      9100       9101       9112       9111       9221       9222       9233       9232  
      9101       9102       9113       9112       9222       9223       9234       9233  
      9102       9103       9114       9113       9223       9224       9235       9234  
      9103       9104       9115       9114       9224       9225       9236       9235  
      9104       9105       9116       9115       9225       9226       9237       9236  
      9105       9106       9117       9116       9226       9227       9238       9237  
      9106       9107       9118       9117       9227       9228       9239       9238  
      9107       9108       9119       9118       9228       9229       9240       9239  
      9109       9110       9121       9120       9230       9231       9242       9241  
      9110       9111       9122       9121       9231       9232       9243       9242  
      9111       9112       9123       9122       9232       9233       9244       9243  
      9112       9113       9124       9123       9233       9234       9245       9244  
      9113       9114       9125       9124       9234       9235       9246       9245  
      9114       9115       9126       9125       9235       9236       9247       9246  
      9115       9116       9127       9126       9236       9237       9248       9247  
      9116       9117       9128       9127       9237       9238       9249       9248  
      9117       9118       9129       9128       9238       9239       9250       9249  
      9118       9119       9130       9129       9239       9240       9251       9250  
      9120       9121       9132       9131       9241       9242       9253       9252  
      9121       9122       9133       9132       9242       9243       9254       9253  
      9122       9123       9134       9133       9243       9244       9255       9254  
      9123       9124       9135       9134       9244       9245       9256       9255  
      9124       9125       9136       9135       9245       9246       9257       9256  
      9125       9126       9137       9136       9246       9247       9258       9257  
      9126       9127       9138       9137       9247       9248       9259       9258  
      9127       9128       9139       9138       9248       9249       9260       9259  
      9128       9129       9140       9139       9249       9250       9261       9260  
      9129       9130       9141       9140       9250       9251       9262       9261  
      9131       9132       9143       9142       9252       9253       9264       9263  
      9132       9133       9144       9143       9253       9254       9265       9264  
      9133       9134       9145       9144       9254       9255       9266       9265  
      9134       9135       9146       9145       9255       9256       9267       9266  
      9135       9136       9147       9146       9256       9257       9268       9267  
      9136       9137       9148       9147       9257       9258       9269       9268  
      9137       9138       9149       9148       9258       9259       9270       9269  
      9138       9139       9150       9149       9259       9260       9271       9270  
      9139       9140       9151       9150       9260       9261       9272       9271  
      9140       9141       9152       9151       9261       9262       9273       9272  
      9142       9143       9154       9153       9263       9264       9275       9274  
      9143       9144       9155       9154       9264       9265       9276       9275  
      9144       9145       9156       9155       9265       9266       9277       9276  
      9145       9146       9157       9156       9266       9267       9278       9277  
      9146       9147       9158       9157       9267       9268       9279       9278  
      9147       9148       9159       9158       9268       9269       9280       9279  
      9148       9149       9160       9159       9269       9270       9281       9280  
      9149       9150       9161       9160       9270       9271       9282       9281  
      9150       9151       9162       9161       9271       9272       9283       9282  
      9151       9152       9163       9162       9272       9273       9284       9283  
      9153       9154       9165       9164       9274       9275       9286       9285  
      9154       9155       9166       9165       9275       9276       9287       9286  
      9155       9156       9167       9166       9276       9277       9288       9287  
      9156       9157       9168       9167       9277       9278       9289       9288  
      9157       9158       9169       9168       9278       9279       9290       9289  
      9158       9159       9170       9169       9279       9280       9291       9290  
      9159       9160       9171       9170       9280       9281       9292       9291  
      9160       9161       9172       9171       9281       9282       9293       9292  
      9161       9162       9173       9172       9282       9283       9294       9293  
      9162       9163       9174       9173       9283       9284       9295       9294  
      9164       9165       9176       9175       9285       9286       9297       9296  
      9165       9166       9177       9176       9286       9287       9298       9297  
      9166       9167       9178       9177       9287       9288       9299       9298  
      9167       9168       9179       9178       9288       9289       9300       9299  
      9168       9169       9180       9179       9289       9290       9301       9300  
      9169       9170       9181       9180       9290       9291       9302       9301  
      9170       9171       9182       9181       9291       9292       9303       9302  
      9171       9172       9183       9182       9292       9293       9304       9303  
      9172       9173       9184       9183       9293       9294       9305       9304  
      9173       9174       9185       9184       9294       9295       9306       9305  
      9175       9176       9187       9186       9296       9297       9308       9307  
      9176       9177       9188       9187       9297       9298       9309       9308  
      9177       9178       9189       9188       9298       9299       9310       9309  
      9178       9179       9190       9189       9299       9300       9311       9310  
      9179       9180       9191       9190       9300       9301       9312       9311  
      9180       9181       9192       9191       9301       9302       9313       9312  
      9181       9182       9193       9192       9302       9303       9314       9313  
      9182       9183       9194       9193       9303       9304       9315       9314  
      9183       9184       9195       9194       9304       9305       9316       9315  
      9184       9185       9196       9195       9305       9306       9317       9316  
      9197       9198       9209       9208       9318       9319       9330       9329  
      9198       9199       9210       9209       9319       9320       9331       9330  
      9199       9200       9211       9210       9320       9321       9332       9331  
      9200       9201       9212       9211       9321       9322       9333       9332  
      9201       9202       9213       9212       9322       9323       9334       9333  
      9202       9203       9214       9213       9323       9324       9335       9334  
      9203       9204       9215       9214       9324       9325       9336       9335  
      9204       9205       9216       9215       9325       9326       9337       9336  
      9205       9206       9217       9216       9326       9327       9338       9337  
      9206       9207       9218       9217       9327       9328       9339       9338  
      9208       9209       9220       9219       9329       9330       9341       9340  
      9209       9210       9221       9220       9330       9331       9342       9341  
      9210       9211       9222       9221       9331       9332       9343       9342  
      9211       9212       9223       9222       9332       9333       9344       9343  
      9212       9213       9224       9223       9333       9334       9345       9344  
      9213       9214       9225       9224       9334       9335       9346       9345  
      9214       9215       9226       9225       9335       9336       9347       9346  
      9215       9216       9227       9226       9336       9337       9348       9347  
      9216       9217       9228       9227       9337       9338       9349       9348  
      9217       9218       9229       9228       9338       9339       9350       9349  
      9219       9220       9231       9230       9340       9341       9352       9351  
      9220       9221       9232       9231       9341       9342       9353       9352  
      9221       9222       9233       9232       9342       9343       9354       9353  
      9222       9223       9234       9233       9343       9344       9355       9354  
      9223       9224       9235       9234       9344       9345       9356       9355  
      9224       9225       9236       9235       9345       9346       9357       9356  
      9225       9226       9237       9236       9346       9347       9358       9357  
      9226       9227       9238       9237       9347       9348       9359       9358  
      9227       9228       9239       9238       9348       9349       9360       9359  
      9228       9229       9240       9239       9349       9350       9361       9360  
      9230       9231       9242       9241       9351       9352       9363       9362  
      9231       9232       9243       9242       9352       9353       9364       9363  
      9232       9233       9244       9243       9353       9354       9365       9364  
      9233       9234       9245       9244       9354       9355       9366       9365  
      9234       9235       9246       9245       9355       9356       9367       9366  
      9235       9236       9247       9246       9356       9357       9368       9367  
      9236       9237       9248       9247       9357       9358       9369       9368  
      9237       9238       9249       9248       9358       9359       9370       9369  
      9238       9239       9250       9249       9359       9360       9371       9370  
      9239       9240       9251       9250       9360       9361       9372       9371  
      9241       9242       9253       9252       9362       9363       9374       9373  
      9242       9243       9254       9253       9363       9364       9375       9374  
      9243       9244       9255       9254       9364       9365       9376       9375  
      9244       9245       9256       9255       9365       9366       9377       9376  
      9245       9246       9257       9256       9366       9367       9378       9377  
      9246       9247       9258       9257       9367       9368       9379       9378  
      9247       9248       9259       9258       9368       9369       9380       9379  
      9248       9249       9260       9259       9369       9370       9381       9380  
      9249       9250       9261       9260       9370       9371       9382       9381  
      9250       9251       9262       9261       9371       9372       9383       9382  
      9252       9253       9264       9263       9373       9374       9385       9384  
      9253       9254       9265       9264       9374       9375       9386       9385  
      9254       9255       9266       9265       9375       9376       9387       9386  
      9255       9256       9267       9266       9376       9377       9388       9387  
      9256       9257       9268       9267       9377       9378       9389       9388  
      9257       9258       9269       9268       9378       9379       9390       9389  
      9258       9259       9270       9269       9379       9380       9391       9390  
      9259       9260       9271       9270       9380       9381       9392       9391  
      9260       9261       9272       9271       9381       9382       9393       9392  
      9261       9262       9273       9272       9382       9383       9394       9393  
      9263       9264       9275       9274       9384       9385       9396       9395  
      9264       9265       9276       9275       9385       9386       9397       9396  
      9265       9266       9277       9276       9386       9387       9398       9397  
      9266       9267       9278       9277       9387       9388       9399       9398  
      9267       9268       9279       9278       9388       9389       9400       9399  
      9268       9269       9280       9279       9389       9390       9401       9400  
      9269       9270       9281       9280       9390       9391       9402       9401  
      9270       9271       9282       9281       9391       9392       9403       9402  
      9271       9272       9283       9282       9392       9393       9404       9403  
      9272       9273       9284       9283       9393       9394       9405       9404  
      9274       9275       9286       9285       9395       9396       9407       9406  
      9275       9276       9287       9286       9396       9397       9408       9407  
      9276       9277       9288       9287       9397       9398       9409       9408  
      9277       9278       9289       9288       9398       9399       9410       9409  
      9278       9279       9290       9289       9399       9400       9411       9410  
      9279       9280       9291       9290       9400       9401       9412       9411  
      9280       9281       9292       9291       9401       9402       9413       9412  
      9281       9282       9293       9292       9402       9403       9414       9413  
      9282       9283       9294       9293       9403       9404       9415       9414  
      9283       9284       9295       9294       9404       9405       9416       9415  
      9285       9286       9297       9296       9406       9407       9418       9417  
      9286       9287       9298       9297       9407       9408       9419       9418  
      9287       9288       9299       9298       9408       9409       9420       9419  
      9288       9289       9300       9299       9409       9410       9421       9420  
      9289       9290       9301       9300       9410       9411       9422       9421  
      9290       9291       9302       9301       9411       9412       9423       9422  
      9291       9292       9303       9302       9412       9413       9424       9423  
      9292       9293       9304       9303       9413       9414       9425       9424  
      9293       9294       9305       9304       9414       9415       9426       9425  
      9294       9295       9306       9305       9415       9416       9427       9426  
      9296       9297       9308       9307       9417       9418       9429       9428  
      9297       9298       9309       9308       9418       9419       9430       9429  
      9298       9299       9310       9309       9419       9420       9431       9430  
      9299       9300       9311       9310       9420       9421       9432       9431  
      9300       9301       9312       9311       9421       9422       9433       9432  
      9301       9302       9313       9312       9422       9423       9434       9433  
      9302       9303       9314       9313       9423       9424       9435       9434  
      9303       9304       9315       9314       9424       9425       9436       9435  
      9304       9305       9316       9315       9425       9426       9437       9436  
      9305       9306       9317       9316       9426       9427       9438       9437  
      9318       9319       9330       9329       9439       9440       9451       9450  
      9319       9320       9331       9330       9440       9441       9452       9451  
      9320       9321       9332       9331       9441       9442       9453       9452  
      9321       9322       9333       9332       9442       9443       9454       9453  
      9322       9323       9334       9333       9443       9444       9455       9454  
      9323       9324       9335       9334       9444       9445       9456       9455  
      9324       9325       9336       9335       9445       9446       9457       9456  
      9325       9326       9337       9336       9446       9447       9458       9457  
      9326       9327       9338       9337       9447       9448       9459       9458  
      9327       9328       9339       9338       9448       9449       9460       9459  
      9329       9330       9341       9340       9450       9451       9462       9461  
      9330       9331       9342       9341       9451       9452       9463       9462  
      9331       9332       9343       9342       9452       9453       9464       9463  
      9332       9333       9344       9343       9453       9454       9465       9464  
      9333       9334       9345       9344       9454       9455       9466       9465  
      9334       9335       9346       9345       9455       9456       9467       9466  
      9335       9336       9347       9346       9456       9457       9468       9467  
      9336       9337       9348       9347       9457       9458       9469       9468  
      9337       9338       9349       9348       9458       9459       9470       9469  
      9338       9339       9350       9349       9459       9460       9471       9470  
      9340       9341       9352       9351       9461       9462       9473       9472  
      9341       9342       9353       9352       9462       9463       9474       9473  
      9342       9343       9354       9353       9463       9464       9475       9474  
      9343       9344       9355       9354       9464       9465       9476       9475  
      9344       9345       9356       9355       9465       9466       9477       9476  
      9345       9346       9357       9356       9466       9467       9478       9477  
      9346       9347       9358       9357       9467       9468       9479       9478  
      9347       9348       9359       9358       9468       9469       9480       9479  
      9348       9349       9360       9359       9469       9470       9481       9480  
      9349       9350       9361       9360       9470       9471       9482       9481  
      9351       9352       9363       9362       9472       9473       9484       9483  
      9352       9353       9364       9363       9473       9474       9485       9484  
      9353       9354       9365       9364       9474       9475       9486       9485  
      9354       9355       9366       9365       9475       9476       9487       9486  
      9355       9356       9367       9366       9476       9477       9488       9487  
      9356       9357       9368       9367       9477       9478       9489       9488  
      9357       9358       9369       9368       9478       9479       9490       9489  
      9358       9359       9370       9369       9479       9480       9491       9490  
      9359       9360       9371       9370       9480       9481       9492       9491  
      9360       9361       9372       9371       9481       9482       9493       9492  
      9362       9363       9374       9373       9483       9484       9495       9494  
      9363       9364       9375       9374       9484       9485       9496       9495  
      9364       9365       9376       9375       9485       9486       9497       9496  
      9365       9366       9377       9376       9486       9487       9498       9497  
      9366       9367       9378       9377       9487       9488       9499       9498  
      9367       9368       9379       9378       9488       9489       9500       9499  
      9368       9369       9380       9379       9489       9490       9501       9500  
      9369       9370       9381       9380       9490       9491       9502       9501  
      9370       9371       9382       9381       9491       9492       9503       9502  
      9371       9372       9383       9382       9492       9493       9504       9503  
      9373       9374       9385       9384       9494       9495       9506       9505  
      9374       9375       9386       9385       9495       9496       9507       9506  
      9375       9376       9387       9386       9496       9497       9508       9507  
      9376       9377       9388       9387       9497       9498       9509       9508  
      9377       9378       9389       9388       9498       9499       9510       9509  
      9378       9379       9390       9389       9499       9500       9511       9510  
      9379       9380       9391       9390       9500       9501       9512       9511  
      9380       9381       9392       9391       9501       9502       9513       9512  
      9381       9382       9393       9392       9502       9503       9514       9513  
      9382       9383       9394       9393       9503       9504       9515       9514  
      9384       9385       9396       9395       9505       9506       9517       9516  
      9385       9386       9397       9396       9506       9507       9518       9517  
      9386       9387       9398       9397       9507       9508       9519       9518  
      9387       9388       9399       9398       9508       9509       9520       9519  
      9388       9389       9400       9399       9509       9510       9521       9520  
      9389       9390       9401       9400       9510       9511       9522       9521  
      9390       9391       9402       9401       9511       9512       9523       9522  
      9391       9392       9403       9402       9512       9513       9524       9523  
      9392       9393       9404       9403       9513       9514       9525       9524  
      9393       9394       9405       9404       9514       9515       9526       9525  
      9395       9396       9407       9406       9516       9517       9528       9527  
      9396       9397       9408       9407       9517       9518       9529       9528  
      9397       9398       9409       9408       9518       9519       9530       9529  
      9398       9399       9410       9409       9519       9520       9531       9530  
      9399       9400       9411       9410       9520       9521       9532       9531  
      9400       9401       9412       9411       9521       9522       9533       9532  
      9401       9402       9413       9412       9522       9523       9534       9533  
      9402       9403       9414       9413       9523       9524       9535       9534  
      9403       9404       9415       9414       9524       9525       9536       9535  
      9404       9405       9416       9415       9525       9526       9537       9536  
      9406       9407       9418       9417       9527       9528       9539       9538  
      9407       9408       9419       9418       9528       9529       9540       9539  
      9408       9409       9420       9419       9529       9530       9541       9540  
      9409       9410       9421       9420       9530       9531       9542       9541  
      9410       9411       9422       9421       9531       9532       9543       9542  
      9411       9412       9423       9422       9532       9533       9544       9543  
      9412       9413       9424       9423       9533       9534       9545       9544  
      9413       9414       9425       9424       9534       9535       9546       9545  
      9414       9415       9426       9425       9535       9536       9547       9546  
      9415       9416       9427       9426       9536       9537       9548       9547  
      9417       9418       9429       9428       9538       9539       9550       9549  
      9418       9419       9430       9429       9539       9540       9551       9550  
      9419       9420       9431       9430       9540       9541       9552       9551  
      9420       9421       9432       9431       9541       9542       9553       9552  
      9421       9422       9433       9432       9542       9543       9554       9553  
      9422       9423       9434       9433       9543       9544       9555       9554  
      9423       9424       9435       9434       9544       9545       9556       9555  
      9424       9425       9436       9435       9545       9546       9557       9556  
      9425       9426       9437       9436       9546       9547       9558       9557  
      9426       9427       9438       9437       9547       9548       9559       9558  
      9439       9440       9451       9450       9560       9561       9572       9571  
      9440       9441       9452       9451       9561       9562       9573       9572  
      9441       9442       9453       9452       9562       9563       9574       9573  
      9442       9443       9454       9453       9563       9564       9575       9574  
      9443       9444       9455       9454       9564       9565       9576       9575  
      9444       9445       9456       9455       9565       9566       9577       9576  
      9445       9446       9457       9456       9566       9567       9578       9577  
      9446       9447       9458       9457       9567       9568       9579       9578  
      9447       9448       9459       9458       9568       9569       9580       9579  
      9448       9449       9460       9459       9569       9570       9581       9580  
      9450       9451       9462       9461       9571       9572       9583       9582  
      9451       9452       9463       9462       9572       9573       9584       9583  
      9452       9453       9464       9463       9573       9574       9585       9584  
      9453       9454       9465       9464       9574       9575       9586       9585  
      9454       9455       9466       9465       9575       9576       9587       9586  
      9455       9456       9467       9466       9576       9577       9588       9587  
      9456       9457       9468       9467       9577       9578       9589       9588  
      9457       9458       9469       9468       9578       9579       9590       9589  
      9458       9459       9470       9469       9579       9580       9591       9590  
      9459       9460       9471       9470       9580       9581       9592       9591  
      9461       9462       9473       9472       9582       9583       9594       9593  
      9462       9463       9474       9473       9583       9584       9595       9594  
      9463       9464       9475       9474       9584       9585       9596       9595  
      9464       9465       9476       9475       9585       9586       9597       9596  
      9465       9466       9477       9476       9586       9587       9598       9597  
      9466       9467       9478       9477       9587       9588       9599       9598  
      9467       9468       9479       9478       9588       9589       9600       9599  
      9468       9469       9480       9479       9589       9590       9601       9600  
      9469       9470       9481       9480       9590       9591       9602       9601  
      9470       9471       9482       9481       9591       9592       9603       9602  
      9472       9473       9484       9483       9593       9594       9605       9604  
      9473       9474       9485       9484       9594       9595       9606       9605  
      9474       9475       9486       9485       9595       9596       9607       9606  
      9475       9476       9487       9486       9596       9597       9608       9607  
      9476       9477       9488       9487       9597       9598       9609       9608  
      9477       9478       9489       9488       9598       9599       9610       9609  
      9478       9479       9490       9489       9599       9600       9611       9610  
      9479       9480       9491       9490       9600       9601       9612       9611  
      9480       9481       9492       9491       9601       9602       9613       9612  
      9481       9482       9493       9492       9602       9603       9614       9613  
      9483       9484       9495       9494       9604       9605       9616       9615  
      9484       9485       9496       9495       9605       9606       9617       9616  
      9485       9486       9497       9496       9606       9607       9618       9617  
      9486       9487       9498       9497       9607       9608       9619       9618  
      9487       9488       9499       9498       9608       9609       9620       9619  
      9488       9489       9500       9499       9609       9610       9621       9620  
      9489       9490       9501       9500       9610       9611       9622       9621  
      9490       9491       9502       9501       9611       9612       9623       9622  
      9491       9492       9503       9502       9612       9613       9624       9623  
      9492       9493       9504       9503       9613       9614       9625       9624  
      9494       9495       9506       9505       9615       9616       9627       9626  
      9495       9496       9507       9506       9616       9617       9628       9627  
      9496       9497       9508       9507       9617       9618       9629       9628  
      9497       9498       9509       9508       9618       9619       9630       9629  
      9498       9499       9510       9509       9619       9620       9631       9630  
      9499       9500       9511       9510       9620       9621       9632       9631  
      9500       9501       9512       9511       9621       9622       9633       9632  
      9501       9502       9513       9512       9622       9623       9634       9633  
      9502       9503       9514       9513       9623       9624       9635       9634  
      9503       9504       9515       9514       9624       9625       9636       9635  
      9505       9506       9517       9516       9626       9627       9638       9637  
      9506       9507       9518       9517       9627       9628       9639       9638  
      9507       9508       9519       9518       9628       9629       9640       9639  
      9508       9509       9520       9519       9629       9630       9641       9640  
      9509       9510       9521       9520       9630       9631       9642       9641  
      9510       9511       9522       9521       9631       9632       9643       9642  
      9511       9512       9523       9522       9632       9633       9644       9643  
      9512       9513       9524       9523       9633       9634       9645       9644  
      9513       9514       9525       9524       9634       9635       9646       9645  
      9514       9515       9526       9525       9635       9636       9647       9646  
      9516       9517       9528       9527       9637       9638       9649       9648  
      9517       9518       9529       9528       9638       9639       9650       9649  
      9518       9519       9530       9529       9639       9640       9651       9650  
      9519       9520       9531       9530       9640       9641       9652       9651  
      9520       9521       9532       9531       9641       9642       9653       9652  
      9521       9522       9533       9532       9642       9643       9654       9653  
      9522       9523       9534       9533       9643       9644       9655       9654  
      9523       9524       9535       9534       9644       9645       9656       9655  
      9524       9525       9536       9535       9645       9646       9657       9656  
      9525       9526       9537       9536       9646       9647       9658       9657  
      9527       9528       9539       9538       9648       9649       9660       9659  
      9528       9529       9540       9539       9649       9650       9661       9660  
      9529       9530       9541       9540       9650       9651       9662       9661  
      9530       9531       9542       9541       9651       9652       9663       9662  
      9531       9532       9543       9542       9652       9653       9664       9663  
      9532       9533       9544       9543       9653       9654       9665       9664  
      9533       9534       9545       9544       9654       9655       9666       9665  
      9534       9535       9546       9545       9655       9656       9667       9666  
      9535       9536       9547       9546       9656       9657       9668       9667  
      9536       9537       9548       9547       9657       9658       9669       9668  
      9538       9539       9550       9549       9659       9660       9671       9670  
      9539       9540       9551       9550       9660       9661       9672       9671  
      9540       9541       9552       9551       9661       9662       9673       9672  
      9541       9542       9553       9552       9662       9663       9674       9673  
      9542       9543       9554       9553       9663       9664       9675       9674  
      9543       9544       9555       9554       9664       9665       9676       9675  
      9544       9545       9556       9555       9665       9666       9677       9676  
      9545       9546       9557       9556       9666       9667       9678       9677  
      9546       9547       9558       9557       9667       9668       9679       9678  
      9547       9548       9559       9558       9668       9669       9680       9679  
      9560       9561       9572       9571       9681       9682       9693       9692  
      9561       9562       9573       9572       9682       9683       9694       9693  
      9562       9563       9574       9573       9683       9684       9695       9694  
      9563       9564       9575       9574       9684       9685       9696       9695  
      9564       9565       9576       9575       9685       9686       9697       9696  
      9565       9566       9577       9576       9686       9687       9698       9697  
      9566       9567       9578       9577       9687       9688       9699       9698  
      9567       9568       9579       9578       9688       9689       9700       9699  
      9568       9569       9580       9579       9689       9690       9701       9700  
      9569       9570       9581       9580       9690       9691       9702       9701  
      9571       9572       9583       9582       9692       9693       9704       9703  
      9572       9573       9584       9583       9693       9694       9705       9704  
      9573       9574       9585       9584       9694       9695       9706       9705  
      9574       9575       9586       9585       9695       9696       9707       9706  
      9575       9576       9587       9586       9696       9697       9708       9707  
      9576       9577       9588       9587       9697       9698       9709       9708  
      9577       9578       9589       9588       9698       9699       9710       9709  
      9578       9579       9590       9589       9699       9700       9711       9710  
      9579       9580       9591       9590       9700       9701       9712       9711  
      9580       9581       9592       9591       9701       9702       9713       9712  
      9582       9583       9594       9593       9703       9704       9715       9714  
      9583       9584       9595       9594       9704       9705       9716       9715  
      9584       9585       9596       9595       9705       9706       9717       9716  
      9585       9586       9597       9596       9706       9707       9718       9717  
      9586       9587       9598       9597       9707       9708       9719       9718  
      9587       9588       9599       9598       9708       9709       9720       9719  
      9588       9589       9600       9599       9709       9710       9721       9720  
      9589       9590       9601       9600       9710       9711       9722       9721  
      9590       9591       9602       9601       9711       9712       9723       9722  
      9591       9592       9603       9602       9712       9713       9724       9723  
      9593       9594       9605       9604       9714       9715       9726       9725  
      9594       9595       9606       9605       9715       9716       9727       9726  
      9595       9596       9607       9606       9716       9717       9728       9727  
      9596       9597       9608       9607       9717       9718       9729       9728  
      9597       9598       9609       9608       9718       9719       9730       9729  
      9598       9599       9610       9609       9719       9720       9731       9730  
      9599       9600       9611       9610       9720       9721       9732       9731  
      9600       9601       9612       9611       9721       9722       9733       9732  
      9601       9602       9613       9612       9722       9723       9734       9733  
      9602       9603       9614       9613       9723       9724       9735       9734  
      9604       9605       9616       9615       9725       9726       9737       9736  
      9605       9606       9617       9616       9726       9727       9738       9737  
      9606       9607       9618       9617       9727       9728       9739       9738  
      9607       9608       9619       9618       9728       9729       9740       9739  
      9608       9609       9620       9619       9729       9730       9741       9740  
      9609       9610       9621       9620       9730       9731       9742       9741  
      9610       9611       9622       9621       9731       9732       9743       9742  
      9611       9612       9623       9622       9732       9733       9744       9743  
      9612       9613       9624       9623       9733       9734       9745       9744  
      9613       9614       9625       9624       9734       9735       9746       9745  
      9615       9616       9627       9626       9736       9737       9748       9747  
      9616       9617       9628       9627       9737       9738       9749       9748  
      9617       9618       9629       9628       9738       9739       9750       9749  
      9618       9619       9630       9629       9739       9740       9751       9750  
      9619       9620       9631       9630       9740       9741       9752       9751  
      9620       9621       9632       9631       9741       9742       9753       9752  
      9621       9622       9633       9632       9742       9743       9754       9753  
      9622       9623       9634       9633       9743       9744       9755       9754  
      9623       9624       9635       9634       9744       9745       9756       9755  
      9624       9625       9636       9635       9745       9746       9757       9756  
      9626       9627       9638       9637       9747       9748       9759       9758  
      9627       9628       9639       9638       9748       9749       9760       9759  
      9628       9629       9640       9639       9749       9750       9761       9760  
      9629       9630       9641       9640       9750       9751       9762       9761  
      9630       9631       9642       9641       9751       9752       9763       9762  
      9631       9632       9643       9642       9752       9753       9764       9763  
      9632       9633       9644       9643       9753       9754       9765       9764  
      9633       9634       9645       9644       9754       9755       9766       9765  
      9634       9635       9646       9645       9755       9756       9767       9766  
      9635       9636       9647       9646       9756       9757       9768       9767  
      9637       9638       9649       9648       9758       9759       9770       9769  
      9638       9639       9650       9649       9759       9760       9771       9770  
      9639       9640       9651       9650       9760       9761       9772       9771  
      9640       9641       9652       9651       9761       9762       9773       9772  
      9641       9642       9653       9652       9762       9763       9774       9773  
      9642       9643       9654       9653       9763       9764       9775       9774  
      9643       9644       9655       9654       9764       9765       9776       9775  
      9644       9645       9656       9655       9765       9766       9777       9776  
      9645       9646       9657       9656       9766       9767       9778       9777  
      9646       9647       9658       9657       9767       9768       9779       9778  
      9648       9649       9660       9659       9769       9770       9781       9780  
      9649       9650       9661       9660       9770       9771       9782       9781  
      9650       9651       9662       9661       9771       9772       9783       9782  
      9651       9652       9663       9662       9772       9773       9784       9783  
      9652       9653       9664       9663       9773       9774       9785       9784  
      9653       9654       9665       9664       9774       9775       9786       9785  
      9654       9655       9666       9665       9775       9776       9787       9786  
      9655       9656       9667       9666       9776       9777       9788       9787  
      9656       9657       9668       9667       9777       9778       9789       9788  
      9657       9658       9669       9668       9778       9779       9790       9789  
      9659       9660       9671       9670       9780       9781       9792       9791  
      9660       9661       9672       9671       9781       9782       9793       9792  
      9661       9662       9673       9672       9782       9783       9794       9793  
      9662       9663       9674       9673       9783       9784       9795       9794  
      9663       9664       9675       9674       9784       9785       9796       9795  
      9664       9665       9676       9675       9785       9786       9797       9796  
      9665       9666       9677       9676       9786       9787       9798       9797  
      9666       9667       9678       9677       9787       9788       9799       9798  
      9667       9668       9679       9678       9788       9789       9800       9799  
      9668       9669       9680       9679       9789       9790       9801       9800  
      9681       9682       9693       9692       9802       9803       9814       9813  
      9682       9683       9694       9693       9803       9804       9815       9814  
      9683       9684       9695       9694       9804       9805       9816       9815  
      9684       9685       9696       9695       9805       9806       9817       9816  
      9685       9686       9697       9696       9806       9807       9818       9817  
      9686       9687       9698       9697       9807       9808       9819       9818  
      9687       9688       9699       9698       9808       9809       9820       9819  
      9688       9689       9700       9699       9809       9810       9821       9820  
      9689       9690       9701       9700       9810       9811       9822       9821  
      9690       9691       9702       9701       9811       9812       9823       9822  
      9692       9693       9704       9703       9813       9814       9825       9824  
      9693       9694       9705       9704       9814       9815       9826       9825  
      9694       9695       9706       9705       9815       9816       9827       9826  
      9695       9696       9707       9706       9816       9817       9828       9827  
      9696       9697       9708       9707       9817       9818       9829       9828  
      9697       9698       9709       9708       9818       9819       9830       9829  
      9698       9699       9710       9709       9819       9820       9831       9830  
      9699       9700       9711       9710       9820       9821       9832       9831  
      9700       9701       9712       9711       9821       9822       9833       9832  
      9701       9702       9713       9712       9822       9823       9834       9833  
      9703       9704       9715       9714       9824       9825       9836       9835  
      9704       9705       9716       9715       9825       9826       9837       9836  
      9705       9706       9717       9716       9826       9827       9838       9837  
      9706       9707       9718       9717       9827       9828       9839       9838  
      9707       9708       9719       9718       9828       9829       9840       9839  
      9708       9709       9720       9719       9829       9830       9841       9840  
      9709       9710       9721       9720       9830       9831       9842       9841  
      9710       9711       9722       9721       9831       9832       9843       9842  
      9711       9712       9723       9722       9832       9833       9844       9843  
      9712       9713       9724       9723       9833       9834       9845       9844  
      9714       9715       9726       9725       9835       9836       9847       9846  
      9715       9716       9727       9726       9836       9837       9848       9847  
      9716       9717       9728       9727       9837       9838       9849       9848  
      9717       9718       9729       9728       9838       9839       9850       9849  
      9718       9719       9730       9729       9839       9840       9851       9850  
      9719       9720       9731       9730       9840       9841       9852       9851  
      9720       9721       9732       9731       9841       9842       9853       9852  
      9721       9722       9733       9732       9842       9843       9854       9853  
      9722       9723       9734       9733       9843       9844       9855       9854  
      9723       9724       9735       9734       9844       9845       9856       9855  
      9725       9726       9737       9736       9846       9847       9858       9857  
      9726       9727       9738       9737       9847       9848       9859       9858  
      9727       9728       9739       9738       9848       9849       9860       9859  
      9728       9729       9740       9739       9849       9850       9861       9860  
      9729       9730       9741       9740       9850       9851       9862       9861  
      9730       9731       9742       9741       9851       9852       9863       9862  
      9731       9732       9743       9742       9852       9853       9864       9863  
      9732       9733       9744       9743       9853       9854       9865       9864  
      9733       9734       9745       9744       9854       9855       9866       9865  
      9734       9735       9746       9745       9855       9856       9867       9866  
      9736       9737       9748       9747       9857       9858       9869       9868  
      9737       9738       9749       9748       9858       9859       9870       9869  
      9738       9739       9750       9749       9859       9860       9871       9870  
      9739       9740       9751       9750       9860       9861       9872       9871  
      9740       9741       9752       9751       9861       9862       9873       9872  
      9741       9742       9753       9752       9862       9863       9874       9873  
      9742       9743       9754       9753       9863       9864       9875       9874  
      9743       9744       9755       9754       9864       9865       9876       9875  
      9744       9745       9756       9755       9865       9866       9877       9876  
      9745       9746       9757       9756       9866       9867       9878       9877  
      9747       9748       9759       9758       9868       9869       9880       9879  
      9748       9749       9760       9759       9869       9870       9881       9880  
      9749       9750       9761       9760       9870       9871       9882       9881  
      9750       9751       9762       9761       9871       9872       9883       9882  
      9751       9752       9763       9762       9872       9873       9884       9883  
      9752       9753       9764       9763       9873       9874       9885       9884  
      9753       9754       9765       9764       9874       9875       9886       9885  
      9754       9755       9766       9765       9875       9876       9887       9886  
      9755       9756       9767       9766       9876       9877       9888       9887  
      9756       9757       9768       9767       9877       9878       9889       9888  
      9758       9759       9770       9769       9879       9880       9891       9890  
      9759       9760       9771       9770       9880       9881       9892       9891  
      9760       9761       9772       9771       9881       9882       9893       9892  
      9761       9762       9773       9772       9882       9883       9894       9893  
      9762       9763       9774       9773       9883       9884       9895       9894  
      9763       9764       9775       9774       9884       9885       9896       9895  
      9764       9765       9776       9775       9885       9886       9897       9896  
      9765       9766       9777       9776       9886       9887       9898       9897  
      9766       9767       9778       9777       9887       9888       9899       9898  
      9767       9768       9779       9778       9888       9889       9900       9899  
      9769       9770       9781       9780       9890       9891       9902       9901  
      9770       9771       9782       9781       9891       9892       9903       9902  
      9771       9772       9783       9782       9892       9893       9904       9903  
      9772       9773       9784       9783       9893       9894       9905       9904  
      9773       9774       9785       9784       9894       9895       9906       9905  
      9774       9775       9786       9785       9895       9896       9907       9906  
      9775       9776       9787       9786       9896       9897       9908       9907  
      9776       9777       9788       9787       9897       9898       9909       9908  
      9777       9778       9789       9788       9898       9899       9910       9909  
      9778       9779       9790       9789       9899       9900       9911       9910  
      9780       9781       9792       9791       9901       9902       9913       9912  
      9781       9782       9793       9792       9902       9903       9914       9913  
      9782       9783       9794       9793       9903       9904       9915       9914  
      9783       9784       9795       9794       9904       9905       9916       9915  
      9784       9785       9796       9795       9905       9906       9917       9916  
      9785       9786       9797       9796       9906       9907       9918       9917  
      9786       9787       9798       9797       9907       9908       9919       9918  
      9787       9788       9799       9798       9908       9909       9920       9919  
      9788       9789       9800       9799       9909       9910       9921       9920  
      9789       9790       9801       9800       9910       9911       9922       9921  
      9802       9803       9814       9813       9923       9924       9935       9934  
      9803       9804       9815       9814       9924       9925       9936       9935  
      9804       9805       9816       9815       9925       9926       9937       9936  
      9805       9806       9817       9816       9926       9927       9938       9937  
      9806       9807       9818       9817       9927       9928       9939       9938  
      9807       9808       9819       9818       9928       9929       9940       9939  
      9808       9809       9820       9819       9929       9930       9941       9940  
      9809       9810       9821       9820       9930       9931       9942       9941  
      9810       9811       9822       9821       9931       9932       9943       9942  
      9811       9812       9823       9822       9932       9933       9944       9943  
      9813       9814       9825       9824       9934       9935       9946       9945  
      9814       9815       9826       9825       9935       9936       9947       9946  
      9815       9816       9827       9826       9936       9937       9948       9947  
      9816       9817       9828       9827       9937       9938       9949       9948  
      9817       9818       9829       9828       9938       9939       9950       9949  
      9818       9819       9830       9829       9939       9940       9951       9950  
      9819       9820       9831       9830       9940       9941       9952       9951  
      9820       9821       9832       9831       9941       9942       9953       9952  
      9821       9822       9833       9832       9942       9943       9954       9953  
      9822       9823       9834       9833       9943       9944       9955       9954  
      9824       9825       9836       9835       9945       9946       9957       9956  
      9825       9826       9837       9836       9946       9947       9958       9957  
      9826       9827       9838       9837       9947       9948       9959       9958  
      9827       9828       9839       9838       9948       9949       9960       9959  
      9828       9829       9840       9839       9949       9950       9961       9960  
      9829       9830       9841       9840       9950       9951       9962       9961  
      9830       9831       9842       9841       9951       9952       9963       9962  
      9831       9832       9843       9842       9952       9953       9964       9963  
      9832       9833       9844       9843       9953       9954       9965       9964  
      9833       9834       9845       9844       9954       9955       9966       9965  
      9835       9836       9847       9846       9956       9957       9968       9967  
      9836       9837       9848       9847       9957       9958       9969       9968  
      9837       9838       9849       9848       9958       9959       9970       9969  
      9838       9839       9850       9849       9959       9960       9971       9970  
      9839       9840       9851       9850       9960       9961       9972       9971  
      9840       9841       9852       9851       9961       9962       9973       9972  
      9841       9842       9853       9852       9962       9963       9974       9973  
      9842       9843       9854       9853       9963       9964       9975       9974  
      9843       9844       9855       9854       9964       9965       9976       9975  
      9844       9845       9856       9855       9965       9966       9977       9976  
      9846       9847       9858       9857       9967       9968       9979       9978  
      9847       9848       9859       9858       9968       9969       9980       9979  
      9848       9849       9860       9859       9969       9970       9981       9980  
      9849       9850       9861       9860       9970       9971       9982       9981  
      9850       9851       9862       9861       9971       9972       9983       9982  
      9851       9852       9863       9862       9972       9973       9984       9983  
      9852       9853       9864       9863       9973       9974       9985       9984  
      9853       9854       9865       9864       9974       9975       9986       9985  
      9854       9855       9866       9865       9975       9976       9987       9986  
      9855       9856       9867       9866       9976       9977       9988       9987  
      9857       9858       9869       9868       9978       9979       9990       9989  
      9858       9859       9870       9869       9979       9980       9991       9990  
      9859       9860       9871       9870       9980       9981       9992       9991  
      9860       9861       9872       9871       9981       9982       9993       9992  
      9861       9862       9873       9872       9982       9983       9994       9993  
      9862       9863       9874       9873       9983       9984       9995       9994  
      9863       9864       9875       9874       9984       9985       9996       9995  
      9864       9865       9876       9875       9985       9986       9997       9996  
      9865       9866       9877       9876       9986       9987       9998       9997  
      9866       9867       9878       9877       9987       9988       9999       9998  
      9868       9869       9880       9879       9989       9990      10001      10000  
      9869       9870       9881       9880       9990       9991      10002      10001  
      9870       9871       9882       9881       9991       9992      10003      10002  
      9871       9872       9883       9882       9992       9993      10004      10003  
      9872       9873       9884       9883       9993       9994      10005      10004  
      9873       9874       9885       9884       9994       9995      10006      10005  
      9874       9875       9886       9885       9995       9996      10007      10006  
      9875       9876       9887       9886       9996       9997      10008      10007  
      9876       9877       9888       9887       9997       9998      10009      10008  
      9877       9878       9889       9888       9998       9999      10010      10009  
      9879       9880       9891       9890      10000      10001      10012      10011  
      9880       9881       9892       9891      10001      10002      10013      10012  
      9881       9882       9893       9892      10002      10003      10014      10013  
      9882       9883       9894       9893      10003      10004      10015      10014  
      9883       9884       9895       9894      10004      10005      10016      10015  
      9884       9885       9896       9895      10005      10006      10017      10016  
      9885       9886       9897       9896      10006      10007      10018      10017  
      9886       9887       9898       9897      10007      10008      10019      10018  
      9887       9888       9899       9898      10008      10009      10020      10019  
      9888       9889       9900       9899      10009      10010      10021      10020  
      9890       9891       9902       9901      10011      10012      10023      10022  
      9891       9892       9903       9902      10012      10013      10024      10023  
      9892       9893       9904       9903      10013      10014      10025      10024  
      9893       9894       9905       9904      10014      10015      10026      10025  
      9894       9895       9906       9905      10015      10016      10027      10026  
      9895       9896       9907       9906      10016      10017      10028      10027  
      9896       9897       9908       9907      10017      10018      10029      10028  
      9897       9898       9909       9908      10018      10019      10030      10029  
      9898       9899       9910       9909      10019      10020      10031      10030  
      9899       9900       9911       9910      10020      10021      10032      10031  
      9901       9902       9913       9912      10022      10023      10034      10033  
      9902       9903       9914       9913      10023      10024      10035      10034  
      9903       9904       9915       9914      10024      10025      10036      10035  
      9904       9905       9916       9915      10025      10026      10037      10036  
      9905       9906       9917       9916      10026      10027      10038      10037  
      9906       9907       9918       9917      10027      10028      10039      10038  
      9907       9908       9919       9918      10028      10029      10040      10039  
      9908       9909       9920       9919      10029      10030      10041      10040  
      9909       9910       9921       9920      10030      10031      10042      10041  
      9910       9911       9922       9921      10031      10032      10043      10042  
      9923       9924       9935       9934      10044      10045      10056      10055  
      9924       9925       9936       9935      10045      10046      10057      10056  
      9925       9926       9937       9936      10046      10047      10058      10057  
      9926       9927       9938       9937      10047      10048      10059      10058  
      9927       9928       9939       9938      10048      10049      10060      10059  
      9928       9929       9940       9939      10049      10050      10061      10060  
      9929       9930       9941       9940      10050      10051      10062      10061  
      9930       9931       9942       9941      10051      10052      10063      10062  
      9931       9932       9943       9942      10052      10053      10064      10063  
      9932       9933       9944       9943      10053      10054      10065      10064  
      9934       9935       9946       9945      10055      10056      10067      10066  
      9935       9936       9947       9946      10056      10057      10068      10067  
      9936       9937       9948       9947      10057      10058      10069      10068  
      9937       9938       9949       9948      10058      10059      10070      10069  
      9938       9939       9950       9949      10059      10060      10071      10070  
      9939       9940       9951       9950      10060      10061      10072      10071  
      9940       9941       9952       9951      10061      10062      10073      10072  
      9941       9942       9953       9952      10062      10063      10074      10073  
      9942       9943       9954       9953      10063      10064      10075      10074  
      9943       9944       9955       9954      10064      10065      10076      10075  
      9945       9946       9957       9956      10066      10067      10078      10077  
      9946       9947       9958       9957      10067      10068      10079      10078  
      9947       9948       9959       9958      10068      10069      10080      10079  
      9948       9949       9960       9959      10069      10070      10081      10080  
      9949       9950       9961       9960      10070      10071      10082      10081  
      9950       9951       9962       9961      10071      10072      10083      10082  
      9951       9952       9963       9962      10072      10073      10084      10083  
      9952       9953       9964       9963      10073      10074      10085      10084  
      9953       9954       9965       9964      10074      10075      10086      10085  
      9954       9955       9966       9965      10075      10076      10087      10086  
      9956       9957       9968       9967      10077      10078      10089      10088  
      9957       9958       9969       9968      10078      10079      10090      10089  
      9958       9959       9970       9969      10079      10080      10091      10090  
      9959       9960       9971       9970      10080      10081      10092      10091  
      9960       9961       9972       9971      10081      10082      10093      10092  
      9961       9962       9973       9972      10082      10083      10094      10093  
      9962       9963       9974       9973      10083      10084      10095      10094  
      9963       9964       9975       9974      10084      10085      10096      10095  
      9964       9965       9976       9975      10085      10086      10097      10096  
      9965       9966       9977       9976      10086      10087      10098      10097  
      9967       9968       9979       9978      10088      10089      10100      10099  
      9968       9969       9980       9979      10089      10090      10101      10100  
      9969       9970       9981       9980      10090      10091      10102      10101  
      9970       9971       9982       9981      10091      10092      10103      10102  
      9971       9972       9983       9982      10092      10093      10104      10103  
      9972       9973       9984       9983      10093      10094      10105      10104  
      9973       9974       9985       9984      10094      10095      10106      10105  
      9974       9975       9986       9985      10095      10096      10107      10106  
      9975       9976       9987       9986      10096      10097      10108      10107  
      9976       9977       9988       9987      10097      10098      10109      10108  
      9978       9979       9990       9989      10099      10100      10111      10110  
      9979       9980       9991       9990      10100      10101      10112      10111  
      9980       9981       9992       9991      10101      10102      10113      10112  
      9981       9982       9993       9992      10102      10103      10114      10113  
      9982       9983       9994       9993      10103      10104      10115      10114  
      9983       9984       9995       9994      10104      10105      10116      10115  
      9984       9985       9996       9995      10105      10106      10117      10116  
      9985       9986       9997       9996      10106      10107      10118      10117  
      9986       9987       9998       9997      10107      10108      10119      10118  
      9987       9988       9999       9998      10108      10109      10120      10119  
      9989       9990      10001      10000      10110      10111      10122      10121  
      9990       9991      10002      10001      10111      10112      10123      10122  
      9991       9992      10003      10002      10112      10113      10124      10123  
      9992       9993      10004      10003      10113      10114      10125      10124  
      9993       9994      10005      10004      10114      10115      10126      10125  
      9994       9995      10006      10005      10115      10116      10127      10126  
      9995       9996      10007      10006      10116      10117      10128      10127  
      9996       9997      10008      10007      10117      10118      10129      10128  
      9997       9998      10009      10008      10118      10119      10130      10129  
      9998       9999      10010      10009      10119      10120      10131      10130  
     10000      10001      10012      10011      10121      10122      10133      10132  
     10001      10002      10013      10012      10122      10123      10134      10133  
     10002      10003      10014      10013      10123      10124      10135      10134  
     10003      10004      10015      10014      10124      10125      10136      10135  
     10004      10005      10016      10015      10125      10126      10137      10136  
     10005      10006      10017      10016      10126      10127      10138      10137  
     10006      10007      10018      10017      10127      10128      10139      10138  
     10007      10008      10019      10018      10128      10129      10140      10139  
     10008      10009      10020      10019      10129      10130      10141      10140  
     10009      10010      10021      10020      10130      10131      10142      10141  
     10011      10012      10023      10022      10132      10133      10144      10143  
     10012      10013      10024      10023      10133      10134      10145      10144  
     10013      10014      10025      10024      10134      10135      10146      10145  
     10014      10015      10026      10025      10135      10136      10147      10146  
     10015      10016      10027      10026      10136      10137      10148      10147  
     10016      10017      10028      10027      10137      10138      10149      10148  
     10017      10018      10029      10028      10138      10139      10150      10149  
     10018      10019      10030      10029      10139      10140      10151      10150  
     10019      10020      10031      10030      10140      10141      10152      10151  
     10020      10021      10032      10031      10141      10142      10153      10152  
     10022      10023      10034      10033      10143      10144      10155      10154  
     10023      10024      10035      10034      10144      10145      10156      10155  
     10024      10025      10036      10035      10145      10146      10157      10156  
     10025      10026      10037      10036      10146      10147      10158      10157  
     10026      10027      10038      10037      10147      10148      10159      10158  
     10027      10028      10039      10038      10148      10149      10160      10159  
     10028      10029      10040      10039      10149      10150      10161      10160  
     10029      10030      10041      10040      10150      10151      10162      10161  
     10030      10031      10042      10041      10151      10152      10163      10162  
     10031      10032      10043      10042      10152      10153      10164      10163  
     10044      10045      10056      10055      10165      10166      10177      10176  
     10045      10046      10057      10056      10166      10167      10178      10177  
     10046      10047      10058      10057      10167      10168      10179      10178  
     10047      10048      10059      10058      10168      10169      10180      10179  
     10048      10049      10060      10059      10169      10170      10181      10180  
     10049      10050      10061      10060      10170      10171      10182      10181  
     10050      10051      10062      10061      10171      10172      10183      10182  
     10051      10052      10063      10062      10172      10173      10184      10183  
     10052      10053      10064      10063      10173      10174      10185      10184  
     10053      10054      10065      10064      10174      10175      10186      10185  
     10055      10056      10067      10066      10176      10177      10188      10187  
     10056      10057      10068      10067      10177      10178      10189      10188  
     10057      10058      10069      10068      10178      10179      10190      10189  
     10058      10059      10070      10069      10179      10180      10191      10190  
     10059      10060      10071      10070      10180      10181      10192      10191  
     10060      10061      10072      10071      10181      10182      10193      10192  
     10061      10062      10073      10072      10182      10183      10194      10193  
     10062      10063      10074      10073      10183      10184      10195      10194  
     10063      10064      10075      10074      10184      10185      10196      10195  
     10064      10065      10076      10075      10185      10186      10197      10196  
     10066      10067      10078      10077      10187      10188      10199      10198  
     10067      10068      10079      10078      10188      10189      10200      10199  
     10068      10069      10080      10079      10189      10190      10201      10200  
     10069      10070      10081      10080      10190      10191      10202      10201  
     10070      10071      10082      10081      10191      10192      10203      10202  
     10071      10072      10083      10082      10192      10193      10204      10203  
     10072      10073      10084      10083      10193      10194      10205      10204  
     10073      10074      10085      10084      10194      10195      10206      10205  
     10074      10075      10086      10085      10195      10196      10207      10206  
     10075      10076      10087      10086      10196      10197      10208      10207  
     10077      10078      10089      10088      10198      10199      10210      10209  
     10078      10079      10090      10089      10199      10200      10211      10210  
     10079      10080      10091      10090      10200      10201      10212      10211  
     10080      10081      10092      10091      10201      10202      10213      10212  
     10081      10082      10093      10092      10202      10203      10214      10213  
     10082      10083      10094      10093      10203      10204      10215      10214  
     10083      10084      10095      10094      10204      10205      10216      10215  
     10084      10085      10096      10095      10205      10206      10217      10216  
     10085      10086      10097      10096      10206      10207      10218      10217  
     10086      10087      10098      10097      10207      10208      10219      10218  
     10088      10089      10100      10099      10209      10210      10221      10220  
     10089      10090      10101      10100      10210      10211      10222      10221  
     10090      10091      10102      10101      10211      10212      10223      10222  
     10091      10092      10103      10102      10212      10213      10224      10223  
     10092      10093      10104      10103      10213      10214      10225      10224  
     10093      10094      10105      10104      10214      10215      10226      10225  
     10094      10095      10106      10105      10215      10216      10227      10226  
     10095      10096      10107      10106      10216      10217      10228      10227  
     10096      10097      10108      10107      10217      10218      10229      10228  
     10097      10098      10109      10108      10218      10219      10230      10229  
     10099      10100      10111      10110      10220      10221      10232      10231  
     10100      10101      10112      10111      10221      10222      10233      10232  
     10101      10102      10113      10112      10222      10223      10234      10233  
     10102      10103      10114      10113      10223      10224      10235      10234  
     10103      10104      10115      10114      10224      10225      10236      10235  
     10104      10105      10116      10115      10225      10226      10237      10236  
     10105      10106      10117      10116      10226      10227      10238      10237  
     10106      10107      10118      10117      10227      10228      10239      10238  
     10107      10108      10119      10118      10228      10229      10240      10239  
     10108      10109      10120      10119      10229      10230      10241      10240  
     10110      10111      10122      10121      10231      10232      10243      10242  
     10111      10112      10123      10122      10232      10233      10244      10243  
     10112      10113      10124      10123      10233      10234      10245      10244  
     10113      10114      10125      10124      10234      10235      10246      10245  
     10114      10115      10126      10125      10235      10236      10247      10246  
     10115      10116      10127      10126      10236      10237      10248      10247  
     10116      10117      10128      10127      10237      10238      10249      10248  
     10117      10118      10129      10128      10238      10239      10250      10249  
     10118      10119      10130      10129      10239      10240      10251      10250  
     10119      10120      10131      10130      10240      10241      10252      10251  
     10121      10122      10133      10132      10242      10243      10254      10253  
     10122      10123      10134      10133      10243      10244      10255      10254  
     10123      10124      10135      10134      10244      10245      10256      10255  
     10124      10125      10136      10135      10245      10246      10257      10256  
     10125      10126      10137      10136      10246      10247      10258      10257  
     10126      10127      10138      10137      10247      10248      10259      10258  
     10127      10128      10139      10138      10248      10249      10260      10259  
     10128      10129      10140      10139      10249      10250      10261      10260  
     10129      10130      10141      10140      10250      10251      10262      10261  
     10130      10131      10142      10141      10251      10252      10263      10262  
     10132      10133      10144      10143      10253      10254      10265      10264  
     10133      10134      10145      10144      10254      10255      10266      10265  
     10134      10135      10146      10145      10255      10256      10267      10266  
     10135      10136      10147      10146      10256      10257      10268      10267  
     10136      10137      10148      10147      10257      10258      10269      10268  
     10137      10138      10149      10148      10258      10259      10270      10269  
     10138      10139      10150      10149      10259      10260      10271      10270  
     10139      10140      10151      10150      10260      10261      10272      10271  
     10140      10141      10152      10151      10261      10262      10273      10272  
     10141      10142      10153      10152      10262      10263      10274      10273  
     10143      10144      10155      10154      10264      10265      10276      10275  
     10144      10145      10156      10155      10265      10266      10277      10276  
     10145      10146      10157      10156      10266      10267      10278      10277  
     10146      10147      10158      10157      10267      10268      10279      10278  
     10147      10148      10159      10158      10268      10269      10280      10279  
     10148      10149      10160      10159      10269      10270      10281      10280  
     10149      10150      10161      10160      10270      10271      10282      10281  
     10150      10151      10162      10161      10271      10272      10283      10282  
     10151      10152      10163      10162      10272      10273      10284      10283  
     10152      10153      10164      10163      10273      10274      10285      10284  
     10165      10166      10177      10176      10286      10287      10298      10297  
     10166      10167      10178      10177      10287      10288      10299      10298  
     10167      10168      10179      10178      10288      10289      10300      10299  
     10168      10169      10180      10179      10289      10290      10301      10300  
     10169      10170      10181      10180      10290      10291      10302      10301  
     10170      10171      10182      10181      10291      10292      10303      10302  
     10171      10172      10183      10182      10292      10293      10304      10303  
     10172      10173      10184      10183      10293      10294      10305      10304  
     10173      10174      10185      10184      10294      10295      10306      10305  
     10174      10175      10186      10185      10295      10296      10307      10306  
     10176      10177      10188      10187      10297      10298      10309      10308  
     10177      10178      10189      10188      10298      10299      10310      10309  
     10178      10179      10190      10189      10299      10300      10311      10310  
     10179      10180      10191      10190      10300      10301      10312      10311  
     10180      10181      10192      10191      10301      10302      10313      10312  
     10181      10182      10193      10192      10302      10303      10314      10313  
     10182      10183      10194      10193      10303      10304      10315      10314  
     10183      10184      10195      10194      10304      10305      10316      10315  
     10184      10185      10196      10195      10305      10306      10317      10316  
     10185      10186      10197      10196      10306      10307      10318      10317  
     10187      10188      10199      10198      10308      10309      10320      10319  
     10188      10189      10200      10199      10309      10310      10321      10320  
     10189      10190      10201      10200      10310      10311      10322      10321  
     10190      10191      10202      10201      10311      10312      10323      10322  
     10191      10192      10203      10202      10312      10313      10324      10323  
     10192      10193      10204      10203      10313      10314      10325      10324  
     10193      10194      10205      10204      10314      10315      10326      10325  
     10194      10195      10206      10205      10315      10316      10327      10326  
     10195      10196      10207      10206      10316      10317      10328      10327  
     10196      10197      10208      10207      10317      10318      10329      10328  
     10198      10199      10210      10209      10319      10320      10331      10330  
     10199      10200      10211      10210      10320      10321      10332      10331  
     10200      10201      10212      10211      10321      10322      10333      10332  
     10201      10202      10213      10212      10322      10323      10334      10333  
     10202      10203      10214      10213      10323      10324      10335      10334  
     10203      10204      10215      10214      10324      10325      10336      10335  
     10204      10205      10216      10215      10325      10326      10337      10336  
     10205      10206      10217      10216      10326      10327      10338      10337  
     10206      10207      10218      10217      10327      10328      10339      10338  
     10207      10208      10219      10218      10328      10329      10340      10339  
     10209      10210      10221      10220      10330      10331      10342      10341  
     10210      10211      10222      10221      10331      10332      10343      10342  
     10211      10212      10223      10222      10332      10333      10344      10343  
     10212      10213      10224      10223      10333      10334      10345      10344  
     10213      10214      10225      10224      10334      10335      10346      10345  
     10214      10215      10226      10225      10335      10336      10347      10346  
     10215      10216      10227      10226      10336      10337      10348      10347  
     10216      10217      10228      10227      10337      10338      10349      10348  
     10217      10218      10229      10228      10338      10339      10350      10349  
     10218      10219      10230      10229      10339      10340      10351      10350  
     10220      10221      10232      10231      10341      10342      10353      10352  
     10221      10222      10233      10232      10342      10343      10354      10353  
     10222      10223      10234      10233      10343      10344      10355      10354  
     10223      10224      10235      10234      10344      10345      10356      10355  
     10224      10225      10236      10235      10345      10346      10357      10356  
     10225      10226      10237      10236      10346      10347      10358      10357  
     10226      10227      10238      10237      10347      10348      10359      10358  
     10227      10228      10239      10238      10348      10349      10360      10359  
     10228      10229      10240      10239      10349      10350      10361      10360  
     10229      10230      10241      10240      10350      10351      10362      10361  
     10231      10232      10243      10242      10352      10353      10364      10363  
     10232      10233      10244      10243      10353      10354      10365      10364  
     10233      10234      10245      10244      10354      10355      10366      10365  
     10234      10235      10246      10245      10355      10356      10367      10366  
     10235      10236      10247      10246      10356      10357      10368      10367  
     10236      10237      10248      10247      10357      10358      10369      10368  
     10237      10238      10249      10248      10358      10359      10370      10369  
     10238      10239      10250      10249      10359      10360      10371      10370  
     10239      10240      10251      10250      10360      10361      10372      10371  
     10240      10241      10252      10251      10361      10362      10373      10372  
     10242      10243      10254      10253      10363      10364      10375      10374  
     10243      10244      10255      10254      10364      10365      10376      10375  
     10244      10245      10256      10255      10365      10366      10377      10376  
     10245      10246      10257      10256      10366      10367      10378      10377  
     10246      10247      10258      10257      10367      10368      10379      10378  
     10247      10248      10259      10258      10368      10369      10380      10379  
     10248      10249      10260      10259      10369      10370      10381      10380  
     10249      10250      10261      10260      10370      10371      10382      10381  
     10250      10251      10262      10261      10371      10372      10383      10382  
     10251      10252      10263      10262      10372      10373      10384      10383  
     10253      10254      10265      10264      10374      10375      10386      10385  
     10254      10255      10266      10265      10375      10376      10387      10386  
     10255      10256      10267      10266      10376      10377      10388      10387  
     10256      10257      10268      10267      10377      10378      10389      10388  
     10257      10258      10269      10268      10378      10379      10390      10389  
     10258      10259      10270      10269      10379      10380      10391      10390  
     10259      10260      10271      10270      10380      10381      10392      10391  
     10260      10261      10272      10271      10381      10382      10393      10392  
     10261      10262      10273      10272      10382      10383      10394      10393  
     10262      10263      10274      10273      10383      10384      10395      10394  
     10264      10265      10276      10275      10385      10386      10397      10396  
     10265      10266      10277      10276      10386      10387      10398      10397  
     10266      10267      10278      10277      10387      10388      10399      10398  
     10267      10268      10279      10278      10388      10389      10400      10399  
     10268      10269      10280      10279      10389      10390      10401      10400  
     10269      10270      10281      10280      10390      10391      10402      10401  
     10270      10271      10282      10281      10391      10392      10403      10402  
     10271      10272      10283      10282      10392      10393      10404      10403  
     10272      10273      10284      10283      10393      10394      10405      10404  
     10273      10274      10285      10284      10394      10395      10406      10405  
     10286      10287      10298      10297      10407      10408      10419      10418  
     10287      10288      10299      10298      10408      10409      10420      10419  
     10288      10289      10300      10299      10409      10410      10421      10420  
     10289      10290      10301      10300      10410      10411      10422      10421  
     10290      10291      10302      10301      10411      10412      10423      10422  
     10291      10292      10303      10302      10412      10413      10424      10423  
     10292      10293      10304      10303      10413      10414      10425      10424  
     10293      10294      10305      10304      10414      10415      10426      10425  
     10294      10295      10306      10305      10415      10416      10427      10426  
     10295      10296      10307      10306      10416      10417      10428      10427  
     10297      10298      10309      10308      10418      10419      10430      10429  
     10298      10299      10310      10309      10419      10420      10431      10430  
     10299      10300      10311      10310      10420      10421      10432      10431  
     10300      10301      10312      10311      10421      10422      10433      10432  
     10301      10302      10313      10312      10422      10423      10434      10433  
     10302      10303      10314      10313      10423      10424      10435      10434  
     10303      10304      10315      10314      10424      10425      10436      10435  
     10304      10305      10316      10315      10425      10426      10437      10436  
     10305      10306      10317      10316      10426      10427      10438      10437  
     10306      10307      10318      10317      10427      10428      10439      10438  
     10308      10309      10320      10319      10429      10430      10441      10440  
     10309      10310      10321      10320      10430      10431      10442      10441  
     10310      10311      10322      10321      10431      10432      10443      10442  
     10311      10312      10323      10322      10432      10433      10444      10443  
     10312      10313      10324      10323      10433      10434      10445      10444  
     10313      10314      10325      10324      10434      10435      10446      10445  
     10314      10315      10326      10325      10435      10436      10447      10446  
     10315      10316      10327      10326      10436      10437      10448      10447  
     10316      10317      10328      10327      10437      10438      10449      10448  
     10317      10318      10329      10328      10438      10439      10450      10449  
     10319      10320      10331      10330      10440      10441      10452      10451  
     10320      10321      10332      10331      10441      10442      10453      10452  
     10321      10322      10333      10332      10442      10443      10454      10453  
     10322      10323      10334      10333      10443      10444      10455      10454  
     10323      10324      10335      10334      10444      10445      10456      10455  
     10324      10325      10336      10335      10445      10446      10457      10456  
     10325      10326      10337      10336      10446      10447      10458      10457  
     10326      10327      10338      10337      10447      10448      10459      10458  
     10327      10328      10339      10338      10448      10449      10460      10459  
     10328      10329      10340      10339      10449      10450      10461      10460  
     10330      10331      10342      10341      10451      10452      10463      10462  
     10331      10332      10343      10342      10452      10453      10464      10463  
     10332      10333      10344      10343      10453      10454      10465      10464  
     10333      10334      10345      10344      10454      10455      10466      10465  
     10334      10335      10346      10345      10455      10456      10467      10466  
     10335      10336      10347      10346      10456      10457      10468      10467  
     10336      10337      10348      10347      10457      10458      10469      10468  
     10337      10338      10349      10348      10458      10459      10470      10469  
     10338      10339      10350      10349      10459      10460      10471      10470  
     10339      10340      10351      10350      10460      10461      10472      10471  
     10341      10342      10353      10352      10462      10463      10474      10473  
     10342      10343      10354      10353      10463      10464      10475      10474  
     10343      10344      10355      10354      10464      10465      10476      10475  
     10344      10345      10356      10355      10465      10466      10477      10476  
     10345      10346      10357      10356      10466      10467      10478      10477  
     10346      10347      10358      10357      10467      10468      10479      10478  
     10347      10348      10359      10358      10468      10469      10480      10479  
     10348      10349      10360      10359      10469      10470      10481      10480  
     10349      10350      10361      10360      10470      10471      10482      10481  
     10350      10351      10362      10361      10471      10472      10483      10482  
     10352      10353      10364      10363      10473      10474      10485      10484  
     10353      10354      10365      10364      10474      10475      10486      10485  
     10354      10355      10366      10365      10475      10476      10487      10486  
     10355      10356      10367      10366      10476      10477      10488      10487  
     10356      10357      10368      10367      10477      10478      10489      10488  
     10357      10358      10369      10368      10478      10479      10490      10489  
     10358      10359      10370      10369      10479      10480      10491      10490  
     10359      10360      10371      10370      10480      10481      10492      10491  
     10360      10361      10372      10371      10481      10482      10493      10492  
     10361      10362      10373      10372      10482      10483      10494      10493  
     10363      10364      10375      10374      10484      10485      10496      10495  
     10364      10365      10376      10375      10485      10486      10497      10496  
     10365      10366      10377      10376      10486      10487      10498      10497  
     10366      10367      10378      10377      10487      10488      10499      10498  
     10367      10368      10379      10378      10488      10489      10500      10499  
     10368      10369      10380      10379      10489      10490      10501      10500  
     10369      10370      10381      10380      10490      10491      10502      10501  
     10370      10371      10382      10381      10491      10492      10503      10502  
     10371      10372      10383      10382      10492      10493      10504      10503  
     10372      10373      10384      10383      10493      10494      10505      10504  
     10374      10375      10386      10385      10495      10496      10507      10506  
     10375      10376      10387      10386      10496      10497      10508      10507  
     10376      10377      10388      10387      10497      10498      10509      10508  
     10377      10378      10389      10388      10498      10499      10510      10509  
     10378      10379      10390      10389      10499      10500      10511      10510  
     10379      10380      10391      10390      10500      10501      10512      10511  
     10380      10381      10392      10391      10501      10502      10513      10512  
     10381      10382      10393      10392      10502      10503      10514      10513  
     10382      10383      10394      10393      10503      10504      10515      10514  
     10383      10384      10395      10394      10504      10505      10516      10515  
     10385      10386      10397      10396      10506      10507      10518      10517  
     10386      10387      10398      10397      10507      10508      10519      10518  
     10387      10388      10399      10398      10508      10509      10520      10519  
     10388      10389      10400      10399      10509      10510      10521      10520  
     10389      10390      10401      10400      10510      10511      10522      10521  
     10390      10391      10402      10401      10511      10512      10523      10522  
     10391      10392      10403      10402      10512      10513      10524      10523  
     10392      10393      10404      10403      10513      10514      10525      10524  
     10393      10394      10405      10404      10514      10515      10526      10525  
     10394      10395      10406      10405      10515      10516      10527      10526  
     10407      10408      10419      10418      10528      10529      10540      10539  
     10408      10409      10420      10419      10529      10530      10541      10540  
     10409      10410      10421      10420      10530      10531      10542      10541  
     10410      10411      10422      10421      10531      10532      10543      10542  
     10411      10412      10423      10422      10532      10533      10544      10543  
     10412      10413      10424      10423      10533      10534      10545      10544  
     10413      10414      10425      10424      10534      10535      10546      10545  
     10414      10415      10426      10425      10535      10536      10547      10546  
     10415      10416      10427      10426      10536      10537      10548      10547  
     10416      10417      10428      10427      10537      10538      10549      10548  
     10418      10419      10430      10429      10539      10540      10551      10550  
     10419      10420      10431      10430      10540      10541      10552      10551  
     10420      10421      10432      10431      10541      10542      10553      10552  
     10421      10422      10433      10432      10542      10543      10554      10553  
     10422      10423      10434      10433      10543      10544      10555      10554  
     10423      10424      10435      10434      10544      10545      10556      10555  
     10424      10425      10436      10435      10545      10546      10557      10556  
     10425      10426      10437      10436      10546      10547      10558      10557  
     10426      10427      10438      10437      10547      10548      10559      10558  
     10427      10428      10439      10438      10548      10549      10560      10559  
     10429      10430      10441      10440      10550      10551      10562      10561  
     10430      10431      10442      10441      10551      10552      10563      10562  
     10431      10432      10443      10442      10552      10553      10564      10563  
     10432      10433      10444      10443      10553      10554      10565      10564  
     10433      10434      10445      10444      10554      10555      10566      10565  
     10434      10435      10446      10445      10555      10556      10567      10566  
     10435      10436      10447      10446      10556      10557      10568      10567  
     10436      10437      10448      10447      10557      10558      10569      10568  
     10437      10438      10449      10448      10558      10559      10570      10569  
     10438      10439      10450      10449      10559      10560      10571      10570  
     10440      10441      10452      10451      10561      10562      10573      10572  
     10441      10442      10453      10452      10562      10563      10574      10573  
     10442      10443      10454      10453      10563      10564      10575      10574  
     10443      10444      10455      10454      10564      10565      10576      10575  
     10444      10445      10456      10455      10565      10566      10577      10576  
     10445      10446      10457      10456      10566      10567      10578      10577  
     10446      10447      10458      10457      10567      10568      10579      10578  
     10447      10448      10459      10458      10568      10569      10580      10579  
     10448      10449      10460      10459      10569      10570      10581      10580  
     10449      10450      10461      10460      10570      10571      10582      10581  
     10451      10452      10463      10462      10572      10573      10584      10583  
     10452      10453      10464      10463      10573      10574      10585      10584  
     10453      10454      10465      10464      10574      10575      10586      10585  
     10454      10455      10466      10465      10575      10576      10587      10586  
     10455      10456      10467      10466      10576      10577      10588      10587  
     10456      10457      10468      10467      10577      10578      10589      10588  
     10457      10458      10469      10468      10578      10579      10590      10589  
     10458      10459      10470      10469      10579      10580      10591      10590  
     10459      10460      10471      10470      10580      10581      10592      10591  
     10460      10461      10472      10471      10581      10582      10593      10592  
     10462      10463      10474      10473      10583      10584      10595      10594  
     10463      10464      10475      10474      10584      10585      10596      10595  
     10464      10465      10476      10475      10585      10586      10597      10596  
     10465      10466      10477      10476      10586      10587      10598      10597  
     10466      10467      10478      10477      10587      10588      10599      10598  
     10467      10468      10479      10478      10588      10589      10600      10599  
     10468      10469      10480      10479      10589      10590      10601      10600  
     10469      10470      10481      10480      10590      10591      10602      10601  
     10470      10471      10482      10481      10591      10592      10603      10602  
     10471      10472      10483      10482      10592      10593      10604      10603  
     10473      10474      10485      10484      10594      10595      10606      10605  
     10474      10475      10486      10485      10595      10596      10607      10606  
     10475      10476      10487      10486      10596      10597      10608      10607  
     10476      10477      10488      10487      10597      10598      10609      10608  
     10477      10478      10489      10488      10598      10599      10610      10609  
     10478      10479      10490      10489      10599      10600      10611      10610  
     10479      10480      10491      10490      10600      10601      10612      10611  
     10480      10481      10492      10491      10601      10602      10613      10612  
     10481      10482      10493      10492      10602      10603      10614      10613  
     10482      10483      10494      10493      10603      10604      10615      10614  
     10484      10485      10496      10495      10605      10606      10617      10616  
     10485      10486      10497      10496      10606      10607      10618      10617  
     10486      10487      10498      10497      10607      10608      10619      10618  
     10487      10488      10499      10498      10608      10609      10620      10619  
     10488      10489      10500      10499      10609      10610      10621      10620  
     10489      10490      10501      10500      10610      10611      10622      10621  
     10490      10491      10502      10501      10611      10612      10623      10622  
     10491      10492      10503      10502      10612      10613      10624      10623  
     10492      10493      10504      10503      10613      10614      10625      10624  
     10493      10494      10505      10504      10614      10615      10626      10625  
     10495      10496      10507      10506      10616      10617      10628      10627  
     10496      10497      10508      10507      10617      10618      10629      10628  
     10497      10498      10509      10508      10618      10619      10630      10629  
     10498      10499      10510      10509      10619      10620      10631      10630  
     10499      10500      10511      10510      10620      10621      10632      10631  
     10500      10501      10512      10511      10621      10622      10633      10632  
     10501      10502      10513      10512      10622      10623      10634      10633  
     10502      10503      10514      10513      10623      10624      10635      10634  
     10503      10504      10515      10514      10624      10625      10636      10635  
     10504      10505      10516      10515      10625      10626      10637      10636  
     10506      10507      10518      10517      10627      10628      10639      10638  
     10507      10508      10519      10518      10628      10629      10640      10639  
     10508      10509      10520      10519      10629      10630      10641      10640  
     10509      10510      10521      10520      10630      10631      10642      10641  
     10510      10511      10522      10521      10631      10632      10643      10642  
     10511      10512      10523      10522      10632      10633      10644      10643  
     10512      10513      10524      10523      10633      10634      10645      10644  
     10513      10514      10525      10524      10634      10635      10646      10645  
     10514      10515      10526      10525      10635      10636      10647      10646  
     10515      10516      10527      10526      10636      10637      10648      10647  
     10528      10529      10540      10539      10649      10650      10661      10660  
     10529      10530      10541      10540      10650      10651      10662      10661  
     10530      10531      10542      10541      10651      10652      10663      10662  
     10531      10532      10543      10542      10652      10653      10664      10663  
     10532      10533      10544      10543      10653      10654      10665      10664  
     10533      10534      10545      10544      10654      10655      10666      10665  
     10534      10535      10546      10545      10655      10656      10667      10666  
     10535      10536      10547      10546      10656      10657      10668      10667  
     10536      10537      10548      10547      10657      10658      10669      10668  
     10537      10538      10549      10548      10658      10659      10670      10669  
     10539      10540      10551      10550      10660      10661      10672      10671  
     10540      10541      10552      10551      10661      10662      10673      10672  
     10541      10542      10553      10552      10662      10663      10674      10673  
     10542      10543      10554      10553      10663      10664      10675      10674  
     10543      10544      10555      10554      10664      10665      10676      10675  
     10544      10545      10556      10555      10665      10666      10677      10676  
     10545      10546      10557      10556      10666      10667      10678      10677  
     10546      10547      10558      10557      10667      10668      10679      10678  
     10547      10548      10559      10558      10668      10669      10680      10679  
     10548      10549      10560      10559      10669      10670      10681      10680  
     10550      10551      10562      10561      10671      10672      10683      10682  
     10551      10552      10563      10562      10672      10673      10684      10683  
     10552      10553      10564      10563      10673      10674      10685      10684  
     10553      10554      10565      10564      10674      10675      10686      10685  
     10554      10555      10566      10565      10675      10676      10687      10686  
     10555      10556      10567      10566      10676      10677      10688      10687  
     10556      10557      10568      10567      10677      10678      10689      10688  
     10557      10558      10569      10568      10678      10679      10690      10689  
     10558      10559      10570      10569      10679      10680      10691      10690  
     10559      10560      10571      10570      10680      10681      10692      10691  
     10561      10562      10573      10572      10682      10683      10694      10693  
     10562      10563      10574      10573      10683      10684      10695      10694  
     10563      10564      10575      10574      10684      10685      10696      10695  
     10564      10565      10576      10575      10685      10686      10697      10696  
     10565      10566      10577      10576      10686      10687      10698      10697  
     10566      10567      10578      10577      10687      10688      10699      10698  
     10567      10568      10579      10578      10688      10689      10700      10699  
     10568      10569      10580      10579      10689      10690      10701      10700  
     10569      10570      10581      10580      10690      10691      10702      10701  
     10570      10571      10582      10581      10691      10692      10703      10702  
     10572      10573      10584      10583      10693      10694      10705      10704  
     10573      10574      10585      10584      10694      10695      10706      10705  
     10574      10575      10586      10585      10695      10696      10707      10706  
     10575      10576      10587      10586      10696      10697      10708      10707  
     10576      10577      10588      10587      10697      10698      10709      10708  
     10577      10578      10589      10588      10698      10699      10710      10709  
     10578      10579      10590      10589      10699      10700      10711      10710  
     10579      10580      10591      10590      10700      10701      10712      10711  
     10580      10581      10592      10591      10701      10702      10713      10712  
     10581      10582      10593      10592      10702      10703      10714      10713  
     10583      10584      10595      10594      10704      10705      10716      10715  
     10584      10585      10596      10595      10705      10706      10717      10716  
     10585      10586      10597      10596      10706      10707      10718      10717  
     10586      10587      10598      10597      10707      10708      10719      10718  
     10587      10588      10599      10598      10708      10709      10720      10719  
     10588      10589      10600      10599      10709      10710      10721      10720  
     10589      10590      10601      10600      10710      10711      10722      10721  
     10590      10591      10602      10601      10711      10712      10723      10722  
     10591      10592      10603      10602      10712      10713      10724      10723  
     10592      10593      10604      10603      10713      10714      10725      10724  
     10594      10595      10606      10605      10715      10716      10727      10726  
     10595      10596      10607      10606      10716      10717      10728      10727  
     10596      10597      10608      10607      10717      10718      10729      10728  
     10597      10598      10609      10608      10718      10719      10730      10729  
     10598      10599      10610      10609      10719      10720      10731      10730  
     10599      10600      10611      10610      10720      10721      10732      10731  
     10600      10601      10612      10611      10721      10722      10733      10732  
     10601      10602      10613      10612      10722      10723      10734      10733  
     10602      10603      10614      10613      10723      10724      10735      10734  
     10603      10604      10615      10614      10724      10725      10736      10735  
     10605      10606      10617      10616      10726      10727      10738      10737  
     10606      10607      10618      10617      10727      10728      10739      10738  
     10607      10608      10619      10618      10728      10729      10740      10739  
     10608      10609      10620      10619      10729      10730      10741      10740  
     10609      10610      10621      10620      10730      10731      10742      10741  
     10610      10611      10622      10621      10731      10732      10743      10742  
     10611      10612      10623      10622      10732      10733      10744      10743  
     10612      10613      10624      10623      10733      10734      10745      10744  
     10613      10614      10625      10624      10734      10735      10746      10745  
     10614      10615      10626      10625      10735      10736      10747      10746  
     10616      10617      10628      10627      10737      10738      10749      10748  
     10617      10618      10629      10628      10738      10739      10750      10749  
     10618      10619      10630      10629      10739      10740      10751      10750  
     10619      10620      10631      10630      10740      10741      10752      10751  
     10620      10621      10632      10631      10741      10742      10753      10752  
     10621      10622      10633      10632      10742      10743      10754      10753  
     10622      10623      10634      10633      10743      10744      10755      10754  
     10623      10624      10635      10634      10744      10745      10756      10755  
     10624      10625      10636      10635      10745      10746      10757      10756  
     10625      10626      10637      10636      10746      10747      10758      10757  
     10627      10628      10639      10638      10748      10749      10760      10759  
     10628      10629      10640      10639      10749      10750      10761      10760  
     10629      10630      10641      10640      10750      10751      10762      10761  
     10630      10631      10642      10641      10751      10752      10763      10762  
     10631      10632      10643      10642      10752      10753      10764      10763  
     10632      10633      10644      10643      10753      10754      10765      10764  
     10633      10634      10645      10644      10754      10755      10766      10765  
     10634      10635      10646      10645      10755      10756      10767      10766  
     10635      10636      10647      10646      10756      10757      10768      10767  
     10636      10637      10648      10647      10757      10758      10769      10768  
     10649      10650      10661      10660      10770      10771      10782      10781  
     10650      10651      10662      10661      10771      10772      10783      10782  
     10651      10652      10663      10662      10772      10773      10784      10783  
     10652      10653      10664      10663      10773      10774      10785      10784  
     10653      10654      10665      10664      10774      10775      10786      10785  
     10654      10655      10666      10665      10775      10776      10787      10786  
     10655      10656      10667      10666      10776      10777      10788      10787  
     10656      10657      10668      10667      10777      10778      10789      10788  
     10657      10658      10669      10668      10778      10779      10790      10789  
     10658      10659      10670      10669      10779      10780      10791      10790  
     10660      10661      10672      10671      10781      10782      10793      10792  
     10661      10662      10673      10672      10782      10783      10794      10793  
     10662      10663      10674      10673      10783      10784      10795      10794  
     10663      10664      10675      10674      10784      10785      10796      10795  
     10664      10665      10676      10675      10785      10786      10797      10796  
     10665      10666      10677      10676      10786      10787      10798      10797  
     10666      10667      10678      10677      10787      10788      10799      10798  
     10667      10668      10679      10678      10788      10789      10800      10799  
     10668      10669      10680      10679      10789      10790      10801      10800  
     10669      10670      10681      10680      10790      10791      10802      10801  
     10671      10672      10683      10682      10792      10793      10804      10803  
     10672      10673      10684      10683      10793      10794      10805      10804  
     10673      10674      10685      10684      10794      10795      10806      10805  
     10674      10675      10686      10685      10795      10796      10807      10806  
     10675      10676      10687      10686      10796      10797      10808      10807  
     10676      10677      10688      10687      10797      10798      10809      10808  
     10677      10678      10689      10688      10798      10799      10810      10809  
     10678      10679      10690      10689      10799      10800      10811      10810  
     10679      10680      10691      10690      10800      10801      10812      10811  
     10680      10681      10692      10691      10801      10802      10813      10812  
     10682      10683      10694      10693      10803      10804      10815      10814  
     10683      10684      10695      10694      10804      10805      10816      10815  
     10684      10685      10696      10695      10805      10806      10817      10816  
     10685      10686      10697      10696      10806      10807      10818      10817  
     10686      10687      10698      10697      10807      10808      10819      10818  
     10687      10688      10699      10698      10808      10809      10820      10819  
     10688      10689      10700      10699      10809      10810      10821      10820  
     10689      10690      10701      10700      10810      10811      10822      10821  
     10690      10691      10702      10701      10811      10812      10823      10822  
     10691      10692      10703      10702      10812      10813      10824      10823  
     10693      10694      10705      10704      10814      10815      10826      10825  
     10694      10695      10706      10705      10815      10816      10827      10826  
     10695      10696      10707      10706      10816      10817      10828      10827  
     10696      10697      10708      10707      10817      10818      10829      10828  
     10697      10698      10709      10708      10818      10819      10830      10829  
     10698      10699      10710      10709      10819      10820      10831      10830  
     10699      10700      10711      10710      10820      10821      10832      10831  
     10700      10701      10712      10711      10821      10822      10833      10832  
     10701      10702      10713      10712      10822      10823      10834      10833  
     10702      10703      10714      10713      10823      10824      10835      10834  
     10704      10705      10716      10715      10825      10826      10837      10836  
     10705      10706      10717      10716      10826      10827      10838      10837  
     10706      10707      10718      10717      10827      10828      10839      10838  
     10707      10708      10719      10718      10828      10829      10840      10839  
     10708      10709      10720      10719      10829      10830      10841      10840  
     10709      10710      10721      10720      10830      10831      10842      10841  
     10710      10711      10722      10721      10831      10832      10843      10842  
     10711      10712      10723      10722      10832      10833      10844      10843  
     10712      10713      10724      10723      10833      10834      10845      10844  
     10713      10714      10725      10724      10834      10835      10846      10845  
     10715      10716      10727      10726      10836      10837      10848      10847  
     10716      10717      10728      10727      10837      10838      10849      10848  
     10717      10718      10729      10728      10838      10839      10850      10849  
     10718      10719      10730      10729      10839      10840      10851      10850  
     10719      10720      10731      10730      10840      10841      10852      10851  
     10720      10721      10732      10731      10841      10842      10853      10852  
     10721      10722      10733      10732      10842      10843      10854      10853  
     10722      10723      10734      10733      10843      10844      10855      10854  
     10723      10724      10735      10734      10844      10845      10856      10855  
     10724      10725      10736      10735      10845      10846      10857      10856  
     10726      10727      10738      10737      10847      10848      10859      10858  
     10727      10728      10739      10738      10848      10849      10860      10859  
     10728      10729      10740      10739      10849      10850      10861      10860  
     10729      10730      10741      10740      10850      10851      10862      10861  
     10730      10731      10742      10741      10851      10852      10863      10862  
     10731      10732      10743      10742      10852      10853      10864      10863  
     10732      10733      10744      10743      10853      10854      10865      10864  
     10733      10734      10745      10744      10854      10855      10866      10865  
     10734      10735      10746      10745      10855      10856      10867      10866  
     10735      10736      10747      10746      10856      10857      10868      10867  
     10737      10738      10749      10748      10858      10859      10870      10869  
     10738      10739      10750      10749      10859      10860      10871      10870  
     10739      10740      10751      10750      10860      10861      10872      10871  
     10740      10741      10752      10751      10861      10862      10873      10872  
     10741      10742      10753      10752      10862      10863      10874      10873  
     10742      10743      10754      10753      10863      10864      10875      10874  
     10743      10744      10755      10754      10864      10865      10876      10875  
     10744      10745      10756      10755      10865      10866      10877      10876  
     10745      10746      10757      10756      10866      10867      10878      10877  
     10746      10747      10758      10757      10867      10868      10879      10878  
     10748      10749      10760      10759      10869      10870      10881      10880  
     10749      10750      10761      10760      10870      10871      10882      10881  
     10750      10751      10762      10761      10871      10872      10883      10882  
     10751      10752      10763      10762      10872      10873      10884      10883  
     10752      10753      10764      10763      10873      10874      10885      10884  
     10753      10754      10765      10764      10874      10875      10886      10885  
     10754      10755      10766      10765      10875      10876      10887      10886  
     10755      10756      10767      10766      10876      10877      10888      10887  
     10756      10757      10768      10767      10877      10878      10889      10888  
     10757      10758      10769      10768      10878      10879      10890      10889  
     10770      10771      10782      10781      10891      10892      10903      10902  
     10771      10772      10783      10782      10892      10893      10904      10903  
     10772      10773      10784      10783      10893      10894      10905      10904  
     10773      10774      10785      10784      10894      10895      10906      10905  
     10774      10775      10786      10785      10895      10896      10907      10906  
     10775      10776      10787      10786      10896      10897      10908      10907  
     10776      10777      10788      10787      10897      10898      10909      10908  
     10777      10778      10789      10788      10898      10899      10910      10909  
     10778      10779      10790      10789      10899      10900      10911      10910  
     10779      10780      10791      10790      10900      10901      10912      10911  
     10781      10782      10793      10792      10902      10903      10914      10913  
     10782      10783      10794      10793      10903      10904      10915      10914  
     10783      10784      10795      10794      10904      10905      10916      10915  
     10784      10785      10796      10795      10905      10906      10917      10916  
     10785      10786      10797      10796      10906      10907      10918      10917  
     10786      10787      10798      10797      10907      10908      10919      10918  
     10787      10788      10799      10798      10908      10909      10920      10919  
     10788      10789      10800      10799      10909      10910      10921      10920  
     10789      10790      10801      10800      10910      10911      10922      10921  
     10790      10791      10802      10801      10911      10912      10923      10922  
     10792      10793      10804      10803      10913      10914      10925      10924  
     10793      10794      10805      10804      10914      10915      10926      10925  
     10794      10795      10806      10805      10915      10916      10927      10926  
     10795      10796      10807      10806      10916      10917      10928      10927  
     10796      10797      10808      10807      10917      10918      10929      10928  
     10797      10798      10809      10808      10918      10919      10930      10929  
     10798      10799      10810      10809      10919      10920      10931      10930  
     10799      10800      10811      10810      10920      10921      10932      10931  
     10800      10801      10812      10811      10921      10922      10933      10932  
     10801      10802      10813      10812      10922      10923      10934      10933  
     10803      10804      10815      10814      10924      10925      10936      10935  
     10804      10805      10816      10815      10925      10926      10937      10936  
     10805      10806      10817      10816      10926      10927      10938      10937  
     10806      10807      10818      10817      10927      10928      10939      10938  
     10807      10808      10819      10818      10928      10929      10940      10939  
     10808      10809      10820      10819      10929      10930      10941      10940  
     10809      10810      10821      10820      10930      10931      10942      10941  
     10810      10811      10822      10821      10931      10932      10943      10942  
     10811      10812      10823      10822      10932      10933      10944      10943  
     10812      10813      10824      10823      10933      10934      10945      10944  
     10814      10815      10826      10825      10935      10936      10947      10946  
     10815      10816      10827      10826      10936      10937      10948      10947  
     10816      10817      10828      10827      10937      10938      10949      10948  
     10817      10818      10829      10828      10938      10939      10950      10949  
     10818      10819      10830      10829      10939      10940      10951      10950  
     10819      10820      10831      10830      10940      10941      10952      10951  
     10820      10821      10832      10831      10941      10942      10953      10952  
     10821      10822      10833      10832      10942      10943      10954      10953  
     10822      10823      10834      10833      10943      10944      10955      10954  
     10823      10824      10835      10834      10944      10945      10956      10955  
     10825      10826      10837      10836      10946      10947      10958      10957  
     10826      10827      10838      10837      10947      10948      10959      10958  
     10827      10828      10839      10838      10948      10949      10960      10959  
     10828      10829      10840      10839      10949      10950      10961      10960  
     10829      10830      10841      10840      10950      10951      10962      10961  
     10830      10831      10842      10841      10951      10952      10963      10962  
     10831      10832      10843      10842      10952      10953      10964      10963  
     10832      10833      10844      10843      10953      10954      10965      10964  
     10833      10834      10845      10844      10954      10955      10966      10965  
     10834      10835      10846      10845      10955      10956      10967      10966  
     10836      10837      10848      10847      10957      10958      10969      10968  
     10837      10838      10849      10848      10958      10959      10970      10969  
     10838      10839      10850      10849      10959      10960      10971      10970  
     10839      10840      10851      10850      10960      10961      10972      10971  
     10840      10841      10852      10851      10961      10962      10973      10972  
     10841      10842      10853      10852      10962      10963      10974      10973  
     10842      10843      10854      10853      10963      10964      10975      10974  
     10843      10844      10855      10854      10964      10965      10976      10975  
     10844      10845      10856      10855      10965      10966      10977      10976  
     10845      10846      10857      10856      10966      10967      10978      10977  
     10847      10848      10859      10858      10968      10969      10980      10979  
     10848      10849      10860      10859      10969      10970      10981      10980  
     10849      10850      10861      10860      10970      10971      10982      10981  
     10850      10851      10862      10861      10971      10972      10983      10982  
     10851      10852      10863      10862      10972      10973      10984      10983  
     10852      10853      10864      10863      10973      10974      10985      10984  
     10853      10854      10865      10864      10974      10975      10986      10985  
     10854      10855      10866      10865      10975      10976      10987      10986  
     10855      10856      10867      10866      10976      10977      10988      10987  
     10856      10857      10868      10867      10977      10978      10989      10988  
     10858      10859      10870      10869      10979      10980      10991      10990  
     10859      10860      10871      10870      10980      10981      10992      10991  
     10860      10861      10872      10871      10981      10982      10993      10992  
     10861      10862      10873      10872      10982      10983      10994      10993  
     10862      10863      10874      10873      10983      10984      10995      10994  
     10863      10864      10875      10874      10984      10985      10996      10995  
     10864      10865      10876      10875      10985      10986      10997      10996  
     10865      10866      10877      10876      10986      10987      10998      10997  
     10866      10867      10878      10877      10987      10988      10999      10998  
     10867      10868      10879      10878      10988      10989      11000      10999  
     10869      10870      10881      10880      10990      10991      11002      11001  
     10870      10871      10882      10881      10991      10992      11003      11002  
     10871      10872      10883      10882      10992      10993      11004      11003  
     10872      10873      10884      10883      10993      10994      11005      11004  
     10873      10874      10885      10884      10994      10995      11006      11005  
     10874      10875      10886      10885      10995      10996      11007      11006  
     10875      10876      10887      10886      10996      10997      11008      11007  
     10876      10877      10888      10887      10997      10998      11009      11008  
     10877      10878      10889      10888      10998      10999      11010      11009  
     10878      10879      10890      10889      10999      11000      11011      11010  
     10891      10892      10903      10902      11012      11013      11024      11023  
     10892      10893      10904      10903      11013      11014      11025      11024  
     10893      10894      10905      10904      11014      11015      11026      11025  
     10894      10895      10906      10905      11015      11016      11027      11026  
     10895      10896      10907      10906      11016      11017      11028      11027  
     10896      10897      10908      10907      11017      11018      11029      11028  
     10897      10898      10909      10908      11018      11019      11030      11029  
     10898      10899      10910      10909      11019      11020      11031      11030  
     10899      10900      10911      10910      11020      11021      11032      11031  
     10900      10901      10912      10911      11021      11022      11033      11032  
     10902      10903      10914      10913      11023      11024      11035      11034  
     10903      10904      10915      10914      11024      11025      11036      11035  
     10904      10905      10916      10915      11025      11026      11037      11036  
     10905      10906      10917      10916      11026      11027      11038      11037  
     10906      10907      10918      10917      11027      11028      11039      11038  
     10907      10908      10919      10918      11028      11029      11040      11039  
     10908      10909      10920      10919      11029      11030      11041      11040  
     10909      10910      10921      10920      11030      11031      11042      11041  
     10910      10911      10922      10921      11031      11032      11043      11042  
     10911      10912      10923      10922      11032      11033      11044      11043  
     10913      10914      10925      10924      11034      11035      11046      11045  
     10914      10915      10926      10925      11035      11036      11047      11046  
     10915      10916      10927      10926      11036      11037      11048      11047  
     10916      10917      10928      10927      11037      11038      11049      11048  
     10917      10918      10929      10928      11038      11039      11050      11049  
     10918      10919      10930      10929      11039      11040      11051      11050  
     10919      10920      10931      10930      11040      11041      11052      11051  
     10920      10921      10932      10931      11041      11042      11053      11052  
     10921      10922      10933      10932      11042      11043      11054      11053  
     10922      10923      10934      10933      11043      11044      11055      11054  
     10924      10925      10936      10935      11045      11046      11057      11056  
     10925      10926      10937      10936      11046      11047      11058      11057  
     10926      10927      10938      10937      11047      11048      11059      11058  
     10927      10928      10939      10938      11048      11049      11060      11059  
     10928      10929      10940      10939      11049      11050      11061      11060  
     10929      10930      10941      10940      11050      11051      11062      11061  
     10930      10931      10942      10941      11051      11052      11063      11062  
     10931      10932      10943      10942      11052      11053      11064      11063  
     10932      10933      10944      10943      11053      11054      11065      11064  
     10933      10934      10945      10944      11054      11055      11066      11065  
     10935      10936      10947      10946      11056      11057      11068      11067  
     10936      10937      10948      10947      11057      11058      11069      11068  
     10937      10938      10949      10948      11058      11059      11070      11069  
     10938      10939      10950      10949      11059      11060      11071      11070  
     10939      10940      10951      10950      11060      11061      11072      11071  
     10940      10941      10952      10951      11061      11062      11073      11072  
     10941      10942      10953      10952      11062      11063      11074      11073  
     10942      10943      10954      10953      11063      11064      11075      11074  
     10943      10944      10955      10954      11064      11065      11076      11075  
     10944      10945      10956      10955      11065      11066      11077      11076  
     10946      10947      10958      10957      11067      11068      11079      11078  
     10947      10948      10959      10958      11068      11069      11080      11079  
     10948      10949      10960      10959      11069      11070      11081      11080  
     10949      10950      10961      10960      11070      11071      11082      11081  
     10950      10951      10962      10961      11071      11072      11083      11082  
     10951      10952      10963      10962      11072      11073      11084      11083  
     10952      10953      10964      10963      11073      11074      11085      11084  
     10953      10954      10965      10964      11074      11075      11086      11085  
     10954      10955      10966      10965      11075      11076      11087      11086  
     10955      10956      10967      10966      11076      11077      11088      11087  
     10957      10958      10969      10968      11078      11079      11090      11089  
     10958      10959      10970      10969      11079      11080      11091      11090  
     10959      10960      10971      10970      11080      11081      11092      11091  
     10960      10961      10972      10971      11081      11082      11093      11092  
     10961      10962      10973      10972      11082      11083      11094      11093  
     10962      10963      10974      10973      11083      11084      11095      11094  
     10963      10964      10975      10974      11084      11085      11096      11095  
     10964      10965      10976      10975      11085      11086      11097      11096  
     10965      10966      10977      10976      11086      11087      11098      11097  
     10966      10967      10978      10977      11087      11088      11099      11098  
     10968      10969      10980      10979      11089      11090      11101      11100  
     10969      10970      10981      10980      11090      11091      11102      11101  
     10970      10971      10982      10981      11091      11092      11103      11102  
     10971      10972      10983      10982      11092      11093      11104      11103  
     10972      10973      10984      10983      11093      11094      11105      11104  
     10973      10974      10985      10984      11094      11095      11106      11105  
     10974      10975      10986      10985      11095      11096      11107      11106  
     10975      10976      10987      10986      11096      11097      11108      11107  
     10976      10977      10988      10987      11097      11098      11109      11108  
     10977      10978      10989      10988      11098      11099      11110      11109  
     10979      10980      10991      10990      11100      11101      11112      11111  
     10980      10981      10992      10991      11101      11102      11113      11112  
     10981      10982      10993      10992      11102      11103      11114      11113  
     10982      10983      10994      10993      11103      11104      11115      11114  
     10983      10984      10995      10994      11104      11105      11116      11115  
     10984      10985      10996      10995      11105      11106      11117      11116  
     10985      10986      10997      10996      11106      11107      11118      11117  
     10986      10987      10998      10997      11107      11108      11119      11118  
     10987      10988      10999      10998      11108      11109      11120      11119  
     10988      10989      11000      10999      11109      11110      11121      11120  
     10990      10991      11002      11001      11111      11112      11123      11122  
     10991      10992      11003      11002      11112      11113      11124      11123  
     10992      10993      11004      11003      11113      11114      11125      11124  
     10993      10994      11005      11004      11114      11115      11126      11125  
     10994      10995      11006      11005      11115      11116      11127      11126  
     10995      10996      11007      11006      11116      11117      11128      11127  
     10996      10997      11008      11007      11117      11118      11129      11128  
     10997      10998      11009      11008      11118      11119      11130      11129  
     10998      10999      11010      11009      11119      11120      11131      11130  
     10999      11000      11011      11010      11120      11121      11132      11131  
     11012      11013      11024      11023      11133      11134      11145      11144  
     11013      11014      11025      11024      11134      11135      11146      11145  
     11014      11015      11026      11025      11135      11136      11147      11146  
     11015      11016      11027      11026      11136      11137      11148      11147  
     11016      11017      11028      11027      11137      11138      11149      11148  
     11017      11018      11029      11028      11138      11139      11150      11149  
     11018      11019      11030      11029      11139      11140      11151      11150  
     11019      11020      11031      11030      11140      11141      11152      11151  
     11020      11021      11032      11031      11141      11142      11153      11152  
     11021      11022      11033      11032      11142      11143      11154      11153  
     11023      11024      11035      11034      11144      11145      11156      11155  
     11024      11025      11036      11035      11145      11146      11157      11156  
     11025      11026      11037      11036      11146      11147      11158      11157  
     11026      11027      11038      11037      11147      11148      11159      11158  
     11027      11028      11039      11038      11148      11149      11160      11159  
     11028      11029      11040      11039      11149      11150      11161      11160  
     11029      11030      11041      11040      11150      11151      11162      11161  
     11030      11031      11042      11041      11151      11152      11163      11162  
     11031      11032      11043      11042      11152      11153      11164      11163  
     11032      11033      11044      11043      11153      11154      11165      11164  
     11034      11035      11046      11045      11155      11156      11167      11166  
     11035      11036      11047      11046      11156      11157      11168      11167  
     11036      11037      11048      11047      11157      11158      11169      11168  
     11037      11038      11049      11048      11158      11159      11170      11169  
     11038      11039      11050      11049      11159      11160      11171      11170  
     11039      11040      11051      11050      11160      11161      11172      11171  
     11040      11041      11052      11051      11161      11162      11173      11172  
     11041      11042      11053      11052      11162      11163      11174      11173  
     11042      11043      11054      11053      11163      11164      11175      11174  
     11043      11044      11055      11054      11164      11165      11176      11175  
     11045      11046      11057      11056      11166      11167      11178      11177  
     11046      11047      11058      11057      11167      11168      11179      11178  
     11047      11048      11059      11058      11168      11169      11180      11179  
     11048      11049      11060      11059      11169      11170      11181      11180  
     11049      11050      11061      11060      11170      11171      11182      11181  
     11050      11051      11062      11061      11171      11172      11183      11182  
     11051      11052      11063      11062      11172      11173      11184      11183  
     11052      11053      11064      11063      11173      11174      11185      11184  
     11053      11054      11065      11064      11174      11175      11186      11185  
     11054      11055      11066      11065      11175      11176      11187      11186  
     11056      11057      11068      11067      11177      11178      11189      11188  
     11057      11058      11069      11068      11178      11179      11190      11189  
     11058      11059      11070      11069      11179      11180      11191      11190  
     11059      11060      11071      11070      11180      11181      11192      11191  
     11060      11061      11072      11071      11181      11182      11193      11192  
     11061      11062      11073      11072      11182      11183      11194      11193  
     11062      11063      11074      11073      11183      11184      11195      11194  
     11063      11064      11075      11074      11184      11185      11196      11195  
     11064      11065      11076      11075      11185      11186      11197      11196  
     11065      11066      11077      11076      11186      11187      11198      11197  
     11067      11068      11079      11078      11188      11189      11200      11199  
     11068      11069      11080      11079      11189      11190      11201      11200  
     11069      11070      11081      11080      11190      11191      11202      11201  
     11070      11071      11082      11081      11191      11192      11203      11202  
     11071      11072      11083      11082      11192      11193      11204      11203  
     11072      11073      11084      11083      11193      11194      11205      11204  
     11073      11074      11085      11084      11194      11195      11206      11205  
     11074      11075      11086      11085      11195      11196      11207      11206  
     11075      11076      11087      11086      11196      11197      11208      11207  
     11076      11077      11088      11087      11197      11198      11209      11208  
     11078      11079      11090      11089      11199      11200      11211      11210  
     11079      11080      11091      11090      11200      11201      11212      11211  
     11080      11081      11092      11091      11201      11202      11213      11212  
     11081      11082      11093      11092      11202      11203      11214      11213  
     11082      11083      11094      11093      11203      11204      11215      11214  
     11083      11084      11095      11094      11204      11205      11216      11215  
     11084      11085      11096      11095      11205      11206      11217      11216  
     11085      11086      11097      11096      11206      11207      11218      11217  
     11086      11087      11098      11097      11207      11208      11219      11218  
     11087      11088      11099      11098      11208      11209      11220      11219  
     11089      11090      11101      11100      11210      11211      11222      11221  
     11090      11091      11102      11101      11211      11212      11223      11222  
     11091      11092      11103      11102      11212      11213      11224      11223  
     11092      11093      11104      11103      11213      11214      11225      11224  
     11093      11094      11105      11104      11214      11215      11226      11225  
     11094      11095      11106      11105      11215      11216      11227      11226  
     11095      11096      11107      11106      11216      11217      11228      11227  
     11096      11097      11108      11107      11217      11218      11229      11228  
     11097      11098      11109      11108      11218      11219      11230      11229  
     11098      11099      11110      11109      11219      11220      11231      11230  
     11100      11101      11112      11111      11221      11222      11233      11232  
     11101      11102      11113      11112      11222      11223      11234      11233  
     11102      11103      11114      11113      11223      11224      11235      11234  
     11103      11104      11115      11114      11224      11225      11236      11235  
     11104      11105      11116      11115      11225      11226      11237      11236  
     11105      11106      11117      11116      11226      11227      11238      11237  
     11106      11107      11118      11117      11227      11228      11239      11238  
     11107      11108      11119      11118      11228      11229      11240      11239  
     11108      11109      11120      11119      11229      11230      11241      11240  
     11109      11110      11121      11120      11230      11231      11242      11241  
     11111      11112      11123      11122      11232      11233      11244      11243  
     11112      11113      11124      11123      11233      11234      11245      11244  
     11113      11114      11125      11124      11234      11235      11246      11245  
     11114      11115      11126      11125      11235      11236      11247      11246  
     11115      11116      11127      11126      11236      11237      11248      11247  
     11116      11117      11128      11127      11237      11238      11249      11248  
     11117      11118      11129      11128      11238      11239      11250      11249  
     11118      11119      11130      11129      11239      11240      11251      11250  
     11119      11120      11131      11130      11240      11241      11252      11251  
     11120      11121      11132      11131      11241      11242      11253      11252  
     11133      11134      11145      11144      11254      11255      11266      11265  
     11134      11135      11146      11145      11255      11256      11267      11266  
     11135      11136      11147      11146      11256      11257      11268      11267  
     11136      11137      11148      11147      11257      11258      11269      11268  
     11137      11138      11149      11148      11258      11259      11270      11269  
     11138      11139      11150      11149      11259      11260      11271      11270  
     11139      11140      11151      11150      11260      11261      11272      11271  
     11140      11141      11152      11151      11261      11262      11273      11272  
     11141      11142      11153      11152      11262      11263      11274      11273  
     11142      11143      11154      11153      11263      11264      11275      11274  
     11144      11145      11156      11155      11265      11266      11277      11276  
     11145      11146      11157      11156      11266      11267      11278      11277  
     11146      11147      11158      11157      11267      11268      11279      11278  
     11147      11148      11159      11158      11268      11269      11280      11279  
     11148      11149      11160      11159      11269      11270      11281      11280  
     11149      11150      11161      11160      11270      11271      11282      11281  
     11150      11151      11162      11161      11271      11272      11283      11282  
     11151      11152      11163      11162      11272      11273      11284      11283  
     11152      11153      11164      11163      11273      11274      11285      11284  
     11153      11154      11165      11164      11274      11275      11286      11285  
     11155      11156      11167      11166      11276      11277      11288      11287  
     11156      11157      11168      11167      11277      11278      11289      11288  
     11157      11158      11169      11168      11278      11279      11290      11289  
     11158      11159      11170      11169      11279      11280      11291      11290  
     11159      11160      11171      11170      11280      11281      11292      11291  
     11160      11161      11172      11171      11281      11282      11293      11292  
     11161      11162      11173      11172      11282      11283      11294      11293  
     11162      11163      11174      11173      11283      11284      11295      11294  
     11163      11164      11175      11174      11284      11285      11296      11295  
     11164      11165      11176      11175      11285      11286      11297      11296  
     11166      11167      11178      11177      11287      11288      11299      11298  
     11167      11168      11179      11178      11288      11289      11300      11299  
     11168      11169      11180      11179      11289      11290      11301      11300  
     11169      11170      11181      11180      11290      11291      11302      11301  
     11170      11171      11182      11181      11291      11292      11303      11302  
     11171      11172      11183      11182      11292      11293      11304      11303  
     11172      11173      11184      11183      11293      11294      11305      11304  
     11173      11174      11185      11184      11294      11295      11306      11305  
     11174      11175      11186      11185      11295      11296      11307      11306  
     11175      11176      11187      11186      11296      11297      11308      11307  
     11177      11178      11189      11188      11298      11299      11310      11309  
     11178      11179      11190      11189      11299      11300      11311      11310  
     11179      11180      11191      11190      11300      11301      11312      11311  
     11180      11181      11192      11191      11301      11302      11313      11312  
     11181      11182      11193      11192      11302      11303      11314      11313  
     11182      11183      11194      11193      11303      11304      11315      11314  
     11183      11184      11195      11194      11304      11305      11316      11315  
     11184      11185      11196      11195      11305      11306      11317      11316  
     11185      11186      11197      11196      11306      11307      11318      11317  
     11186      11187      11198      11197      11307      11308      11319      11318  
     11188      11189      11200      11199      11309      11310      11321      11320  
     11189      11190      11201      11200      11310      11311      11322      11321  
     11190      11191      11202      11201      11311      11312      11323      11322  
     11191      11192      11203      11202      11312      11313      11324      11323  
     11192      11193      11204      11203      11313      11314      11325      11324  
     11193      11194      11205      11204      11314      11315      11326      11325  
     11194      11195      11206      11205      11315      11316      11327      11326  
     11195      11196      11207      11206      11316      11317      11328      11327  
     11196      11197      11208      11207      11317      11318      11329      11328  
     11197      11198      11209      11208      11318      11319      11330      11329  
     11199      11200      11211      11210      11320      11321      11332      11331  
     11200      11201      11212      11211      11321      11322      11333      11332  
     11201      11202      11213      11212      11322      11323      11334      11333  
     11202      11203      11214      11213      11323      11324      11335      11334  
     11203      11204      11215      11214      11324      11325      11336      11335  
     11204      11205      11216      11215      11325      11326      11337      11336  
     11205      11206      11217      11216      11326      11327      11338      11337  
     11206      11207      11218      11217      11327      11328      11339      11338  
     11207      11208      11219      11218      11328      11329      11340      11339  
     11208      11209      11220      11219      11329      11330      11341      11340  
     11210      11211      11222      11221      11331      11332      11343      11342  
     11211      11212      11223      11222      11332      11333      11344      11343  
     11212      11213      11224      11223      11333      11334      11345      11344  
     11213      11214      11225      11224      11334      11335      11346      11345  
     11214      11215      11226      11225      11335      11336      11347      11346  
     11215      11216      11227      11226      11336      11337      11348      11347  
     11216      11217      11228      11227      11337      11338      11349      11348  
     11217      11218      11229      11228      11338      11339      11350      11349  
     11218      11219      11230      11229      11339      11340      11351      11350  
     11219      11220      11231      11230      11340      11341      11352      11351  
     11221      11222      11233      11232      11342      11343      11354      11353  
     11222      11223      11234      11233      11343      11344      11355      11354  
     11223      11224      11235      11234      11344      11345      11356      11355  
     11224      11225      11236      11235      11345      11346      11357      11356  
     11225      11226      11237      11236      11346      11347      11358      11357  
     11226      11227      11238      11237      11347      11348      11359      11358  
     11227      11228      11239      11238      11348      11349      11360      11359  
     11228      11229      11240      11239      11349      11350      11361      11360  
     11229      11230      11241      11240      11350      11351      11362      11361  
     11230      11231      11242      11241      11351      11352      11363      11362  
     11232      11233      11244      11243      11353      11354      11365      11364  
     11233      11234      11245      11244      11354      11355      11366      11365  
     11234      11235      11246      11245      11355      11356      11367      11366  
     11235      11236      11247      11246      11356      11357      11368      11367  
     11236      11237      11248      11247      11357      11358      11369      11368  
     11237      11238      11249      11248      11358      11359      11370      11369  
     11238      11239      11250      11249      11359      11360      11371      11370  
     11239      11240      11251      11250      11360      11361      11372      11371  
     11240      11241      11252      11251      11361      11362      11373      11372  
     11241      11242      11253      11252      11362      11363      11374      11373  
     11254      11255      11266      11265      11375      11376      11387      11386  
     11255      11256      11267      11266      11376      11377      11388      11387  
     11256      11257      11268      11267      11377      11378      11389      11388  
     11257      11258      11269      11268      11378      11379      11390      11389  
     11258      11259      11270      11269      11379      11380      11391      11390  
     11259      11260      11271      11270      11380      11381      11392      11391  
     11260      11261      11272      11271      11381      11382      11393      11392  
     11261      11262      11273      11272      11382      11383      11394      11393  
     11262      11263      11274      11273      11383      11384      11395      11394  
     11263      11264      11275      11274      11384      11385      11396      11395  
     11265      11266      11277      11276      11386      11387      11398      11397  
     11266      11267      11278      11277      11387      11388      11399      11398  
     11267      11268      11279      11278      11388      11389      11400      11399  
     11268      11269      11280      11279      11389      11390      11401      11400  
     11269      11270      11281      11280      11390      11391      11402      11401  
     11270      11271      11282      11281      11391      11392      11403      11402  
     11271      11272      11283      11282      11392      11393      11404      11403  
     11272      11273      11284      11283      11393      11394      11405      11404  
     11273      11274      11285      11284      11394      11395      11406      11405  
     11274      11275      11286      11285      11395      11396      11407      11406  
     11276      11277      11288      11287      11397      11398      11409      11408  
     11277      11278      11289      11288      11398      11399      11410      11409  
     11278      11279      11290      11289      11399      11400      11411      11410  
     11279      11280      11291      11290      11400      11401      11412      11411  
     11280      11281      11292      11291      11401      11402      11413      11412  
     11281      11282      11293      11292      11402      11403      11414      11413  
     11282      11283      11294      11293      11403      11404      11415      11414  
     11283      11284      11295      11294      11404      11405      11416      11415  
     11284      11285      11296      11295      11405      11406      11417      11416  
     11285      11286      11297      11296      11406      11407      11418      11417  
     11287      11288      11299      11298      11408      11409      11420      11419  
     11288      11289      11300      11299      11409      11410      11421      11420  
     11289      11290      11301      11300      11410      11411      11422      11421  
     11290      11291      11302      11301      11411      11412      11423      11422  
     11291      11292      11303      11302      11412      11413      11424      11423  
     11292      11293      11304      11303      11413      11414      11425      11424  
     11293      11294      11305      11304      11414      11415      11426      11425  
     11294      11295      11306      11305      11415      11416      11427      11426  
     11295      11296      11307      11306      11416      11417      11428      11427  
     11296      11297      11308      11307      11417      11418      11429      11428  
     11298      11299      11310      11309      11419      11420      11431      11430  
     11299      11300      11311      11310      11420      11421      11432      11431  
     11300      11301      11312      11311      11421      11422      11433      11432  
     11301      11302      11313      11312      11422      11423      11434      11433  
     11302      11303      11314      11313      11423      11424      11435      11434  
     11303      11304      11315      11314      11424      11425      11436      11435  
     11304      11305      11316      11315      11425      11426      11437      11436  
     11305      11306      11317      11316      11426      11427      11438      11437  
     11306      11307      11318      11317      11427      11428      11439      11438  
     11307      11308      11319      11318      11428      11429      11440      11439  
     11309      11310      11321      11320      11430      11431      11442      11441  
     11310      11311      11322      11321      11431      11432      11443      11442  
     11311      11312      11323      11322      11432      11433      11444      11443  
     11312      11313      11324      11323      11433      11434      11445      11444  
     11313      11314      11325      11324      11434      11435      11446      11445  
     11314      11315      11326      11325      11435      11436      11447      11446  
     11315      11316      11327      11326      11436      11437      11448      11447  
     11316      11317      11328      11327      11437      11438      11449      11448  
     11317      11318      11329      11328      11438      11439      11450      11449  
     11318      11319      11330      11329      11439      11440      11451      11450  
     11320      11321      11332      11331      11441      11442      11453      11452  
     11321      11322      11333      11332      11442      11443      11454      11453  
     11322      11323      11334      11333      11443      11444      11455      11454  
     11323      11324      11335      11334      11444      11445      11456      11455  
     11324      11325      11336      11335      11445      11446      11457      11456  
     11325      11326      11337      11336      11446      11447      11458      11457  
     11326      11327      11338      11337      11447      11448      11459      11458  
     11327      11328      11339      11338      11448      11449      11460      11459  
     11328      11329      11340      11339      11449      11450      11461      11460  
     11329      11330      11341      11340      11450      11451      11462      11461  
     11331      11332      11343      11342      11452      11453      11464      11463  
     11332      11333      11344      11343      11453      11454      11465      11464  
     11333      11334      11345      11344      11454      11455      11466      11465  
     11334      11335      11346      11345      11455      11456      11467      11466  
     11335      11336      11347      11346      11456      11457      11468      11467  
     11336      11337      11348      11347      11457      11458      11469      11468  
     11337      11338      11349      11348      11458      11459      11470      11469  
     11338      11339      11350      11349      11459      11460      11471      11470  
     11339      11340      11351      11350      11460      11461      11472      11471  
     11340      11341      11352      11351      11461      11462      11473      11472  
     11342      11343      11354      11353      11463      11464      11475      11474  
     11343      11344      11355      11354      11464      11465      11476      11475  
     11344      11345      11356      11355      11465      11466      11477      11476  
     11345      11346      11357      11356      11466      11467      11478      11477  
     11346      11347      11358      11357      11467      11468      11479      11478  
     11347      11348      11359      11358      11468      11469      11480      11479  
     11348      11349      11360      11359      11469      11470      11481      11480  
     11349      11350      11361      11360      11470      11471      11482      11481  
     11350      11351      11362      11361      11471      11472      11483      11482  
     11351      11352      11363      11362      11472      11473      11484      11483  
     11353      11354      11365      11364      11474      11475      11486      11485  
     11354      11355      11366      11365      11475      11476      11487      11486  
     11355      11356      11367      11366      11476      11477      11488      11487  
     11356      11357      11368      11367      11477      11478      11489      11488  
     11357      11358      11369      11368      11478      11479      11490      11489  
     11358      11359      11370      11369      11479      11480      11491      11490  
     11359      11360      11371      11370      11480      11481      11492      11491  
     11360      11361      11372      11371      11481      11482      11493      11492  
     11361      11362      11373      11372      11482      11483      11494      11493  
     11362      11363      11374      11373      11483      11484      11495      11494  
     11375      11376      11387      11386      11496      11497      11508      11507  
     11376      11377      11388      11387      11497      11498      11509      11508  
     11377      11378      11389      11388      11498      11499      11510      11509  
     11378      11379      11390      11389      11499      11500      11511      11510  
     11379      11380      11391      11390      11500      11501      11512      11511  
     11380      11381      11392      11391      11501      11502      11513      11512  
     11381      11382      11393      11392      11502      11503      11514      11513  
     11382      11383      11394      11393      11503      11504      11515      11514  
     11383      11384      11395      11394      11504      11505      11516      11515  
     11384      11385      11396      11395      11505      11506      11517      11516  
     11386      11387      11398      11397      11507      11508      11519      11518  
     11387      11388      11399      11398      11508      11509      11520      11519  
     11388      11389      11400      11399      11509      11510      11521      11520  
     11389      11390      11401      11400      11510      11511      11522      11521  
     11390      11391      11402      11401      11511      11512      11523      11522  
     11391      11392      11403      11402      11512      11513      11524      11523  
     11392      11393      11404      11403      11513      11514      11525      11524  
     11393      11394      11405      11404      11514      11515      11526      11525  
     11394      11395      11406      11405      11515      11516      11527      11526  
     11395      11396      11407      11406      11516      11517      11528      11527  
     11397      11398      11409      11408      11518      11519      11530      11529  
     11398      11399      11410      11409      11519      11520      11531      11530  
     11399      11400      11411      11410      11520      11521      11532      11531  
     11400      11401      11412      11411      11521      11522      11533      11532  
     11401      11402      11413      11412      11522      11523      11534      11533  
     11402      11403      11414      11413      11523      11524      11535      11534  
     11403      11404      11415      11414      11524      11525      11536      11535  
     11404      11405      11416      11415      11525      11526      11537      11536  
     11405      11406      11417      11416      11526      11527      11538      11537  
     11406      11407      11418      11417      11527      11528      11539      11538  
     11408      11409      11420      11419      11529      11530      11541      11540  
     11409      11410      11421      11420      11530      11531      11542      11541  
     11410      11411      11422      11421      11531      11532      11543      11542  
     11411      11412      11423      11422      11532      11533      11544      11543  
     11412      11413      11424      11423      11533      11534      11545      11544  
     11413      11414      11425      11424      11534      11535      11546      11545  
     11414      11415      11426      11425      11535      11536      11547      11546  
     11415      11416      11427      11426      11536      11537      11548      11547  
     11416      11417      11428      11427      11537      11538      11549      11548  
     11417      11418      11429      11428      11538      11539      11550      11549  
     11419      11420      11431      11430      11540      11541      11552      11551  
     11420      11421      11432      11431      11541      11542      11553      11552  
     11421      11422      11433      11432      11542      11543      11554      11553  
     11422      11423      11434      11433      11543      11544      11555      11554  
     11423      11424      11435      11434      11544      11545      11556      11555  
     11424      11425      11436      11435      11545      11546      11557      11556  
     11425      11426      11437      11436      11546      11547      11558      11557  
     11426      11427      11438      11437      11547      11548      11559      11558  
     11427      11428      11439      11438      11548      11549      11560      11559  
     11428      11429      11440      11439      11549      11550      11561      11560  
     11430      11431      11442      11441      11551      11552      11563      11562  
     11431      11432      11443      11442      11552      11553      11564      11563  
     11432      11433      11444      11443      11553      11554      11565      11564  
     11433      11434      11445      11444      11554      11555      11566      11565  
     11434      11435      11446      11445      11555      11556      11567      11566  
     11435      11436      11447      11446      11556      11557      11568      11567  
     11436      11437      11448      11447      11557      11558      11569      11568  
     11437      11438      11449      11448      11558      11559      11570      11569  
     11438      11439      11450      11449      11559      11560      11571      11570  
     11439      11440      11451      11450      11560      11561      11572      11571  
     11441      11442      11453      11452      11562      11563      11574      11573  
     11442      11443      11454      11453      11563      11564      11575      11574  
     11443      11444      11455      11454      11564      11565      11576      11575  
     11444      11445      11456      11455      11565      11566      11577      11576  
     11445      11446      11457      11456      11566      11567      11578      11577  
     11446      11447      11458      11457      11567      11568      11579      11578  
     11447      11448      11459      11458      11568      11569      11580      11579  
     11448      11449      11460      11459      11569      11570      11581      11580  
     11449      11450      11461      11460      11570      11571      11582      11581  
     11450      11451      11462      11461      11571      11572      11583      11582  
     11452      11453      11464      11463      11573      11574      11585      11584  
     11453      11454      11465      11464      11574      11575      11586      11585  
     11454      11455      11466      11465      11575      11576      11587      11586  
     11455      11456      11467      11466      11576      11577      11588      11587  
     11456      11457      11468      11467      11577      11578      11589      11588  
     11457      11458      11469      11468      11578      11579      11590      11589  
     11458      11459      11470      11469      11579      11580      11591      11590  
     11459      11460      11471      11470      11580      11581      11592      11591  
     11460      11461      11472      11471      11581      11582      11593      11592  
     11461      11462      11473      11472      11582      11583      11594      11593  
     11463      11464      11475      11474      11584      11585      11596      11595  
     11464      11465      11476      11475      11585      11586      11597      11596  
     11465      11466      11477      11476      11586      11587      11598      11597  
     11466      11467      11478      11477      11587      11588      11599      11598  
     11467      11468      11479      11478      11588      11589      11600      11599  
     11468      11469      11480      11479      11589      11590      11601      11600  
     11469      11470      11481      11480      11590      11591      11602      11601  
     11470      11471      11482      11481      11591      11592      11603      11602  
     11471      11472      11483      11482      11592      11593      11604      11603  
     11472      11473      11484      11483      11593      11594      11605      11604  
     11474      11475      11486      11485      11595      11596      11607      11606  
     11475      11476      11487      11486      11596      11597      11608      11607  
     11476      11477      11488      11487      11597      11598      11609      11608  
     11477      11478      11489      11488      11598      11599      11610      11609  
     11478      11479      11490      11489      11599      11600      11611      11610  
     11479      11480      11491      11490      11600      11601      11612      11611  
     11480      11481      11492      11491      11601      11602      11613      11612  
     11481      11482      11493      11492      11602      11603      11614      11613  
     11482      11483      11494      11493      11603      11604      11615      11614  
     11483      11484      11495      11494      11604      11605      11616      11615  
     11496      11497      11508      11507      11617      11618      11629      11628  
     11497      11498      11509      11508      11618      11619      11630      11629  
     11498      11499      11510      11509      11619      11620      11631      11630  
     11499      11500      11511      11510      11620      11621      11632      11631  
     11500      11501      11512      11511      11621      11622      11633      11632  
     11501      11502      11513      11512      11622      11623      11634      11633  
     11502      11503      11514      11513      11623      11624      11635      11634  
     11503      11504      11515      11514      11624      11625      11636      11635  
     11504      11505      11516      11515      11625      11626      11637      11636  
     11505      11506      11517      11516      11626      11627      11638      11637  
     11507      11508      11519      11518      11628      11629      11640      11639  
     11508      11509      11520      11519      11629      11630      11641      11640  
     11509      11510      11521      11520      11630      11631      11642      11641  
     11510      11511      11522      11521      11631      11632      11643      11642  
     11511      11512      11523      11522      11632      11633      11644      11643  
     11512      11513      11524      11523      11633      11634      11645      11644  
     11513      11514      11525      11524      11634      11635      11646      11645  
     11514      11515      11526      11525      11635      11636      11647      11646  
     11515      11516      11527      11526      11636      11637      11648      11647  
     11516      11517      11528      11527      11637      11638      11649      11648  
     11518      11519      11530      11529      11639      11640      11651      11650  
     11519      11520      11531      11530      11640      11641      11652      11651  
     11520      11521      11532      11531      11641      11642      11653      11652  
     11521      11522      11533      11532      11642      11643      11654      11653  
     11522      11523      11534      11533      11643      11644      11655      11654  
     11523      11524      11535      11534      11644      11645      11656      11655  
     11524      11525      11536      11535      11645      11646      11657      11656  
     11525      11526      11537      11536      11646      11647      11658      11657  
     11526      11527      11538      11537      11647      11648      11659      11658  
     11527      11528      11539      11538      11648      11649      11660      11659  
     11529      11530      11541      11540      11650      11651      11662      11661  
     11530      11531      11542      11541      11651      11652      11663      11662  
     11531      11532      11543      11542      11652      11653      11664      11663  
     11532      11533      11544      11543      11653      11654      11665      11664  
     11533      11534      11545      11544      11654      11655      11666      11665  
     11534      11535      11546      11545      11655      11656      11667      11666  
     11535      11536      11547      11546      11656      11657      11668      11667  
     11536      11537      11548      11547      11657      11658      11669      11668  
     11537      11538      11549      11548      11658      11659      11670      11669  
     11538      11539      11550      11549      11659      11660      11671      11670  
     11540      11541      11552      11551      11661      11662      11673      11672  
     11541      11542      11553      11552      11662      11663      11674      11673  
     11542      11543      11554      11553      11663      11664      11675      11674  
     11543      11544      11555      11554      11664      11665      11676      11675  
     11544      11545      11556      11555      11665      11666      11677      11676  
     11545      11546      11557      11556      11666      11667      11678      11677  
     11546      11547      11558      11557      11667      11668      11679      11678  
     11547      11548      11559      11558      11668      11669      11680      11679  
     11548      11549      11560      11559      11669      11670      11681      11680  
     11549      11550      11561      11560      11670      11671      11682      11681  
     11551      11552      11563      11562      11672      11673      11684      11683  
     11552      11553      11564      11563      11673      11674      11685      11684  
     11553      11554      11565      11564      11674      11675      11686      11685  
     11554      11555      11566      11565      11675      11676      11687      11686  
     11555      11556      11567      11566      11676      11677      11688      11687  
     11556      11557      11568      11567      11677      11678      11689      11688  
     11557      11558      11569      11568      11678      11679      11690      11689  
     11558      11559      11570      11569      11679      11680      11691      11690  
     11559      11560      11571      11570      11680      11681      11692      11691  
     11560      11561      11572      11571      11681      11682      11693      11692  
     11562      11563      11574      11573      11683      11684      11695      11694  
     11563      11564      11575      11574      11684      11685      11696      11695  
     11564      11565      11576      11575      11685      11686      11697      11696  
     11565      11566      11577      11576      11686      11687      11698      11697  
     11566      11567      11578      11577      11687      11688      11699      11698  
     11567      11568      11579      11578      11688      11689      11700      11699  
     11568      11569      11580      11579      11689      11690      11701      11700  
     11569      11570      11581      11580      11690      11691      11702      11701  
     11570      11571      11582      11581      11691      11692      11703      11702  
     11571      11572      11583      11582      11692      11693      11704      11703  
     11573      11574      11585      11584      11694      11695      11706      11705  
     11574      11575      11586      11585      11695      11696      11707      11706  
     11575      11576      11587      11586      11696      11697      11708      11707  
     11576      11577      11588      11587      11697      11698      11709      11708  
     11577      11578      11589      11588      11698      11699      11710      11709  
     11578      11579      11590      11589      11699      11700      11711      11710  
     11579      11580      11591      11590      11700      11701      11712      11711  
     11580      11581      11592      11591      11701      11702      11713      11712  
     11581      11582      11593      11592      11702      11703      11714      11713  
     11582      11583      11594      11593      11703      11704      11715      11714  
     11584      11585      11596      11595      11705      11706      11717      11716  
     11585      11586      11597      11596      11706      11707      11718      11717  
     11586      11587      11598      11597      11707      11708      11719      11718  
     11587      11588      11599      11598      11708      11709      11720      11719  
     11588      11589      11600      11599      11709      11710      11721      11720  
     11589      11590      11601      11600      11710      11711      11722      11721  
     11590      11591      11602      11601      11711      11712      11723      11722  
     11591      11592      11603      11602      11712      11713      11724      11723  
     11592      11593      11604      11603      11713      11714      11725      11724  
     11593      11594      11605      11604      11714      11715      11726      11725  
     11595      11596      11607      11606      11716      11717      11728      11727  
     11596      11597      11608      11607      11717      11718      11729      11728  
     11597      11598      11609      11608      11718      11719      11730      11729  
     11598      11599      11610      11609      11719      11720      11731      11730  
     11599      11600      11611      11610      11720      11721      11732      11731  
     11600      11601      11612      11611      11721      11722      11733      11732  
     11601      11602      11613      11612      11722      11723      11734      11733  
     11602      11603      11614      11613      11723      11724      11735      11734  
     11603      11604      11615      11614      11724      11725      11736      11735  
     11604      11605      11616      11615      11725      11726      11737      11736  
     11617      11618      11629      11628      11738      11739      11750      11749  
     11618      11619      11630      11629      11739      11740      11751      11750  
     11619      11620      11631      11630      11740      11741      11752      11751  
     11620      11621      11632      11631      11741      11742      11753      11752  
     11621      11622      11633      11632      11742      11743      11754      11753  
     11622      11623      11634      11633      11743      11744      11755      11754  
     11623      11624      11635      11634      11744      11745      11756      11755  
     11624      11625      11636      11635      11745      11746      11757      11756  
     11625      11626      11637      11636      11746      11747      11758      11757  
     11626      11627      11638      11637      11747      11748      11759      11758  
     11628      11629      11640      11639      11749      11750      11761      11760  
     11629      11630      11641      11640      11750      11751      11762      11761  
     11630      11631      11642      11641      11751      11752      11763      11762  
     11631      11632      11643      11642      11752      11753      11764      11763  
     11632      11633      11644      11643      11753      11754      11765      11764  
     11633      11634      11645      11644      11754      11755      11766      11765  
     11634      11635      11646      11645      11755      11756      11767      11766  
     11635      11636      11647      11646      11756      11757      11768      11767  
     11636      11637      11648      11647      11757      11758      11769      11768  
     11637      11638      11649      11648      11758      11759      11770      11769  
     11639      11640      11651      11650      11760      11761      11772      11771  
     11640      11641      11652      11651      11761      11762      11773      11772  
     11641      11642      11653      11652      11762      11763      11774      11773  
     11642      11643      11654      11653      11763      11764      11775      11774  
     11643      11644      11655      11654      11764      11765      11776      11775  
     11644      11645      11656      11655      11765      11766      11777      11776  
     11645      11646      11657      11656      11766      11767      11778      11777  
     11646      11647      11658      11657      11767      11768      11779      11778  
     11647      11648      11659      11658      11768      11769      11780      11779  
     11648      11649      11660      11659      11769      11770      11781      11780  
     11650      11651      11662      11661      11771      11772      11783      11782  
     11651      11652      11663      11662      11772      11773      11784      11783  
     11652      11653      11664      11663      11773      11774      11785      11784  
     11653      11654      11665      11664      11774      11775      11786      11785  
     11654      11655      11666      11665      11775      11776      11787      11786  
     11655      11656      11667      11666      11776      11777      11788      11787  
     11656      11657      11668      11667      11777      11778      11789      11788  
     11657      11658      11669      11668      11778      11779      11790      11789  
     11658      11659      11670      11669      11779      11780      11791      11790  
     11659      11660      11671      11670      11780      11781      11792      11791  
     11661      11662      11673      11672      11782      11783      11794      11793  
     11662      11663      11674      11673      11783      11784      11795      11794  
     11663      11664      11675      11674      11784      11785      11796      11795  
     11664      11665      11676      11675      11785      11786      11797      11796  
     11665      11666      11677      11676      11786      11787      11798      11797  
     11666      11667      11678      11677      11787      11788      11799      11798  
     11667      11668      11679      11678      11788      11789      11800      11799  
     11668      11669      11680      11679      11789      11790      11801      11800  
     11669      11670      11681      11680      11790      11791      11802      11801  
     11670      11671      11682      11681      11791      11792      11803      11802  
     11672      11673      11684      11683      11793      11794      11805      11804  
     11673      11674      11685      11684      11794      11795      11806      11805  
     11674      11675      11686      11685      11795      11796      11807      11806  
     11675      11676      11687      11686      11796      11797      11808      11807  
     11676      11677      11688      11687      11797      11798      11809      11808  
     11677      11678      11689      11688      11798      11799      11810      11809  
     11678      11679      11690      11689      11799      11800      11811      11810  
     11679      11680      11691      11690      11800      11801      11812      11811  
     11680      11681      11692      11691      11801      11802      11813      11812  
     11681      11682      11693      11692      11802      11803      11814      11813  
     11683      11684      11695      11694      11804      11805      11816      11815  
     11684      11685      11696      11695      11805      11806      11817      11816  
     11685      11686      11697      11696      11806      11807      11818      11817  
     11686      11687      11698      11697      11807      11808      11819      11818  
     11687      11688      11699      11698      11808      11809      11820      11819  
     11688      11689      11700      11699      11809      11810      11821      11820  
     11689      11690      11701      11700      11810      11811      11822      11821  
     11690      11691      11702      11701      11811      11812      11823      11822  
     11691      11692      11703      11702      11812      11813      11824      11823  
     11692      11693      11704      11703      11813      11814      11825      11824  
     11694      11695      11706      11705      11815      11816      11827      11826  
     11695      11696      11707      11706      11816      11817      11828      11827  
     11696      11697      11708      11707      11817      11818      11829      11828  
     11697      11698      11709      11708      11818      11819      11830      11829  
     11698      11699      11710      11709      11819      11820      11831      11830  
     11699      11700      11711      11710      11820      11821      11832      11831  
     11700      11701      11712      11711      11821      11822      11833      11832  
     11701      11702      11713      11712      11822      11823      11834      11833  
     11702      11703      11714      11713      11823      11824      11835      11834  
     11703      11704      11715      11714      11824      11825      11836      11835  
     11705      11706      11717      11716      11826      11827      11838      11837  
     11706      11707      11718      11717      11827      11828      11839      11838  
     11707      11708      11719      11718      11828      11829      11840      11839  
     11708      11709      11720      11719      11829      11830      11841      11840  
     11709      11710      11721      11720      11830      11831      11842      11841  
     11710      11711      11722      11721      11831      11832      11843      11842  
     11711      11712      11723      11722      11832      11833      11844      11843  
     11712      11713      11724      11723      11833      11834      11845      11844  
     11713      11714      11725      11724      11834      11835      11846      11845  
     11714      11715      11726      11725      11835      11836      11847      11846  
     11716      11717      11728      11727      11837      11838      11849      11848  
     11717      11718      11729      11728      11838      11839      11850      11849  
     11718      11719      11730      11729      11839      11840      11851      11850  
     11719      11720      11731      11730      11840      11841      11852      11851  
     11720      11721      11732      11731      11841      11842      11853      11852  
     11721      11722      11733      11732      11842      11843      11854      11853  
     11722      11723      11734      11733      11843      11844      11855      11854  
     11723      11724      11735      11734      11844      11845      11856      11855  
     11724      11725      11736      11735      11845      11846      11857      11856  
     11725      11726      11737      11736      11846      11847      11858      11857  
     11738      11739      11750      11749      11859      11860      11871      11870  
     11739      11740      11751      11750      11860      11861      11872      11871  
     11740      11741      11752      11751      11861      11862      11873      11872  
     11741      11742      11753      11752      11862      11863      11874      11873  
     11742      11743      11754      11753      11863      11864      11875      11874  
     11743      11744      11755      11754      11864      11865      11876      11875  
     11744      11745      11756      11755      11865      11866      11877      11876  
     11745      11746      11757      11756      11866      11867      11878      11877  
     11746      11747      11758      11757      11867      11868      11879      11878  
     11747      11748      11759      11758      11868      11869      11880      11879  
     11749      11750      11761      11760      11870      11871      11882      11881  
     11750      11751      11762      11761      11871      11872      11883      11882  
     11751      11752      11763      11762      11872      11873      11884      11883  
     11752      11753      11764      11763      11873      11874      11885      11884  
     11753      11754      11765      11764      11874      11875      11886      11885  
     11754      11755      11766      11765      11875      11876      11887      11886  
     11755      11756      11767      11766      11876      11877      11888      11887  
     11756      11757      11768      11767      11877      11878      11889      11888  
     11757      11758      11769      11768      11878      11879      11890      11889  
     11758      11759      11770      11769      11879      11880      11891      11890  
     11760      11761      11772      11771      11881      11882      11893      11892  
     11761      11762      11773      11772      11882      11883      11894      11893  
     11762      11763      11774      11773      11883      11884      11895      11894  
     11763      11764      11775      11774      11884      11885      11896      11895  
     11764      11765      11776      11775      11885      11886      11897      11896  
     11765      11766      11777      11776      11886      11887      11898      11897  
     11766      11767      11778      11777      11887      11888      11899      11898  
     11767      11768      11779      11778      11888      11889      11900      11899  
     11768      11769      11780      11779      11889      11890      11901      11900  
     11769      11770      11781      11780      11890      11891      11902      11901  
     11771      11772      11783      11782      11892      11893      11904      11903  
     11772      11773      11784      11783      11893      11894      11905      11904  
     11773      11774      11785      11784      11894      11895      11906      11905  
     11774      11775      11786      11785      11895      11896      11907      11906  
     11775      11776      11787      11786      11896      11897      11908      11907  
     11776      11777      11788      11787      11897      11898      11909      11908  
     11777      11778      11789      11788      11898      11899      11910      11909  
     11778      11779      11790      11789      11899      11900      11911      11910  
     11779      11780      11791      11790      11900      11901      11912      11911  
     11780      11781      11792      11791      11901      11902      11913      11912  
     11782      11783      11794      11793      11903      11904      11915      11914  
     11783      11784      11795      11794      11904      11905      11916      11915  
     11784      11785      11796      11795      11905      11906      11917      11916  
     11785      11786      11797      11796      11906      11907      11918      11917  
     11786      11787      11798      11797      11907      11908      11919      11918  
     11787      11788      11799      11798      11908      11909      11920      11919  
     11788      11789      11800      11799      11909      11910      11921      11920  
     11789      11790      11801      11800      11910      11911      11922      11921  
     11790      11791      11802      11801      11911      11912      11923      11922  
     11791      11792      11803      11802      11912      11913      11924      11923  
     11793      11794      11805      11804      11914      11915      11926      11925  
     11794      11795      11806      11805      11915      11916      11927      11926  
     11795      11796      11807      11806      11916      11917      11928      11927  
     11796      11797      11808      11807      11917      11918      11929      11928  
     11797      11798      11809      11808      11918      11919      11930      11929  
     11798      11799      11810      11809      11919      11920      11931      11930  
     11799      11800      11811      11810      11920      11921      11932      11931  
     11800      11801      11812      11811      11921      11922      11933      11932  
     11801      11802      11813      11812      11922      11923      11934      11933  
     11802      11803      11814      11813      11923      11924      11935      11934  
     11804      11805      11816      11815      11925      11926      11937      11936  
     11805      11806      11817      11816      11926      11927      11938      11937  
     11806      11807      11818      11817      11927      11928      11939      11938  
     11807      11808      11819      11818      11928      11929      11940      11939  
     11808      11809      11820      11819      11929      11930      11941      11940  
     11809      11810      11821      11820      11930      11931      11942      11941  
     11810      11811      11822      11821      11931      11932      11943      11942  
     11811      11812      11823      11822      11932      11933      11944      11943  
     11812      11813      11824      11823      11933      11934      11945      11944  
     11813      11814      11825      11824      11934      11935      11946      11945  
     11815      11816      11827      11826      11936      11937      11948      11947  
     11816      11817      11828      11827      11937      11938      11949      11948  
     11817      11818      11829      11828      11938      11939      11950      11949  
     11818      11819      11830      11829      11939      11940      11951      11950  
     11819      11820      11831      11830      11940      11941      11952      11951  
     11820      11821      11832      11831      11941      11942      11953      11952  
     11821      11822      11833      11832      11942      11943      11954      11953  
     11822      11823      11834      11833      11943      11944      11955      11954  
     11823      11824      11835      11834      11944      11945      11956      11955  
     11824      11825      11836      11835      11945      11946      11957      11956  
     11826      11827      11838      11837      11947      11948      11959      11958  
     11827      11828      11839      11838      11948      11949      11960      11959  
     11828      11829      11840      11839      11949      11950      11961      11960  
     11829      11830      11841      11840      11950      11951      11962      11961  
     11830      11831      11842      11841      11951      11952      11963      11962  
     11831      11832      11843      11842      11952      11953      11964      11963  
     11832      11833      11844      11843      11953      11954      11965      11964  
     11833      11834      11845      11844      11954      11955      11966      11965  
     11834      11835      11846      11845      11955      11956      11967      11966  
     11835      11836      11847      11846      11956      11957      11968      11967  
     11837      11838      11849      11848      11958      11959      11970      11969  
     11838      11839      11850      11849      11959      11960      11971      11970  
     11839      11840      11851      11850      11960      11961      11972      11971  
     11840      11841      11852      11851      11961      11962      11973      11972  
     11841      11842      11853      11852      11962      11963      11974      11973  
     11842      11843      11854      11853      11963      11964      11975      11974  
     11843      11844      11855      11854      11964      11965      11976      11975  
     11844      11845      11856      11855      11965      11966      11977      11976  
     11845      11846      11857      11856      11966      11967      11978      11977  
     11846      11847      11858      11857      11967      11968      11979      11978  
     11859      11860      11871      11870      11980      11981      11992      11991  
     11860      11861      11872      11871      11981      11982      11993      11992  
     11861      11862      11873      11872      11982      11983      11994      11993  
     11862      11863      11874      11873      11983      11984      11995      11994  
     11863      11864      11875      11874      11984      11985      11996      11995  
     11864      11865      11876      11875      11985      11986      11997      11996  
     11865      11866      11877      11876      11986      11987      11998      11997  
     11866      11867      11878      11877      11987      11988      11999      11998  
     11867      11868      11879      11878      11988      11989      12000      11999  
     11868      11869      11880      11879      11989      11990      12001      12000  
     11870      11871      11882      11881      11991      11992      12003      12002  
     11871      11872      11883      11882      11992      11993      12004      12003  
     11872      11873      11884      11883      11993      11994      12005      12004  
     11873      11874      11885      11884      11994      11995      12006      12005  
     11874      11875      11886      11885      11995      11996      12007      12006  
     11875      11876      11887      11886      11996      11997      12008      12007  
     11876      11877      11888      11887      11997      11998      12009      12008  
     11877      11878      11889      11888      11998      11999      12010      12009  
     11878      11879      11890      11889      11999      12000      12011      12010  
     11879      11880      11891      11890      12000      12001      12012      12011  
     11881      11882      11893      11892      12002      12003      12014      12013  
     11882      11883      11894      11893      12003      12004      12015      12014  
     11883      11884      11895      11894      12004      12005      12016      12015  
     11884      11885      11896      11895      12005      12006      12017      12016  
     11885      11886      11897      11896      12006      12007      12018      12017  
     11886      11887      11898      11897      12007      12008      12019      12018  
     11887      11888      11899      11898      12008      12009      12020      12019  
     11888      11889      11900      11899      12009      12010      12021      12020  
     11889      11890      11901      11900      12010      12011      12022      12021  
     11890      11891      11902      11901      12011      12012      12023      12022  
     11892      11893      11904      11903      12013      12014      12025      12024  
     11893      11894      11905      11904      12014      12015      12026      12025  
     11894      11895      11906      11905      12015      12016      12027      12026  
     11895      11896      11907      11906      12016      12017      12028      12027  
     11896      11897      11908      11907      12017      12018      12029      12028  
     11897      11898      11909      11908      12018      12019      12030      12029  
     11898      11899      11910      11909      12019      12020      12031      12030  
     11899      11900      11911      11910      12020      12021      12032      12031  
     11900      11901      11912      11911      12021      12022      12033      12032  
     11901      11902      11913      11912      12022      12023      12034      12033  
     11903      11904      11915      11914      12024      12025      12036      12035  
     11904      11905      11916      11915      12025      12026      12037      12036  
     11905      11906      11917      11916      12026      12027      12038      12037  
     11906      11907      11918      11917      12027      12028      12039      12038  
     11907      11908      11919      11918      12028      12029      12040      12039  
     11908      11909      11920      11919      12029      12030      12041      12040  
     11909      11910      11921      11920      12030      12031      12042      12041  
     11910      11911      11922      11921      12031      12032      12043      12042  
     11911      11912      11923      11922      12032      12033      12044      12043  
     11912      11913      11924      11923      12033      12034      12045      12044  
     11914      11915      11926      11925      12035      12036      12047      12046  
     11915      11916      11927      11926      12036      12037      12048      12047  
     11916      11917      11928      11927      12037      12038      12049      12048  
     11917      11918      11929      11928      12038      12039      12050      12049  
     11918      11919      11930      11929      12039      12040      12051      12050  
     11919      11920      11931      11930      12040      12041      12052      12051  
     11920      11921      11932      11931      12041      12042      12053      12052  
     11921      11922      11933      11932      12042      12043      12054      12053  
     11922      11923      11934      11933      12043      12044      12055      12054  
     11923      11924      11935      11934      12044      12045      12056      12055  
     11925      11926      11937      11936      12046      12047      12058      12057  
     11926      11927      11938      11937      12047      12048      12059      12058  
     11927      11928      11939      11938      12048      12049      12060      12059  
     11928      11929      11940      11939      12049      12050      12061      12060  
     11929      11930      11941      11940      12050      12051      12062      12061  
     11930      11931      11942      11941      12051      12052      12063      12062  
     11931      11932      11943      11942      12052      12053      12064      12063  
     11932      11933      11944      11943      12053      12054      12065      12064  
     11933      11934      11945      11944      12054      12055      12066      12065  
     11934      11935      11946      11945      12055      12056      12067      12066  
     11936      11937      11948      11947      12057      12058      12069      12068  
     11937      11938      11949      11948      12058      12059      12070      12069  
     11938      11939      11950      11949      12059      12060      12071      12070  
     11939      11940      11951      11950      12060      12061      12072      12071  
     11940      11941      11952      11951      12061      12062      12073      12072  
     11941      11942      11953      11952      12062      12063      12074      12073  
     11942      11943      11954      11953      12063      12064      12075      12074  
     11943      11944      11955      11954      12064      12065      12076      12075  
     11944      11945      11956      11955      12065      12066      12077      12076  
     11945      11946      11957      11956      12066      12067      12078      12077  
     11947      11948      11959      11958      12068      12069      12080      12079  
     11948      11949      11960      11959      12069      12070      12081      12080  
     11949      11950      11961      11960      12070      12071      12082      12081  
     11950      11951      11962      11961      12071      12072      12083      12082  
     11951      11952      11963      11962      12072      12073      12084      12083  
     11952      11953      11964      11963      12073      12074      12085      12084  
     11953      11954      11965      11964      12074      12075      12086      12085  
     11954      11955      11966      11965      12075      12076      12087      12086  
     11955      11956      11967      11966      12076      12077      12088      12087  
     11956      11957      11968      11967      12077      12078      12089      12088  
     11958      11959      11970      11969      12079      12080      12091      12090  
     11959      11960      11971      11970      12080      12081      12092      12091  
     11960      11961      11972      11971      12081      12082      12093      12092  
     11961      11962      11973      11972      12082      12083      12094      12093  
     11962      11963      11974      11973      12083      12084      12095      12094  
     11963      11964      11975      11974      12084      12085      12096      12095  
     11964      11965      11976      11975      12085      12086      12097      12096  
     11965      11966      11977      11976      12086      12087      12098      12097  
     11966      11967      11978      11977      12087      12088      12099      12098  
     11967      11968      11979      11978      12088      12089      12100      12099  
     11980      11981      11992      11991      12101      12102      12113      12112  
     11981      11982      11993      11992      12102      12103      12114      12113  
     11982      11983      11994      11993      12103      12104      12115      12114  
     11983      11984      11995      11994      12104      12105      12116      12115  
     11984      11985      11996      11995      12105      12106      12117      12116  
     11985      11986      11997      11996      12106      12107      12118      12117  
     11986      11987      11998      11997      12107      12108      12119      12118  
     11987      11988      11999      11998      12108      12109      12120      12119  
     11988      11989      12000      11999      12109      12110      12121      12120  
     11989      11990      12001      12000      12110      12111      12122      12121  
     11991      11992      12003      12002      12112      12113      12124      12123  
     11992      11993      12004      12003      12113      12114      12125      12124  
     11993      11994      12005      12004      12114      12115      12126      12125  
     11994      11995      12006      12005      12115      12116      12127      12126  
     11995      11996      12007      12006      12116      12117      12128      12127  
     11996      11997      12008      12007      12117      12118      12129      12128  
     11997      11998      12009      12008      12118      12119      12130      12129  
     11998      11999      12010      12009      12119      12120      12131      12130  
     11999      12000      12011      12010      12120      12121      12132      12131  
     12000      12001      12012      12011      12121      12122      12133      12132  
     12002      12003      12014      12013      12123      12124      12135      12134  
     12003      12004      12015      12014      12124      12125      12136      12135  
     12004      12005      12016      12015      12125      12126      12137      12136  
     12005      12006      12017      12016      12126      12127      12138      12137  
     12006      12007      12018      12017      12127      12128      12139      12138  
     12007      12008      12019      12018      12128      12129      12140      12139  
     12008      12009      12020      12019      12129      12130      12141      12140  
     12009      12010      12021      12020      12130      12131      12142      12141  
     12010      12011      12022      12021      12131      12132      12143      12142  
     12011      12012      12023      12022      12132      12133      12144      12143  
     12013      12014      12025      12024      12134      12135      12146      12145  
     12014      12015      12026      12025      12135      12136      12147      12146  
     12015      12016      12027      12026      12136      12137      12148      12147  
     12016      12017      12028      12027      12137      12138      12149      12148  
     12017      12018      12029      12028      12138      12139      12150      12149  
     12018      12019      12030      12029      12139      12140      12151      12150  
     12019      12020      12031      12030      12140      12141      12152      12151  
     12020      12021      12032      12031      12141      12142      12153      12152  
     12021      12022      12033      12032      12142      12143      12154      12153  
     12022      12023      12034      12033      12143      12144      12155      12154  
     12024      12025      12036      12035      12145      12146      12157      12156  
     12025      12026      12037      12036      12146      12147      12158      12157  
     12026      12027      12038      12037      12147      12148      12159      12158  
     12027      12028      12039      12038      12148      12149      12160      12159  
     12028      12029      12040      12039      12149      12150      12161      12160  
     12029      12030      12041      12040      12150      12151      12162      12161  
     12030      12031      12042      12041      12151      12152      12163      12162  
     12031      12032      12043      12042      12152      12153      12164      12163  
     12032      12033      12044      12043      12153      12154      12165      12164  
     12033      12034      12045      12044      12154      12155      12166      12165  
     12035      12036      12047      12046      12156      12157      12168      12167  
     12036      12037      12048      12047      12157      12158      12169      12168  
     12037      12038      12049      12048      12158      12159      12170      12169  
     12038      12039      12050      12049      12159      12160      12171      12170  
     12039      12040      12051      12050      12160      12161      12172      12171  
     12040      12041      12052      12051      12161      12162      12173      12172  
     12041      12042      12053      12052      12162      12163      12174      12173  
     12042      12043      12054      12053      12163      12164      12175      12174  
     12043      12044      12055      12054      12164      12165      12176      12175  
     12044      12045      12056      12055      12165      12166      12177      12176  
     12046      12047      12058      12057      12167      12168      12179      12178  
     12047      12048      12059      12058      12168      12169      12180      12179  
     12048      12049      12060      12059      12169      12170      12181      12180  
     12049      12050      12061      12060      12170      12171      12182      12181  
     12050      12051      12062      12061      12171      12172      12183      12182  
     12051      12052      12063      12062      12172      12173      12184      12183  
     12052      12053      12064      12063      12173      12174      12185      12184  
     12053      12054      12065      12064      12174      12175      12186      12185  
     12054      12055      12066      12065      12175      12176      12187      12186  
     12055      12056      12067      12066      12176      12177      12188      12187  
     12057      12058      12069      12068      12178      12179      12190      12189  
     12058      12059      12070      12069      12179      12180      12191      12190  
     12059      12060      12071      12070      12180      12181      12192      12191  
     12060      12061      12072      12071      12181      12182      12193      12192  
     12061      12062      12073      12072      12182      12183      12194      12193  
     12062      12063      12074      12073      12183      12184      12195      12194  
     12063      12064      12075      12074      12184      12185      12196      12195  
     12064      12065      12076      12075      12185      12186      12197      12196  
     12065      12066      12077      12076      12186      12187      12198      12197  
     12066      12067      12078      12077      12187      12188      12199      12198  
     12068      12069      12080      12079      12189      12190      12201      12200  
     12069      12070      12081      12080      12190      12191      12202      12201  
     12070      12071      12082      12081      12191      12192      12203      12202  
     12071      12072      12083      12082      12192      12193      12204      12203  
     12072      12073      12084      12083      12193      12194      12205      12204  
     12073      12074      12085      12084      12194      12195      12206      12205  
     12074      12075      12086      12085      12195      12196      12207      12206  
     12075      12076      12087      12086      12196      12197      12208      12207  
     12076      12077      12088      12087      12197      12198      12209      12208  
     12077      12078      12089      12088      12198      12199      12210      12209  
     12079      12080      12091      12090      12200      12201      12212      12211  
     12080      12081      12092      12091      12201      12202      12213      12212  
     12081      12082      12093      12092      12202      12203      12214      12213  
     12082      12083      12094      12093      12203      12204      12215      12214  
     12083      12084      12095      12094      12204      12205      12216      12215  
     12084      12085      12096      12095      12205      12206      12217      12216  
     12085      12086      12097      12096      12206      12207      12218      12217  
     12086      12087      12098      12097      12207      12208      12219      12218  
     12087      12088      12099      12098      12208      12209      12220      12219  
     12088      12089      12100      12099      12209      12210      12221      12220  
